ID,Site,Latitude,Longitude,Genetics,Planting,ID_Loc,Year,Mat,Yield_Sim,MaxStage,StartDate,PlantingDate_Sim,DTM_Sim,MatDate_Sim,HarvestDate_Sim,EndDate,Result,Rain_1,Rain_2,Rain_3,Rain_4,Rain_5,Rain_6,Rain_7,Rain_8,Rain_9,Rain_10,Rain_11,AccRain_1,AccRain_2,AccRain_3,AccRain_4,AccRain_5,AccRain_6,AccRain_7,AccRain_8,AccRain_9,AccRain_10,AccRain_11,Radn_1,Radn_2,Radn_3,Radn_4,Radn_5,Radn_6,Radn_7,Radn_8,Radn_9,Radn_10,Radn_11,MaxT_1,MaxT_2,MaxT_3,MaxT_4,MaxT_5,MaxT_6,MaxT_7,MaxT_8,MaxT_9,MaxT_10,MaxT_11,MeanT_1,MeanT_2,MeanT_3,MeanT_4,MeanT_5,MeanT_6,MeanT_7,MeanT_8,MeanT_9,MeanT_10,MeanT_11,MinT_1,MinT_2,MinT_3,MinT_4,MinT_5,MinT_6,MinT_7,MinT_8,MinT_9,MinT_10,MinT_11,ThermalTime_1,ThermalTime_2,ThermalTime_3,ThermalTime_4,ThermalTime_5,ThermalTime_6,ThermalTime_7,ThermalTime_8,ThermalTime_9,ThermalTime_10,ThermalTime_11,AccTT_1,AccTT_2,AccTT_3,AccTT_4,AccTT_5,AccTT_6,AccTT_7,AccTT_8,AccTT_9,AccTT_10,AccTT_11,AccEmTT_1,AccEmTT_2,AccEmTT_3,AccEmTT_4,AccEmTT_5,AccEmTT_6,AccEmTT_7,AccEmTT_8,AccEmTT_9,AccEmTT_10,AccEmTT_11,FracGrowthRate_1,FracGrowthRate_2,FracGrowthRate_3,FracGrowthRate_4,FracGrowthRate_5,FracGrowthRate_6,FracGrowthRate_7,FracGrowthRate_8,FracGrowthRate_9,FracGrowthRate_10,FracGrowthRate_11,NutrientStress_1,NutrientStress_2,NutrientStress_3,NutrientStress_4,NutrientStress_5,NutrientStress_6,NutrientStress_7,NutrientStress_8,NutrientStress_9,NutrientStress_10,NutrientStress_11,TempStress_1,TempStress_2,TempStress_3,TempStress_4,TempStress_5,TempStress_6,TempStress_7,TempStress_8,TempStress_9,TempStress_10,TempStress_11,WaterStress_1,WaterStress_2,WaterStress_3,WaterStress_4,WaterStress_5,WaterStress_6,WaterStress_7,WaterStress_8,WaterStress_9,WaterStress_10,WaterStress_11,Period_Start_Date_1,Period_Start_Date_2,Period_Start_Date_3,Period_Start_Date_4,Period_Start_Date_5,Period_Start_Date_6,Period_Start_Date_7,Period_Start_Date_8,Period_Start_Date_9,Period_Start_Date_10,Period_Start_Date_11,Period_End_Date_1,Period_End_Date_2,Period_End_Date_3,Period_End_Date_4,Period_End_Date_5,Period_End_Date_6,Period_End_Date_7,Period_End_Date_8,Period_End_Date_9,Period_End_Date_10,Period_End_Date_11,Period_Start_DOY_1,Period_Start_DOY_2,Period_Start_DOY_3,Period_Start_DOY_4,Period_Start_DOY_5,Period_Start_DOY_6,Period_Start_DOY_7,Period_Start_DOY_8,Period_Start_DOY_9,Period_Start_DOY_10,Period_Start_DOY_11,Duration_1,Duration_2,Duration_3,Duration_4,Duration_5,Duration_6,Duration_7,Duration_8,Duration_9,Duration_10,Duration_11,Period_End_DOY_1,Period_End_DOY_2,Period_End_DOY_3,Period_End_DOY_4,Period_End_DOY_5,Period_End_DOY_6,Period_End_DOY_7,Period_End_DOY_8,Period_End_DOY_9,Period_End_DOY_10,Period_End_DOY_11
1,crookston_mn,47.805,-96.61426667,-1,2019-05-17,1,2019,early00,797.3857420277445,11,2019-05-03,2019-05-17,134,2019-09-28,2019-10-06,2019-10-20,Harvested at Maturity.,0.4726666609446208,2.955000082651774,1.7123076976873937,3.844705848132863,3.3604546080936086,0,2.9588890075683594,2.6166666646798453,6.796500015258789,6.493750065565109,5.2566666086514795,0.4726666609446208,2.955000082651774,1.7123076976873937,3.844705848132863,3.3604546080936086,0,2.9588890075683594,2.6166666646798453,6.796500015258789,6.493750065565109,5.2566666086514795,26.324767748514812,20.970722238222756,21.768136024475098,19.686118069817038,18.05151781168851,21.420948028564453,17.20932345920139,14.821620424588522,11.822635853290558,6.532201409339905,7.407461150487264,16.31266663869222,18.446666717529297,26.021281853700295,28.080000035903034,26.14499993757768,26.969999313354492,24.573333104451496,20.711666742960613,21.43600015640259,10.126250147819519,10.116000080108643,9.152999983231227,12.162083367506662,19.1042306912251,21.750588276807,19.98818178610368,19.19499969482422,18.227777640024822,15.013750076293945,16.186750066280364,7.3287500739097595,6.214666705826918,1.9933333277702332,5.877500017484029,12.187179528749907,15.421176517710967,13.831363634629684,11.420000076293944,11.882222175598145,9.31583340962728,10.937499976158142,4.53125,2.313333331545194,2.1949111841086797,3.2280758982149265,7.119892388906918,9.824826615957184,9.561372765463302,9.194999694824222,8.945729557016161,6.847533411547045,7.8939118685111405,5,0.8690070026789234,2.1949111841086797,3.2280758982149265,7.119892388906918,9.824826615957184,9.561372765463302,9.194999694824222,8.945729557016161,6.847533411547045,7.8939118685111405,5,0.8690070026789234,0,0,277.6758031673699,444.697855638642,655.0480564788345,664.2430561736587,744.7546221868042,826.925023125369,984.803260495592,1024.803260495592,1024.803260495592,0,0,0.8184102553587693,0.9756176471710205,0.8748636375774037,0.919499969482422,0.8227777640024821,0.5013750076293946,0.5613000071048737,0,0,1,1,1,1,1,1,1,1,1,1,1,0.12836666345596315,0.23533334036668144,0.8184102553587693,0.9756176471710205,0.8748636375774037,0.919499969482422,0.8227777640024821,0.5013750076293946,0.5613000071048737,0,0.026766669750213624,1,1,1,0.9999999999999999,1,0.9999999999999998,0.9999999999999999,0.9999999999999999,0.9999999999999999,0.9999999999999998,1,2019-05-03T12:00:00Z,2019-05-18T12:00:00Z,2019-05-30T12:00:00Z,2019-07-08T12:00:00Z,2019-07-25T12:00:00Z,2019-08-16T12:00:00Z,2019-08-17T12:00:00Z,2019-08-26T12:00:00Z,2019-09-07T12:00:00Z,2019-09-27T12:00:00Z,2019-10-05T12:00:00Z,2019-05-17T12:00:00Z,2019-05-29T12:00:00Z,2019-07-07T12:00:00Z,2019-07-24T12:00:00Z,2019-08-15T12:00:00Z,2019-08-16T12:00:00Z,2019-08-25T12:00:00Z,2019-09-06T12:00:00Z,2019-09-26T12:00:00Z,2019-10-04T12:00:00Z,2019-10-19T12:00:00Z,123,138,150,189,206,228,229,238,250,270,278,14,11,38,16,21,0,8,11,19,7,14,137,149,188,205,227,228,237,249,269,277,292
2,roseau_mn,48.1623,-96.0419,-1,2019-05-18,2,2019,early00,641.8464838328531,11,2019-05-04,2019-05-18,155,2019-10-20,2019-10-28,2019-11-11,Harvested at Maturity.,0.09866666793823242,3.300000017339533,3.599090966311368,0.9784210606625205,3.160000044565934,2.734999895095825,3.8707143174750467,2.317500114440918,8.137586224695731,0.956250011920929,0.20533332824707032,0.09866666793823242,3.300000017339533,3.599090966311368,0.9784210606625205,3.160000044565934,2.734999895095825,3.8707143174750467,2.317500114440918,8.137586224695731,0.956250011920929,0.20533332824707032,26.214838155110677,21.053423274647106,22.058545437726107,21.291089258695905,17.28082589002756,11.284873008728027,13.669953857149396,12.997760236263275,7.954861640930176,7.102041780948639,5.893468586603801,15.431999937693277,17.83090912212025,25.152727300470527,26.956315592715615,24.55576911339393,18.625,18.16928584235055,23.10124981403351,12.21103442126307,8.89874991774559,-1.806666695823272,8.44666663557291,11.521363681012934,18.084204547784545,20.10026306855051,18.25903837497418,14.585000038146973,12.836071482726506,17.300624892115593,8.185172395298965,4.6062499603722245,-5.296666683629155,1.4613333334525427,5.211818239905617,11.015681795098565,13.244210544385409,11.962307636554424,10.545000076293945,7.50285712310246,11.499999970197678,4.159310369334858,0.3137500029988587,-8.786666671435038,1.8383134695106809,2.832224561120434,6.452247329425119,8.791689644251273,8.150265918109678,4.585000038146973,5.858606723547727,9.06742856129799,5.559596253750447,5,0,1.8383134695106809,2.832224561120434,6.452247329425119,8.791689644251273,8.150265918109678,4.585000038146973,5.858606723547727,9.06742856129799,5.559596253750447,5,0,0,0,283.8988824947052,450.94098573547944,662.8478996063311,672.01789968262506,754.0383938122934,826.5778223026773,987.8061136614402,1027.80611366144,1027.80611366144,0,0,0.763511361181736,0.896605258238943,0.7768076859987699,0.45850000381469724,0.2836071482726506,0.646562497317791,0.12348275595697865,0,0,1,1,1,1,1,1,1,1,1,1,1,0.09826666951179505,0.164727276021784,0.763511361181736,0.896605258238943,0.7768076859987699,0.45850000381469724,0.2836071482726506,0.646562497317791,0.12348275595697865,0,0,1,1,1,1,1,1,0.9999999999999999,1,1,1,1,2019-05-04T12:00:00Z,2019-05-19T12:00:00Z,2019-05-30T12:00:00Z,2019-07-13T12:00:00Z,2019-08-01T12:00:00Z,2019-08-27T12:00:00Z,2019-08-29T12:00:00Z,2019-09-12T12:00:00Z,2019-09-20T12:00:00Z,2019-10-19T12:00:00Z,2019-10-27T12:00:00Z,2019-05-18T12:00:00Z,2019-05-29T12:00:00Z,2019-07-12T12:00:00Z,2019-07-31T12:00:00Z,2019-08-26T12:00:00Z,2019-08-28T12:00:00Z,2019-09-11T12:00:00Z,2019-09-19T12:00:00Z,2019-10-18T12:00:00Z,2019-10-26T12:00:00Z,2019-11-10T12:00:00Z,124,139,150,194,213,239,241,255,263,292,300,14,10,43,18,25,1,13,7,28,7,14,138,149,193,212,238,240,254,262,291,299,314
3,thiefriverfalls_mn,48.1283,-96.2427,-1,2019-05-18,3,2019,early00,647.4028008137002,11,2019-05-04,2019-05-18,151,2019-10-16,2019-10-24,2019-11-07,Harvested at Maturity.,0.14200000762939452,3.2127272432500664,3.1962790433750596,1.1542105361034996,2.2348000144958498,21.209999084472656,2.5415384586040792,5.1150001842528585,8.244073967138926,0.9212499931454659,0.24400000174840292,0.14200000762939452,3.2127272432500664,3.1962790433750596,1.1542105361034996,2.2348000144958498,21.209999084472656,2.5415384586040792,5.1150001842528585,8.244073967138926,0.9212499931454659,0.24400000174840292,25.98931452433268,21.154237963936545,22.051676861075467,20.826811439112614,18.044211082458496,8.764698028564453,14.350493100973276,12.01536169052124,8.349019562756574,7.168063223361969,6.472177775700887,15.558666642506918,18.130000114440918,25.296511583550032,27.09947335092645,25.05040008544922,21.979999542236328,19.29230756026048,20.006999969482422,13.489259357805606,9.721249997615814,1.7379999607801437,8.54533332834641,11.760000082579525,18.22360461950302,20.440526171734458,18.469600009918214,18.204999923706055,13.76153838634491,14.918500018119811,9.433703726640454,5.659375003888272,-1.9476667001843453,1.5320000141859054,5.390000050718134,11.15069765545601,13.781578992542467,11.888799934387206,14.43000030517578,8.23076921242934,9.830000066757203,5.378148095475303,1.5975000101607293,-5.633333361148834,1.886236951012779,2.9859130943972954,6.531131847725013,9.0230682983903,8.323680948992278,8.204999923706055,6.260998052305785,7.328145202248395,6.013569804302024,5.006852652256191,0.030329676734507104,1.886236951012779,2.9859130943972954,6.531131847725013,9.0230682983903,8.323680948992278,8.204999923706055,6.260998052305785,7.328145202248395,6.013569804302024,5.006852652256191,0.030329676734507104,0,0,280.83866945217557,452.2769671215912,660.3689908463981,668.5739907701042,749.9669654500793,823.2484174725632,985.614802188718,1025.6696234067674,1025.6696234067674,0,0,0.7722441846548125,0.9160789427004362,0.7909400005340577,0.8204999923706056,0.376153838634491,0.4384000086784363,0.20335185527801514,9.999990463256826e-4,0,1,1,1,1,1,1,1,1,1,1,1,0.10476666728655497,0.1838636414571242,0.7722441846548125,0.9160789427004362,0.7909400005340577,0.8204999923706056,0.376153838634491,0.4384000086784363,0.20335185527801514,9.999990463256826e-4,0,1,1,1,1,0.9999999999999999,1,1,1,1,1,1,2019-05-04T12:00:00Z,2019-05-19T12:00:00Z,2019-05-30T12:00:00Z,2019-07-12T12:00:00Z,2019-07-31T12:00:00Z,2019-08-25T12:00:00Z,2019-08-26T12:00:00Z,2019-09-08T12:00:00Z,2019-09-18T12:00:00Z,2019-10-15T12:00:00Z,2019-10-23T12:00:00Z,2019-05-18T12:00:00Z,2019-05-29T12:00:00Z,2019-07-11T12:00:00Z,2019-07-30T12:00:00Z,2019-08-24T12:00:00Z,2019-08-25T12:00:00Z,2019-09-07T12:00:00Z,2019-09-17T12:00:00Z,2019-10-14T12:00:00Z,2019-10-22T12:00:00Z,2019-11-06T12:00:00Z,124,139,150,193,212,237,238,251,261,288,296,14,10,42,18,24,0,12,9,26,7,14,138,149,192,211,236,237,250,260,287,295,310
4,casselton_nd,46.8866,-97.2386,-1,2019-05-17,4,2019,early00,783.58559812727,11,2019-05-03,2019-05-17,125,2019-09-19,2019-09-23,2019-10-07,Harvested at Maturity.,2.1140000224113464,3.7958333492279053,3.1561111244890423,6.778125144541264,1.920500010251999,0,4.291111124886407,1.4855555693308513,3.3980000108480457,9.277499914169312,3.813333304723104,2.1140000224113464,3.7958333492279053,3.1561111244890423,6.778125144541264,1.920500010251999,0,4.291111124886407,1.4855555693308513,3.3980000108480457,9.277499914169312,3.813333304723104,24.34081439971924,19.74317153294881,20.755913946363663,19.597095847129822,20.33636441230774,19.31580352783203,15.63351058959961,16.220938046773274,13.846231651306152,12.322639226913452,9.628911542892457,17.13466682434082,18.048333247502644,26.46083354949951,28.510000109672546,27.3854998588562,24.959999084472656,24.747777938842773,23.41999986436632,21.713499975204467,27.457499980926514,14.776666768391927,9.8360000928243,11.996666607757408,19.796250138017868,22.674374967813492,20.846249914169313,19.10999965667725,19.100000116560192,17.781111081441246,16.33899997472763,21.135000109672546,10.505333391825358,2.53733336130778,5.944999968012174,13.13166672653622,16.838749825954437,14.306999969482423,13.260000228881836,13.452222294277615,12.142222298516167,10.964499974250794,14.812500238418579,6.234000015258789,2.433817438937798,3.1411646297131974,7.770234002158975,10.6206400113325,10.245877913553173,9.109999656677246,9.356341549115049,8.460063153260284,7.660659012292922,11.216056086768209,1.7827575130501392,2.433817438937798,3.1411646297131974,7.770234002158975,10.6206400113325,10.245877913553173,9.109999656677246,9.356341549115049,8.460063153260284,7.660659012292922,11.216056086768209,1.7827575130501392,0,0,279.7284240777231,449.65866425904306,654.5762225301065,663.6862221867838,747.8932961288191,824.0338645081616,977.24704475402,1022.1112691010928,1022.1112691010928,0,0,0.8501250008742015,0.9909374982118606,0.9308500003814697,0.9109999656677248,0.8841666698455811,0.7779999997880724,0.5967500007152557,1,0.03839999834696452,1,1,1,1,1,1,1,1,1,1,1,0.13720000743865968,0.23883333206176757,0.8501250008742015,0.9909374982118606,0.9308500003814697,0.9109999656677248,0.8841666698455811,0.7779999997880724,0.5967500007152557,1,0.1774000056584676,1,1,1,1,1,0.9999999999999996,1,1,0.9999999999999999,0.9999999999999999,1,2019-05-03T12:00:00Z,2019-05-18T12:00:00Z,2019-05-30T12:00:00Z,2019-07-05T12:00:00Z,2019-07-21T12:00:00Z,2019-08-10T12:00:00Z,2019-08-11T12:00:00Z,2019-08-20T12:00:00Z,2019-08-29T12:00:00Z,2019-09-18T12:00:00Z,2019-09-22T12:00:00Z,2019-05-17T12:00:00Z,2019-05-29T12:00:00Z,2019-07-04T12:00:00Z,2019-07-20T12:00:00Z,2019-08-09T12:00:00Z,2019-08-10T12:00:00Z,2019-08-19T12:00:00Z,2019-08-28T12:00:00Z,2019-09-17T12:00:00Z,2019-09-21T12:00:00Z,2019-10-06T12:00:00Z,123,138,150,186,202,222,223,232,241,261,265,14,11,35,15,19,0,8,8,19,3,14,137,149,185,201,221,222,231,240,260,264,279
5,ottawa_ont,45.3712,-75.72575,-1,2019-05-22,5,2019,early00,743.4535092754487,11,2019-05-08,2019-05-22,124,2019-09-23,2019-09-29,2019-10-13,Harvested at Maturity.,4.200666618347168,2.3589999675750732,3.3002631617219826,1.6156249940395355,1.8026315726731952,0,2.110000035592488,2.368888907962375,1.6828571217400687,4.328333377838135,1.644000025590261,4.200666618347168,2.3589999675750732,3.3002631617219826,1.6156249940395355,1.8026315726731952,0,2.110000035592488,2.368888907962375,1.6828571217400687,4.328333377838135,1.644000025590261,20.715237363179526,20.506581020355224,21.60443391297993,19.9886337518692,19.081693097164756,20.897672653198242,15.442474092756,16.218346489800346,14.81089278629848,10.155672709147135,10.264697742462157,15.888666725158691,18.744000148773193,25.172894854294626,28.300625443458557,27.935789208663138,24.389999389648438,27.00714274815151,24.141110950046116,21.59619040716262,22.155000050862633,16.00733362833659,10.738333378235499,13.628000092506408,18.613421126415854,22.07125025987625,21.09710515172858,17.177499771118164,21.05785710471017,17.95499997668796,15.093571441514152,16.351666688919067,10.089000117778777,5.588000031312307,8.512000036239623,12.053947398537083,15.841875076293945,14.258421094794022,9.96500015258789,15.108571461268834,11.768889003329807,8.590952475865683,10.548333326975506,4.1706666072209675,2.156526087797508,3.9880112873551252,7.270820787879854,10.575502244190462,10.805391158418821,7.233144608020783,11.157360055766787,8.780449883890153,7.225322661322994,7.8899599558576945,1.8007925831072777,2.156526087797508,3.9880112873551252,7.270820787879854,10.575502244190462,10.805391158418821,7.233144608020783,11.157360055766787,8.780449883890153,7.225322661322994,7.8899599558576945,1.8007925831072777,0,0,276.2911899394345,445.499225846482,650.8016578564395,665.2679470724811,743.3694674628485,822.3935164178599,974.1252923056428,1021.465052040789,1021.465052040789,0,0,0.7776710547898945,0.9746250063180923,0.9558157870644017,0.7177499771118164,1,0.7902222156524659,0.5093571441514152,0.6104166746139527,0.03176666895548503,1,1,1,1,1,1,1,1,1,1,1,0.13680000305175782,0.3628000092506409,0.7776710547898945,0.9746250063180923,0.9558157870644017,0.7177499771118164,1,0.7902222156524659,0.5093571441514152,0.6104166746139527,0.09996667246023815,1,1,1,1,1,1,1,1,1,1,1,2019-05-08T12:00:00Z,2019-05-23T12:00:00Z,2019-06-02T12:00:00Z,2019-07-10T12:00:00Z,2019-07-26T12:00:00Z,2019-08-14T12:00:00Z,2019-08-16T12:00:00Z,2019-08-23T12:00:00Z,2019-09-01T12:00:00Z,2019-09-22T12:00:00Z,2019-09-28T12:00:00Z,2019-05-22T12:00:00Z,2019-06-01T12:00:00Z,2019-07-09T12:00:00Z,2019-07-25T12:00:00Z,2019-08-13T12:00:00Z,2019-08-15T12:00:00Z,2019-08-22T12:00:00Z,2019-08-31T12:00:00Z,2019-09-21T12:00:00Z,2019-09-27T12:00:00Z,2019-10-12T12:00:00Z,128,143,153,191,207,226,228,235,244,265,271,14,9,37,15,18,1,6,8,20,5,14,142,152,190,206,225,227,234,243,264,270,285
6,lapocatiere_que,47.357,-70.023,-1,2019-06-06,6,2019,early00,0,6.11242248055886,2019-05-23,2019-06-06,NA,NA,2019-11-11,2019-11-25,Dead from Frost.,2.448666652664542,1.9975000023841856,1.6109523759001778,2.780999928712845,2.7066666559378305,6.525833144783974,NA,NA,NA,NA,1.957857174532754,2.448666652664542,1.9975000023841856,1.6109523759001778,2.780999928712845,2.7066666559378305,6.525833144783974,NA,NA,NA,NA,1.957857174532754,23.21658395131429,24.1252418756485,20.99212101527623,18.496491575241087,11.357568054199218,4.576495508352916,NA,NA,NA,NA,4.766627090317862,17.20199998219808,21.084999561309814,23.955476215907506,24.768000030517577,15.893466663360595,5.335833316047986,NA,NA,NA,NA,-1.0335714342072606,11.77266663312912,14.370624721050262,17.950119018554688,19.039750051498412,11.086466650354366,2.232499996044983,NA,NA,NA,NA,-4.585000056972993,6.343333284060161,7.6562498807907104,11.944761821201869,13.311500072479248,6.279466637348135,-0.8708333239580194,NA,NA,NA,NA,-8.136428679738726,2.7566857626209655,4.8232393269747496,6.580693463563725,8.706715890010162,2.766450547786529,0.08856188387672109,NA,NA,NA,NA,0,2.7566857626209655,4.8232393269747496,6.580693463563725,8.706715890010162,2.766450547786529,0.08856188387672109,NA,NA,NA,NA,0,0,0,276.38912546967646,450.52344326987975,658.0072343538692,659.0699769603898,NA,NA,NA,NA,0,0,0,0.768226186434428,0.8277499985694885,0.2381599973042806,0,NA,NA,NA,NA,0,1,1,1,1,1,1,NA,NA,NA,NA,1,0.19159999688466392,0.4370624721050263,0.768226186434428,0.8277499985694885,0.2381599973042806,0,NA,NA,NA,NA,0,1,1,1,1,0.9999999999999999,1,NA,NA,NA,NA,1,2019-05-23T12:00:00Z,2019-06-07T12:00:00Z,2019-06-15T12:00:00Z,2019-07-27T12:00:00Z,2019-08-16T12:00:00Z,2019-10-30T12:00:00Z,NA,NA,NA,NA,2019-11-11T12:00:00Z,2019-06-06T12:00:00Z,2019-06-14T12:00:00Z,2019-07-26T12:00:00Z,2019-08-15T12:00:00Z,2019-10-29T12:00:00Z,2019-11-10T12:00:00Z,NA,NA,NA,NA,2019-11-24T12:00:00Z,143,158,166,208,228,303,NA,NA,NA,NA,315,14,7,41,19,74,11,NA,NA,NA,NA,13,157,165,207,227,302,314,NA,NA,NA,NA,328
7,stmathieudebeloeil_que,45.5834,-73.2422,-1,2019-06-07,7,2019,early00,665.7559842421399,11,2019-05-24,2019-06-07,113,2019-09-28,2019-10-05,2019-10-19,Harvested at Maturity.,0.9699999968210856,3.384999990463257,3.4334374964237213,0.24266667366027833,2.3644999861717224,NA,1.4699999690055847,8.426999950408936,1.6509090716188604,6.717143054519381,4.695333313941956,0.9699999968210856,3.384999990463257,3.4334374964237213,0.24266667366027833,2.3644999861717224,NA,1.4699999690055847,8.426999950408936,1.6509090716188604,6.717143054519381,4.695333313941956,22.910591570536297,22.621684074401855,20.800168842077255,20.476459503173828,17.294169902801514,NA,16.599754452705383,13.54476580619812,13.71793811971491,9.316664695739746,9.557315889994303,19.35733331044515,25.892499923706055,26.64187502861023,28.268666585286457,26.835500049591065,NA,25.791250228881836,23.484999847412112,21.047727064652875,15.238571439470563,15.083333333333334,13.775999975204467,18.914999961853027,20.575937531888485,22.24766667683919,20.940999960899354,NA,20.009375154972076,17.909999895095826,15.37613622708754,10.759285773549761,9.73399997750918,8.194666639963785,11.9375,14.51000003516674,16.226666768391926,15.046499872207642,NA,14.227500081062317,12.334999942779541,9.704545389522206,6.280000107628958,4.384666621685028,4.235078379637996,8.944163125474752,8.775951108440832,10.945824324800917,10.756530949902691,NA,10.430621185176074,8.637408967493773,7.153493618881567,5.366140872606209,1.7608701836718867,4.235078379637996,8.944163125474752,8.775951108440832,10.945824324800917,10.756530949902691,NA,10.430621185176074,8.637408967493773,7.153493618881567,5.366140872606209,1.7608701836718867,0,0,280.8304354701067,445.0178003421205,660.1484193401743,NA,743.593388821583,829.9674784965206,987.344338111915,1024.9073242201584,1024.9073242201584,0,0,0.9044843725860119,0.9713666661580403,0.935724995136261,NA,0.8876875102519989,0.7847499895095825,0.5313636227087541,0.1612142903464181,0,1,1,1,1,1,NA,1,1,1,1,1,0.37966666221618656,0.8146250128746033,0.9044843725860119,0.9713666661580403,0.935724995136261,NA,0.8876875102519989,0.7847499895095825,0.5313636227087541,0.1612142903464181,0.07746666431427002,1,1,0.9999999999999999,1,1,NA,0.9999999999999999,0.9999999999999999,0.9999999999999999,1,1,2019-05-24T12:00:00Z,2019-06-08T12:00:00Z,2019-06-12T12:00:00Z,2019-07-14T12:00:00Z,2019-07-29T12:00:00Z,NA,2019-08-18T12:00:00Z,2019-08-26T12:00:00Z,2019-09-05T12:00:00Z,2019-09-27T12:00:00Z,2019-10-04T12:00:00Z,2019-06-07T12:00:00Z,2019-06-11T12:00:00Z,2019-07-13T12:00:00Z,2019-07-28T12:00:00Z,2019-08-17T12:00:00Z,NA,2019-08-25T12:00:00Z,2019-09-04T12:00:00Z,2019-09-26T12:00:00Z,2019-10-03T12:00:00Z,2019-10-18T12:00:00Z,144,159,163,195,210,NA,230,238,248,270,277,14,3,31,14,19,NA,7,9,21,6,14,158,162,194,209,229,NA,237,247,269,276,291
8,casselton_nd,46.8866,-97.2386,0,2019-05-17,4,2019,early0,839.0889218358142,11,2019-05-03,2019-05-17,127,2019-09-21,2019-09-24,2019-10-08,Harvested at Maturity.,2.1140000224113464,3.7958333492279053,4.1817500501871105,3.653333385785421,3.523000019788742,0,0.8212499916553497,1.3370000123977661,3.5768421166821533,12.369999885559082,3.813333304723104,2.1140000224113464,3.7958333492279053,4.1817500501871105,3.653333385785421,3.523000019788742,0,0.8212499916553497,1.3370000123977661,3.5768421166821533,12.369999885559082,3.813333304723104,24.34081439971924,19.74317153294881,20.874865818023682,19.841846593221028,18.67806968688965,11.338842391967772,18.366498351097107,16.45704355239868,13.14645636709113,11.845218022664387,9.547406339645386,17.13466682434082,18.048333247502644,26.548000192642213,28.43666674296061,26.896499824523925,20.649999618530273,25.62250018119812,23.092000007629395,22.1084209743299,26.053333282470703,14.58866678873698,9.8360000928243,11.996666607757408,19.8833751142025,22.592000007629395,20.751249885559083,17.644999980926514,19.029375076293945,17.26850006580353,16.82894731822767,19.64833339055379,10.22200006643931,2.53733336130778,5.944999968012174,13.218750035762787,16.747333272298178,14.605999946594238,14.640000343322754,12.43624997138977,11.44500012397766,11.549473662125436,13.243333498636881,5.855333344141642,2.433817438937798,3.1411646297131974,7.08876093429172,9.846167326456799,9.789015458369464,7.644999980926515,9.491354177299886,8.185728387951851,8.00120330957739,10.179278212124109,1.536664066685339,2.433817438937798,3.1411646297131974,7.08876093429172,9.846167326456799,9.789015458369464,7.644999980926515,9.491354177299886,8.185728387951851,8.00120330957739,10.179278212124109,1.536664066685339,0,0,283.5504373716688,431.2429472685209,627.0232564359101,634.6682564168366,710.5990898352355,792.4563737147539,944.4792365967244,975.0170712330968,975.0170712330968,0,0,0.8614875000715256,0.9847333335876465,0.923424997329712,0.7644999980926515,0.8818125009536744,0.726750009059906,0.636657893030267,0.8586666584014893,0.04559999783833822,1,1,1,1,1,1,1,1,1,1,1,0.13720000743865968,0.23883333206176757,0.8614875000715256,0.9847333335876465,0.923424997329712,0.7644999980926515,0.8818125009536744,0.726750009059906,0.636657893030267,0.8586666584014893,0.14906667311986288,1,1,1,0.9999999999999999,1,1,0.9999999999999999,1,0.9999999999999999,1,1,2019-05-03T12:00:00Z,2019-05-18T12:00:00Z,2019-05-30T12:00:00Z,2019-07-09T12:00:00Z,2019-07-24T12:00:00Z,2019-08-13T12:00:00Z,2019-08-14T12:00:00Z,2019-08-22T12:00:00Z,2019-09-01T12:00:00Z,2019-09-20T12:00:00Z,2019-09-23T12:00:00Z,2019-05-17T12:00:00Z,2019-05-29T12:00:00Z,2019-07-08T12:00:00Z,2019-07-23T12:00:00Z,2019-08-12T12:00:00Z,2019-08-13T12:00:00Z,2019-08-21T12:00:00Z,2019-08-31T12:00:00Z,2019-09-19T12:00:00Z,2019-09-22T12:00:00Z,2019-10-07T12:00:00Z,123,138,150,190,205,225,226,234,244,263,266,14,11,39,14,19,0,7,9,18,2,14,137,149,189,204,224,225,233,243,262,265,280
9,ottawa_ont,45.3712,-75.72575,0,2019-05-22,5,2019,early0,747.1881222029015,11,2019-05-08,2019-05-22,125,2019-09-24,2019-09-29,2019-10-13,Harvested at Maturity.,4.200666618347168,2.3589999675750732,3.4309756188857845,0.7059999783833821,1.8026315726731952,0,2.110000035592488,2.7066666815016003,1.959523808388483,3.4239999771118166,1.644000025590261,4.200666618347168,2.3589999675750732,3.4309756188857845,0.7059999783833821,1.8026315726731952,0,2.110000035592488,2.7066666815016003,1.959523808388483,3.4239999771118166,1.644000025590261,20.715237363179526,20.506581020355224,21.334830493461794,21.00179926554362,18.704163350557028,19.665639877319336,14.887704985482353,16.13498126135932,14.577619416373116,10.160161590576172,10.264697742462157,15.888666725158691,18.744000148773193,25.414878170664718,28.68866704305013,27.189473403127572,26.88999938964844,26.308571406773158,24.341110865275066,21.771428516932897,21.09000015258789,16.00733362833659,10.738333378235499,13.628000092506408,18.92390251159668,22.029666900634766,20.490789363258763,20.03999948501587,20.605000019073486,17.818888823191326,15.344047642889477,15.441000080108642,10.089000117778777,5.588000031312307,8.512000036239623,12.432926852528642,15.370666758219402,13.792105323389956,13.1899995803833,14.901428631373815,11.296666781107584,8.916666768846058,9.792000007629396,4.1706666072209675,2.156526087797508,3.9880112873551252,6.883871563299342,9.921009765845058,9.998227776600315,10.03999948501587,10.782951447606086,8.805866337533793,7.370541834577847,7.285801185575128,1.8007925831072777,2.156526087797508,3.9880112873551252,6.883871563299342,9.921009765845058,9.998227776600315,10.03999948501587,10.782951447606086,8.805866337533793,7.370541834577847,7.285801185575128,1.8007925831072777,0,0,282.238734095273,431.0538805829489,621.020208338355,631.0602078233709,706.5408679566134,785.7936649944176,940.5750435205524,977.004049448428,977.004049448428,0,0,0.793939026390634,0.9729333400726319,0.9261052583393298,1,0.955285712650844,0.7766111003028022,0.5300952417509897,0.5325000095367431,0.03176666895548503,1,1,1,1,1,1,1,1,1,1,1,0.13680000305175782,0.3628000092506409,0.793939026390634,0.9729333400726319,0.9261052583393298,1,0.955285712650844,0.7766111003028022,0.5300952417509897,0.5325000095367431,0.09996667246023815,1,1,1,1,0.9999999999999999,1,1,1,1,1,1,2019-05-08T12:00:00Z,2019-05-23T12:00:00Z,2019-06-02T12:00:00Z,2019-07-13T12:00:00Z,2019-07-28T12:00:00Z,2019-08-16T12:00:00Z,2019-08-17T12:00:00Z,2019-08-24T12:00:00Z,2019-09-02T12:00:00Z,2019-09-23T12:00:00Z,2019-09-28T12:00:00Z,2019-05-22T12:00:00Z,2019-06-01T12:00:00Z,2019-07-12T12:00:00Z,2019-07-27T12:00:00Z,2019-08-15T12:00:00Z,2019-08-16T12:00:00Z,2019-08-23T12:00:00Z,2019-09-01T12:00:00Z,2019-09-22T12:00:00Z,2019-09-27T12:00:00Z,2019-10-12T12:00:00Z,128,143,153,194,209,228,229,236,245,266,271,14,9,40,14,18,0,6,8,20,4,14,142,152,193,208,227,228,235,244,265,270,285
10,woodstock_ont,43.14542,-80.78348,0,2019-06-14,8,2019,early0,601.2824076940745,11,2019-05-31,2019-06-14,109,2019-10-01,2019-10-06,2019-10-20,Harvested at Maturity.,3.6359999815622968,1.3699999749660492,3.843999985853831,0.9713333169619243,4.126666691568163,0,1.6900000307295058,1.8370000302791598,2.5994737461993567,8.003999853134156,2.114666716257731,3.6359999815622968,1.3699999749660492,3.843999985853831,0.9713333169619243,4.126666691568163,0,1.6900000307295058,1.8370000302791598,2.5994737461993567,8.003999853134156,2.114666716257731,21.527679379781087,18.67399616241455,20.961615530649823,20.319961802164713,17.707851621839737,15.57521152496338,16.849066575368244,15.891240787506103,13.38183553595292,9.01629762649536,10.480488125483195,22.13999989827474,22.39800033569336,27.54099973042806,27.401333363850913,26.65833314259847,22.010000228881836,22.836666954888237,21.49600009918213,23.11578941345215,18.97199993133545,15.257333246866862,16.014666589101154,17.37400016784668,21.429499896367393,21.284333356221516,20.74138879776001,17.535000324249268,17.26388907432556,15.70200011730194,17.319473617955257,14.344999885559082,9.5146666208903,9.889333279927571,12.35,15.318000062306723,15.167333348592123,14.824444452921549,13.0600004196167,11.691111193762884,9.908000135421753,11.523157822458368,9.717999839782715,3.771999994913737,6.2757619920434555,7.374000167846679,9.420384030157843,10.361185251696684,10.718815028815307,7.535000324249268,8.171940470500125,7.221783872162104,8.349735287162504,7.021270757633447,1.7785373847950499,6.2757619920434555,7.374000167846679,9.420384030157843,10.361185251696684,10.718815028815307,7.535000324249268,8.171940470500125,7.221783872162104,8.349735287162504,7.021270757633447,1.7785373847950499,0,0,282.61152090473524,438.0292996801855,630.9679701988609,638.5029705231102,712.0504347576115,784.2682734792324,942.91324393532,978.0195977234872,978.0195977234872,0,0,0.9489333279927572,0.9691333325703939,0.954388886027866,0.7535000324249268,0.7263889074325562,0.5702000117301941,0.6984473630001671,0.43779998779296875,0,1,1,1,1,1,1,1,1,1,1,1,0.602833325068156,0.737400016784668,0.9489333279927572,0.9691333325703939,0.954388886027866,0.7535000324249268,0.7263889074325562,0.5702000117301941,0.6984473630001671,0.43779998779296875,0.11036666393280029,1,1,1,1,1,0.9999999999999998,0.9999999999999999,1,0.9999999999999999,1,1,2019-05-31T12:00:00Z,2019-06-15T12:00:00Z,2019-06-20T12:00:00Z,2019-07-20T12:00:00Z,2019-08-04T12:00:00Z,2019-08-22T12:00:00Z,2019-08-23T12:00:00Z,2019-09-01T12:00:00Z,2019-09-11T12:00:00Z,2019-09-30T12:00:00Z,2019-10-05T12:00:00Z,2019-06-14T12:00:00Z,2019-06-19T12:00:00Z,2019-07-19T12:00:00Z,2019-08-03T12:00:00Z,2019-08-21T12:00:00Z,2019-08-22T12:00:00Z,2019-08-31T12:00:00Z,2019-09-10T12:00:00Z,2019-09-29T12:00:00Z,2019-10-04T12:00:00Z,2019-10-19T12:00:00Z,151,166,171,201,216,234,235,244,254,273,278,14,4,29,14,17,0,8,9,18,4,14,165,170,200,215,233,234,243,253,272,277,292
11,stmathieudebeloeil_que,45.5834,-73.2422,0,2019-06-07,7,2019,early0,686.5504912679937,11,2019-05-24,2019-06-07,113,2019-09-28,2019-10-04,2019-10-18,Harvested at Maturity.,0.9699999968210856,3.384999990463257,3.1391428538731168,0.8678571666990008,2.0410526049764535,NA,1.4699999690055847,8.426999950408936,1.7295237893149966,7.326666906476021,4.8993333101272585,0.9699999968210856,3.384999990463257,3.1391428538731168,0.8678571666990008,2.0410526049764535,NA,1.4699999690055847,8.426999950408936,1.7295237893149966,7.326666906476021,4.8993333101272585,22.910591570536297,22.621684074401855,20.77709925515311,19.869277000427246,17.346993797703792,NA,17.22645938396454,13.160352087020874,13.538075992039271,9.405889193216959,9.832428169250488,19.35733331044515,25.892499923706055,26.635714285714286,29.066428593226842,26.433157870644017,NA,25.577500343322754,22.930999755859375,21.05571410769508,16.004999955495197,15.152666664123535,13.775999975204467,18.914999961853027,20.61157145500183,23.02678574834551,20.539736772838392,NA,19.40187519788742,17.58349986076355,15.396666538147699,11.605833371480305,9.616666636864345,8.194666639963785,11.9375,14.587428624289377,16.987142903464182,14.646315675032767,NA,13.226250052452087,12.235999965667725,9.73761896860032,7.206666787465414,4.080666609605153,4.235078379637996,8.944163125474752,8.073624514544495,11.00467336227985,10.236839578904156,NA,9.965454430788755,8.384548919637203,7.169371163534977,5.427164351373911,1.763117139990007,4.235078379637996,8.944163125474752,8.073624514544495,11.00467336227985,10.236839578904156,NA,9.965454430788755,8.384548919637203,7.169371163534977,5.427164351373911,1.763117139990007,0,0,282.57685800905733,436.6422850809752,631.1422370801542,NA,710.8658725264643,794.7113617228363,945.2681561570708,977.8311422653142,977.8311422653142,0,0,0.9126714263643537,0.9693214280264718,0.9323421001434327,NA,0.8653125107288361,0.752099986076355,0.533119034767151,0.18808333873748778,0,1,1,1,1,1,NA,1,1,1,1,1,0.37966666221618656,0.8146250128746033,0.9126714263643537,0.9693214280264718,0.9323421001434327,NA,0.8653125107288361,0.752099986076355,0.533119034767151,0.18808333873748778,0.07746666431427002,1,1,1,0.9999999999999999,1,NA,1,0.9999999999999999,1,1,1,2019-05-24T12:00:00Z,2019-06-08T12:00:00Z,2019-06-12T12:00:00Z,2019-07-17T12:00:00Z,2019-07-31T12:00:00Z,NA,2019-08-19T12:00:00Z,2019-08-27T12:00:00Z,2019-09-06T12:00:00Z,2019-09-27T12:00:00Z,2019-10-03T12:00:00Z,2019-06-07T12:00:00Z,2019-06-11T12:00:00Z,2019-07-16T12:00:00Z,2019-07-30T12:00:00Z,2019-08-18T12:00:00Z,NA,2019-08-26T12:00:00Z,2019-09-05T12:00:00Z,2019-09-26T12:00:00Z,2019-10-02T12:00:00Z,2019-10-17T12:00:00Z,144,159,163,198,212,NA,231,239,249,270,276,14,3,34,13,18,NA,7,9,20,5,14,158,162,197,211,230,NA,238,248,269,275,290
12,rosemount_mn,44.707,-93.101,1,2019-05-26,9,2019,early1,1015.687403077006,11,2019-05-12,2019-05-26,122,2019-09-25,2019-10-02,2019-10-16,Harvested at Maturity.,5.853333489100138,8.282000064849854,4.521951169502445,4.075294045840993,2.89761902037121,0,5.144444359673394,0.8480000019073486,7.408749833703041,2.9471428053719655,5.311333374182383,5.853333489100138,8.282000064849854,4.521951169502445,4.075294045840993,2.89761902037121,0,5.144444359673394,0.8480000019073486,7.408749833703041,2.9471428053719655,5.311333374182383,18.450389766693114,23.13955955505371,19.62680898061613,20.177757038789636,18.69723551613944,22.619144439697266,15.237781206766764,15.998837661743163,11.442684918642044,11.949696677071707,7.483884398142497,18.35399996439616,22.772000312805176,25.78463414820229,28.55058838339413,26.54666655404227,26.38999938964844,23.262222290039063,23.005999946594237,23.83250004053116,21.60571425301688,12.379333273569744,12.931666620572408,16.370000171661378,20.599390262510717,23.15029421974631,21.18809516089303,18.85999965667725,18.550000031789143,17.882000064849855,19.140937477350235,15.579285757882253,8.971666666368643,7.509333276748658,9.968000030517578,15.414146376819145,17.75000005609849,15.829523767743792,11.329999923706056,13.837777773539225,12.75800018310547,14.449374914169312,9.55285726274763,5.564000059167544,3.854222445297639,6.475237877500057,7.276097272706439,9.962227435486657,10.421463347461195,8.859999656677244,8.744683591796292,8.408346999248863,9.543407240853831,7.331258405861684,1.340128061113755,3.854222445297639,6.475237877500057,7.276097272706439,9.962227435486657,10.421463347461195,8.859999656677244,8.744683591796292,8.408346999248863,9.543407240853831,7.331258405861684,1.340128061113755,0,0,298.319988180964,467.6778545842372,686.5285848809223,695.3885845375995,774.0907368637662,858.1742068562548,1010.868722709916,1062.1875315509478,1062.1875315509478,0,0,0.9095731700338968,0.9993235307581284,0.971499997093564,0.8859999656677247,0.8518333329094782,0.7840499973297119,0.8025937527418137,0.5551428590502058,0.02349999745686849,1,1,1,1,1,1,1,1,1,1,1,0.3290999952952067,0.5966000175476075,0.9095731700338968,0.9993235307581284,0.971499997093564,0.8859999656677247,0.8518333329094782,0.7840499973297119,0.8025937527418137,0.5551428590502058,0.13603333314259847,1,1,1,1,0.9999999999999999,0.9999999999999998,1,1,0.9999999999999999,0.9999999999999999,1,2019-05-12T12:00:00Z,2019-05-27T12:00:00Z,2019-06-01T12:00:00Z,2019-07-12T12:00:00Z,2019-07-29T12:00:00Z,2019-08-19T12:00:00Z,2019-08-20T12:00:00Z,2019-08-29T12:00:00Z,2019-09-08T12:00:00Z,2019-09-24T12:00:00Z,2019-10-01T12:00:00Z,2019-05-26T12:00:00Z,2019-05-31T12:00:00Z,2019-07-11T12:00:00Z,2019-07-28T12:00:00Z,2019-08-18T12:00:00Z,2019-08-19T12:00:00Z,2019-08-28T12:00:00Z,2019-09-07T12:00:00Z,2019-09-23T12:00:00Z,2019-09-30T12:00:00Z,2019-10-15T12:00:00Z,132,147,152,193,210,231,232,241,251,267,274,14,4,40,16,20,0,8,9,15,6,14,146,151,192,209,230,231,240,250,266,273,288
13,mead_ne,41.15785,-96.42075,1,2019-05-16,10,2019,early1,798.4141341764649,11,2019-05-02,2019-05-16,103,2019-08-27,2019-08-31,2019-09-14,Harvested at Maturity.,3.309333403905233,8.071428724697657,5.879428577423096,0.540666667620341,3.1310525944358423,NA,0.5433333317438761,5.726666768391927,1.2546153985537016,6.297500163316727,1.5773333231608073,3.309333403905233,8.071428724697657,5.879428577423096,0.540666667620341,3.1310525944358423,NA,0.5433333317438761,5.726666768391927,1.2546153985537016,6.297500163316727,1.5773333231608073,19.720319493611655,14.991769245692662,20.49250308445522,20.405718167622886,19.397170267607038,NA,18.334657669067383,17.93683735529582,16.31933014209454,19.39066481590271,16.205997212727866,20.458666547139487,18.801428658621653,26.77114290509905,31.769999694824218,30.260526255557412,NA,29.39833354949951,30.266666412353516,27.009230687068058,27.240000247955322,27.593999989827473,13.88799991607666,14.502857208251953,20.87428571156093,26.105999819437663,24.826578842966182,NA,24.269999980926514,25.1933331489563,22.274999911968525,20.707500100135803,21.92366663614909,7.317333285013834,10.204285757882253,14.97742851802281,20.44199994405111,19.392631430374948,NA,19.141666412353516,20.119999885559082,17.54076913686899,14.174999952316284,16.253333282470702,4.619900275942484,5.065187503134778,8.365289482319438,11.502228621589573,11.55085877373489,NA,13.500551920842051,14.976183198451197,12.052121149429908,10.902544032599032,11.121848595282238,4.619900275942484,5.065187503134778,8.365289482319438,11.502228621589573,11.55085877373489,NA,13.500551920842051,14.976183198451197,12.052121149429908,10.902544032599032,11.121848595282238,0,0,292.7851318811804,465.318561205024,684.7848779059868,NA,765.7881894310392,855.6452886217463,1012.3228635643352,1055.9330396947312,1055.9330396947312,0,0,0.9286714267730714,1,0.9931315823605186,NA,1,1,0.99192307545588565,0.9556250095367431,0.06666666666666667,1,1,1,1,1,NA,1,1,1,1,1,0.3684999990463257,0.42000000476837157,0.9286714267730714,1,0.9931315823605186,NA,1,1,0.99192307545588565,0.9556250095367431,0.9875000031789144,1,1,0.9999999999999999,1,0.9999999999999999,NA,0.9999999999999999,1,1,0.9999999999999999,1,2019-05-02T12:00:00Z,2019-05-17T12:00:00Z,2019-05-24T12:00:00Z,2019-06-28T12:00:00Z,2019-07-13T12:00:00Z,NA,2019-08-01T12:00:00Z,2019-08-07T12:00:00Z,2019-08-13T12:00:00Z,2019-08-26T12:00:00Z,2019-08-30T12:00:00Z,2019-05-16T12:00:00Z,2019-05-23T12:00:00Z,2019-06-27T12:00:00Z,2019-07-12T12:00:00Z,2019-07-31T12:00:00Z,NA,2019-08-06T12:00:00Z,2019-08-12T12:00:00Z,2019-08-25T12:00:00Z,2019-08-29T12:00:00Z,2019-09-13T12:00:00Z,122,137,144,179,194,NA,213,219,225,238,242,14,6,34,14,18,NA,5,5,12,3,14,136,143,178,193,212,NA,218,224,237,241,256
14,phillips_ne,40.8473,-98.177,1,2019-05-18,11,2019,early1,807.9210966710708,11,2019-05-04,2019-05-18,107,2019-09-02,2019-09-06,2019-09-20,Harvested at Maturity.,3.579333265622457,14.327500253915787,4.019722256395552,6.28666664759318,4.205555650922987,0,13.756666978200277,8.303333441416422,10.389333462715149,0,1.1766666412353515,3.579333265622457,14.327500253915787,4.019722256395552,6.28666664759318,4.205555650922987,0,13.756666978200277,8.303333441416422,10.389333462715149,0,1.1766666412353515,19.41968043645223,17.319653868675232,20.694604529274834,19.025423113505045,19.351661258273655,21.443012237548828,16.3855406443278,17.25566832224528,15.235737387339274,19.49981927871704,15.711172358194986,21.13133322397868,17.975000023841858,26.995833290947807,30.164000193277996,29.411110983954536,30.780000686645508,29.80666669209798,27.670000394185383,25.79866663614909,28.695000171661377,28.84466667175293,14.485333254933357,13.02624997496605,20.935555537541706,24.499000199635823,23.927499877081978,24.71500015258789,24.307500044504803,22.296666860580444,20.964666589101157,22.2775000333786,22.84500001271566,7.839333285888036,8.07749992609024,14.875277784135607,18.834000205993654,18.44388877020942,18.649999618530273,18.80833339691162,16.923333326975506,16.130666542053223,15.859999895095825,16.845333353678384,5.437710851317334,3.8920330662917344,8.167216060284716,11.431645172135328,11.754527425162006,13.985578613644332,14.054505028356004,12.324021186965705,10.965798492992322,12.17023625741303,11.67686662708044,5.437710851317334,3.8920330662917344,8.167216060284716,11.431645172135328,11.754527425162006,13.985578613644332,14.054505028356004,12.324021186965705,10.965798492992322,12.17023625741303,11.67686662708044,0,0,294.0197781702498,465.49445575227975,677.0759494051961,691.0615280188404,775.3885581889764,849.3326853107706,1013.8196627056552,1062.5006077353075,1062.5006077353075,0,0,0.893666660785675,1,0.9949999994701809,1,1,0.9830833435058594,0.9532333278656006,0.9821250081062317,0.06666666666666667,1,1,1,1,1,1,1,1,1,1,1,0.4413666645685832,0.35381249487400057,0.893666660785675,1,0.9949999994701809,1,1,0.9830833435058594,0.9532333278656006,0.9821250081062317,0.9819333330790202,1,1,1,1,0.9999999999999999,1,0.9999999999999999,0.9999999999999999,0.9999999999999999,0.9999999999999998,1,2019-05-04T12:00:00Z,2019-05-19T12:00:00Z,2019-05-27T12:00:00Z,2019-07-02T12:00:00Z,2019-07-17T12:00:00Z,2019-08-04T12:00:00Z,2019-08-05T12:00:00Z,2019-08-11T12:00:00Z,2019-08-17T12:00:00Z,2019-09-01T12:00:00Z,2019-09-05T12:00:00Z,2019-05-18T12:00:00Z,2019-05-26T12:00:00Z,2019-07-01T12:00:00Z,2019-07-16T12:00:00Z,2019-08-03T12:00:00Z,2019-08-04T12:00:00Z,2019-08-10T12:00:00Z,2019-08-16T12:00:00Z,2019-08-31T12:00:00Z,2019-09-04T12:00:00Z,2019-09-19T12:00:00Z,124,139,147,183,198,216,217,223,229,244,248,14,7,35,14,17,0,5,5,14,3,14,138,146,182,197,215,216,222,228,243,247,262
15,palmyra_ont,42.4581,-81.7291,1,2019-06-19,12,2019,early1,770.9078362054914,11,2019-06-05,2019-06-19,107,2019-10-04,2019-10-11,2019-10-25,Harvested at Maturity.,3.030666716893514,2.690000057220459,2.5203333616256716,6.899375077337027,2.190000000752901,0,0.5609999895095825,1.6674999594688416,2.0294117857428158,0.8814285823277065,1.8540000200271607,3.030666716893514,2.690000057220459,2.5203333616256716,6.899375077337027,2.190000000752901,0,0.5609999895095825,1.6674999594688416,2.0294117857428158,0.8814285823277065,1.8540000200271607,18.613012949625652,22.839772701263428,20.550080490112304,19.06632536649704,16.632837195145456,16.40685272216797,16.850831985473633,13.996626138687134,12.652891916387222,11.38983678817749,9.939212735493978,21.66133346557617,22.3725004196167,27.919333330790202,27.191874861717224,25.631579047755192,24.43000030517578,22.770000076293947,23.678750038146973,23.872352824491614,18.037142617361887,15.784000205993653,17.407333405812583,17.15500032901764,22.966166639328,22.093124985694885,21.00605269482261,20.15000009536743,18.020500087738036,19.30187499523163,19.4202940604266,13.696428537368774,11.074333437283833,13.15333334604899,11.937500238418579,18.012999947865804,16.994375109672546,16.380526341890032,15.869999885559082,13.271000099182128,14.924999952316284,14.968235296361588,9.355714457375662,6.364666668574015,7.407333405812581,7.155000329017639,9.970398875117269,10.990316028742885,10.985669271161116,10.150000095367432,8.43312317765534,9.5644689083755,9.666328861456059,5.905237027366247,2.049675865982473,7.407333405812581,7.155000329017639,9.970398875117269,10.990316028742885,10.985669271161116,10.150000095367432,8.43312317765534,9.5644689083755,9.666328861456059,5.905237027366247,2.049675865982473,0,0,299.11196625351806,474.9570227134043,683.6847388654655,693.834738960833,778.1659707373865,854.6817220043905,1019.0093126491436,1060.3459718407075,1060.3459718407075,0,0,0.9952333339055379,0.9980937480926514,0.9515263180983694,1,0.7988500118255616,0.8489999949932099,0.8667941177592559,0.36964285373687744,0.02773333231608073,1,1,1,1,1,1,1,1,1,1,1,0.7407333405812582,0.715500032901764,0.9952333339055379,0.9980937480926514,0.9515263180983694,1,0.7988500118255616,0.8489999949932099,0.8667941177592559,0.36964285373687744,0.1743666728337606,1,1,1,1,1,1,0.9999999999999999,1,0.9999999999999999,0.9999999999999999,1,2019-06-05T12:00:00Z,2019-06-20T12:00:00Z,2019-06-24T12:00:00Z,2019-07-24T12:00:00Z,2019-08-09T12:00:00Z,2019-08-28T12:00:00Z,2019-08-29T12:00:00Z,2019-09-08T12:00:00Z,2019-09-16T12:00:00Z,2019-10-03T12:00:00Z,2019-10-10T12:00:00Z,2019-06-19T12:00:00Z,2019-06-23T12:00:00Z,2019-07-23T12:00:00Z,2019-08-08T12:00:00Z,2019-08-27T12:00:00Z,2019-08-28T12:00:00Z,2019-09-07T12:00:00Z,2019-09-15T12:00:00Z,2019-10-02T12:00:00Z,2019-10-09T12:00:00Z,2019-10-24T12:00:00Z,156,171,175,205,221,240,241,251,259,276,283,14,3,29,15,18,0,9,7,16,6,14,170,174,204,220,239,240,250,258,275,282,297
16,stpauls_ont,43.32515,-81.1402,1,2019-06-09,13,2019,early1,754.7612967154166,11,2019-05-26,2019-06-09,137,2019-10-24,2019-11-01,2019-11-15,Harvested at Maturity.,1.897333288192749,3.9414285251072476,2.4754054288606384,1.122222211625841,2.9858333617448807,0,4.8681818355213515,1.0877777735392253,3.3282142962728227,6.0924999713897705,3.8153333187103273,1.897333288192749,3.9414285251072476,2.4754054288606384,1.122222211625841,2.9858333617448807,0,4.8681818355213515,1.0877777735392253,3.3282142962728227,6.0924999713897705,3.8153333187103273,21.056341552734374,19.03757313319615,20.65711395160572,20.181521892547607,16.439812064170837,16.22591781616211,14.78817367553711,13.86842499838935,10.293574469430107,7.54567477107048,5.505924129486084,20.965999921162922,20.142857142857142,26.780270189852327,26.59833335876465,24.33874996503194,19.93000030517578,21.493636217984285,24.29888852437337,16.794642993382045,12.161249816417694,2.4553332686424256,15.330000019073486,15.155714205333165,20.89945938780501,20.516666597790188,18.935833315054577,15.19000005722046,15.992727236314254,18.71666643354628,11.533035796667848,7.494374915957451,-0.6486666989202301,9.69400011698405,10.168571267809186,15.018648585757694,14.434999836815727,13.53291666507721,10.449999809265137,10.49181825464422,13.134444342719183,6.271428599953651,2.8275000154972076,-3.752666666482886,5.63377508857131,5.248891469576529,8.078788027539085,9.453145075488294,8.940677137139998,5.190000057220459,7.412358162452958,9.235437727920877,5.902829336388781,5.020353194212541,0,5.63377508857131,5.248891469576529,8.078788027539085,9.453145075488294,8.940677137139998,5.190000057220459,7.412358162452958,9.235437727920877,5.902829336388781,5.020353194212541,0,0,0,298.91515701894616,469.0717683777355,683.6480196690954,688.8380197263159,770.3739595132982,853.492899064586,1018.772120483472,1058.9349460371725,1058.9349460371725,0,0,0.9167432385521966,0.9467777808507284,0.8277291735013326,0.519000005722046,0.5827727231112394,0.8160555362701417,0.23742858171463013,0,0,1,1,1,1,1,1,1,1,1,1,1,0.5371666685740153,0.5155714205333165,0.9167432385521966,0.9467777808507284,0.8277291735013326,0.519000005722046,0.5827727231112394,0.8160555362701417,0.23742858171463013,0,0,1,1,0.9999999999999999,1,0.9999999999999999,0.9999999999999998,1,0.9999999999999999,0.9999999999999999,1,1,2019-05-26T12:00:00Z,2019-06-10T12:00:00Z,2019-06-17T12:00:00Z,2019-07-24T12:00:00Z,2019-08-11T12:00:00Z,2019-09-04T12:00:00Z,2019-09-05T12:00:00Z,2019-09-16T12:00:00Z,2019-09-25T12:00:00Z,2019-10-23T12:00:00Z,2019-10-31T12:00:00Z,2019-06-09T12:00:00Z,2019-06-16T12:00:00Z,2019-07-23T12:00:00Z,2019-08-10T12:00:00Z,2019-09-03T12:00:00Z,2019-09-04T12:00:00Z,2019-09-15T12:00:00Z,2019-09-24T12:00:00Z,2019-10-22T12:00:00Z,2019-10-30T12:00:00Z,2019-11-14T12:00:00Z,146,161,168,205,223,247,248,259,268,296,304,14,6,36,17,23,0,10,8,27,7,14,160,167,204,222,246,247,258,267,295,303,318
17,woodstock_ont,43.14542,-80.78348,1,2019-06-12,8,2019,early1,763.2801515993673,11,2019-05-29,2019-06-12,131,2019-10-21,2019-10-29,2019-11-12,Harvested at Maturity.,3.418666660785675,1.298333282272021,3.5929411632173203,1.1726315774415668,3.5413043706313423,3.609999895095825,4.2700001272288235,0.45666666825612384,3.1369230838922357,5.406249910593033,4.9960000038146974,3.418666660785675,1.298333282272021,3.5929411632173203,1.1726315774415668,3.5413043706313423,3.609999895095825,4.2700001272288235,0.45666666825612384,3.1369230838922357,5.406249910593033,4.9960000038146974,21.430107434590656,18.49243752161662,20.485802117516013,20.60558278937089,16.391736590343974,14.444756507873535,15.091570117256857,14.946538024478489,10.566359712527348,8.424004852771759,5.589385859171549,21.91266657511393,20.983333269755047,27.55647036608528,26.772105166786595,24.702174062314242,24.079999923706055,21.98636349764737,24.575555589463974,17.232307617480938,14.676249861717224,6.44666668176651,15.93166659673055,16.30416663487752,21.54514698421254,20.449210518284847,19.160869629486747,17.425000190734863,16.25090904669328,18.42111105389065,11.711153800670917,9.251874953508377,2.7756666655962667,9.950666618347167,11.625,15.533823602339801,14.1263158697831,13.619565196659254,10.770000457763672,10.515454595739191,12.26666651831733,6.189999983860896,3.82750004529953,-0.8953333505739768,6.190466868702769,6.309904462302724,8.614225636303248,9.397588213118809,9.167739547296339,7.425000190734863,7.612263652936437,9.160752061471012,6.055505486917124,5.252459285626374,0.12013180133710306,6.190466868702769,6.309904462302724,8.614225636303248,9.397588213118809,9.167739547296339,7.425000190734863,7.612263652936437,9.160752061471012,6.055505486917124,5.252459285626374,0.12013180133710306,0,0,292.8836716343104,471.4378476835678,682.2958572713835,689.7208574621184,773.4557576444191,855.9025261976582,1013.3456688575033,1055.365343142514,1055.365343142514,0,0,0.9528676439734066,0.9494210494192024,0.8423913157504538,0.7425000190734864,0.6063181812112982,0.7943333254920112,0.26342307329177855,0.07087499350309373,0,1,1,1,1,1,1,1,1,1,1,1,0.5945333258310954,0.6304166634877524,0.9528676439734066,0.9494210494192024,0.8423913157504538,0.7425000190734864,0.6063181812112982,0.7943333254920112,0.26342307329177855,0.07087499350309373,0,1,1,0.9999999999999999,0.9999999999999999,1,1,0.9999999999999999,1,1,1,1,2019-05-29T12:00:00Z,2019-06-13T12:00:00Z,2019-06-19T12:00:00Z,2019-07-23T12:00:00Z,2019-08-11T12:00:00Z,2019-09-03T12:00:00Z,2019-09-04T12:00:00Z,2019-09-15T12:00:00Z,2019-09-24T12:00:00Z,2019-10-20T12:00:00Z,2019-10-28T12:00:00Z,2019-06-12T12:00:00Z,2019-06-18T12:00:00Z,2019-07-22T12:00:00Z,2019-08-10T12:00:00Z,2019-09-02T12:00:00Z,2019-09-03T12:00:00Z,2019-09-14T12:00:00Z,2019-09-23T12:00:00Z,2019-10-19T12:00:00Z,2019-10-27T12:00:00Z,2019-11-11T12:00:00Z,149,164,170,204,223,246,247,258,267,293,301,14,5,33,18,22,0,10,8,25,7,14,163,169,203,222,245,246,257,266,292,300,315
18,sthyacinthe_que,45.5932,-72.9316,1,2019-06-01,14,2019,early1,804.9312532196509,11,2019-05-18,2019-06-01,146,2019-10-25,2019-11-03,2019-11-17,Harvested at Maturity.,2.6726666589577994,0.8842857224600655,2.889024408852182,2.407368409006219,2.5856521907060044,0,6.152499983708064,0.8609090935100209,4.1256667067607244,11.145555436611176,2.490666695435842,2.6726666589577994,0.8842857224600655,2.889024408852182,2.407368409006219,2.5856521907060044,0,6.152499983708064,0.8609090935100209,4.1256667067607244,11.145555436611176,2.490666695435842,20.981819597880044,23.157242093767437,20.664420686117033,20.34889487216347,15.798002865003502,16.493412017822266,13.846254110336304,14.188632574948397,9.386492403348287,6.02617965804206,5.912669785817464,18.689333343505858,20.488571303231375,26.578780337077816,27.99157885501259,25.06043459021527,21.5,20.770833174387615,21.918182026256215,15.316000032424926,13.244444317287869,1.9919999917348226,13.314666684468587,14.502142838069371,20.51939023994818,21.611315777427272,19.420652057813562,16.09499979019165,15.242916544278463,15.59590915116397,10.13816670725743,9.134999904367659,-1.9626667112112046,7.940000025431315,8.515714372907366,14.460000142818544,15.231052699841952,13.780869525411855,10.6899995803833,9.714999914169312,9.273636276071722,4.9603333820899325,5.025555491447449,-5.917333414157231,3.8391864196042222,4.852604508382507,7.090664880767286,9.504308484393134,9.277408236244806,6.09499979019165,6.9481988793452585,7.578458747582951,5.327337348398281,5.09801611506078,0,3.8391864196042222,4.852604508382507,7.090664880767286,9.504308484393134,9.277408236244806,6.09499979019165,6.9481988793452585,7.578458747582951,5.327337348398281,5.09801611506078,0,0,0,290.71726011145864,471.2991213149282,684.6795107485589,690.7745105387505,774.1528970908935,857.515943314306,1017.3360637662546,1063.2182088018014,1063.2182088018014,0,0,0.9078902436465752,0.9373157927864476,0.871130427070286,0.6094999790191651,0.5242916544278463,0.5515000029043718,0.13165000359217327,0.08377776675754124,0,1,1,1,1,1,1,1,1,1,1,1,0.33493333498636885,0.4502142838069371,0.9078902436465752,0.9373157927864476,0.871130427070286,0.6094999790191651,0.5242916544278463,0.5515000029043718,0.13165000359217327,0.08377776675754124,0,1,1,1,0.9999999999999999,1,1,0.9999999999999999,0.9999999999999999,0.9999999999999999,1,1,2019-05-18T12:00:00Z,2019-06-02T12:00:00Z,2019-06-09T12:00:00Z,2019-07-20T12:00:00Z,2019-08-08T12:00:00Z,2019-08-31T12:00:00Z,2019-09-01T12:00:00Z,2019-09-13T12:00:00Z,2019-09-24T12:00:00Z,2019-10-24T12:00:00Z,2019-11-02T12:00:00Z,2019-06-01T12:00:00Z,2019-06-08T12:00:00Z,2019-07-19T12:00:00Z,2019-08-07T12:00:00Z,2019-08-30T12:00:00Z,2019-08-31T12:00:00Z,2019-09-12T12:00:00Z,2019-09-23T12:00:00Z,2019-10-23T12:00:00Z,2019-11-01T12:00:00Z,2019-11-16T12:00:00Z,138,153,160,201,220,243,244,256,267,297,306,14,6,40,18,22,0,11,10,29,8,14,152,159,200,219,242,243,255,266,296,305,320
19,ames_ia,42.0215,-93.7745,1,2019-05-23,15,2019,early1,918.2138236268648,11,2019-05-09,2019-05-23,110,2019-09-10,2019-09-13,2019-09-27,Harvested at Maturity.,9.572666708628336,8.09249997138977,5.697837858586698,3.286666663487752,1.0054999947547913,0,1.6285714592252458,4.321428571428571,1.8758823415812325,15.206666787465414,4.5099998950958256,9.572666708628336,8.09249997138977,5.697837858586698,3.286666663487752,1.0054999947547913,0,1.6285714592252458,4.321428571428571,1.8758823415812325,15.206666787465414,4.5099998950958256,17.16061102549235,19.661508560180664,20.30684368030445,20.19749329884847,20.53126769065857,20.272119522094727,17.940934317452566,16.150843620300293,16.421657225664923,11.329708735148111,12.449980862935384,18.79733327229818,25.764999866485596,26.751891986743825,29.85599988301595,28.327000045776366,27.809999465942383,27.278571265084402,26.835714067731583,24.915882222792682,28.116666793823242,26.499333318074545,12.993999989827474,19.338749885559082,20.927837925988275,24.186666584014894,22.41075007915497,22.06999969482422,21.692857129233225,21.271428448813303,19.11941177704755,22.90666675567627,20.991333325703938,7.190666707356771,12.912499904632568,15.103783865232725,18.517333285013834,16.49450011253357,16.329999923706055,16.107142993382045,15.70714282989502,13.322941331302419,17.696666717529297,15.483333333333333,4.077446321916779,9.338749885559082,8.020287246389758,10.954207730263319,10.881796173454415,11.77733400036492,11.729652615764241,11.332221541074345,9.437346798181183,12.90666675567627,10.046544996108214,4.077446321916779,9.338749885559082,8.020287246389758,10.954207730263319,10.881796173454415,11.77733400036492,11.729652615764241,11.332221541074345,9.437346798181183,12.90666675567627,10.046544996108214,0,0,296.75062811642096,461.0637440703707,678.6996675394589,690.4770015398238,772.5845698501735,851.9101206376939,1012.3450162067742,1051.0650164738029,1051.0650164738029,0,0,0.9025000030929978,1,0.9855999994277954,1,0.98757141658238,0.9823571477617536,0.8828235289629768,1,0.06666666666666667,1,1,1,1,1,1,1,1,1,1,1,0.32803333044052124,0.9338749885559083,0.9025000030929978,1,0.9855999994277954,1,0.98757141658238,0.9823571477617536,0.8828235289629768,1,0.8958000024159749,1,1,1,0.9999999999999999,1,0.9999999999999998,1,1,0.9999999999999999,0.9999999999999999,1,2019-05-09T12:00:00Z,2019-05-24T12:00:00Z,2019-05-28T12:00:00Z,2019-07-04T12:00:00Z,2019-07-19T12:00:00Z,2019-08-08T12:00:00Z,2019-08-09T12:00:00Z,2019-08-16T12:00:00Z,2019-08-23T12:00:00Z,2019-09-09T12:00:00Z,2019-09-12T12:00:00Z,2019-05-23T12:00:00Z,2019-05-27T12:00:00Z,2019-07-03T12:00:00Z,2019-07-18T12:00:00Z,2019-08-07T12:00:00Z,2019-08-08T12:00:00Z,2019-08-15T12:00:00Z,2019-08-22T12:00:00Z,2019-09-08T12:00:00Z,2019-09-11T12:00:00Z,2019-09-26T12:00:00Z,129,144,148,185,200,220,221,228,235,252,255,14,3,36,14,19,0,6,6,16,2,14,143,147,184,199,219,220,227,234,251,254,269
20,eastlansing_mi,42.6296,-84.4375,1,2019-05-29,16,2019,early1,871.9138764297943,11,2019-05-15,2019-05-29,115,2019-09-21,2019-09-25,2019-10-09,Harvested at Maturity.,3.3859999656677244,7.0366664330164594,4.420789455112658,3.086249977350235,0.6231578964936105,3.5999999046325684,0.617142881665911,2.121111101574368,3.7105882588554833,3.0575000047683716,5.193999906380972,3.3859999656677244,7.0366664330164594,4.420789455112658,3.086249977350235,0.6231578964936105,3.5999999046325684,0.617142881665911,2.121111101574368,3.7105882588554833,3.0575000047683716,5.193999906380972,20.34337018330892,20.852556705474854,20.356809440412018,19.467569947242737,20.369069651553506,15.546573638916016,17.450572558811732,16.727192242940266,13.247668743133545,11.976901769638062,11.30736125310262,21.585999933878583,22.28666655222575,26.263420882977936,29.340624809265137,27.899999819303815,29.469999313354492,26.834286008562362,24.386666615804035,24.292941261740292,27.232500076293945,20.35666669209798,15.466333317756654,16.068333228429157,20.52381574480157,23.392499893903732,21.602631443425228,22.574999809265137,21.052142892565048,18.43833329942491,18.970588291392605,21.49375009536743,15.243999989827474,9.346666701634724,9.849999904632568,14.784210606625205,17.444374978542328,15.305263067546644,15.68000030517578,15.269999776567731,12.48999998304579,13.648235321044922,15.755000114440918,10.131333287556966,5.829788742447694,6.324620557439327,7.70864537735205,10.681573998713805,11.062859678008504,12.574999809265138,11.51713753342969,9.013796610220274,9.35286118413315,11.519065333279968,5.058618369021217,5.829788742447694,6.324620557439327,7.70864537735205,10.681573998713805,11.062859678008504,12.574999809265138,11.51713753342969,9.013796610220274,9.35286118413315,11.519065333279968,5.058618369021217,0,0,292.9285243393778,463.8337083187987,674.0280422009604,686.6030420102255,767.2230047442333,848.3471742362158,1007.3458143664792,1053.4220756995992,1053.4220756995992,0,0,0.8808947299656116,0.9832187503576278,0.9857631608059532,1,0.8900000095367432,0.8243888854980469,0.841764710931217,0.9662499904632569,0.051466665267944335,1,1,1,1,1,1,1,1,1,1,1,0.5500333293279013,0.6068333228429159,0.8808947299656116,0.9832187503576278,0.9857631608059532,1,0.8900000095367432,0.8243888854980469,0.841764710931217,0.9662499904632569,0.5122333335876464,1,1,1,0.9999999999999999,0.9999999999999999,1,0.9999999999999999,0.9999999999999999,0.9999999999999999,1,1,2019-05-15T12:00:00Z,2019-05-30T12:00:00Z,2019-06-05T12:00:00Z,2019-07-13T12:00:00Z,2019-07-29T12:00:00Z,2019-08-17T12:00:00Z,2019-08-18T12:00:00Z,2019-08-25T12:00:00Z,2019-09-03T12:00:00Z,2019-09-20T12:00:00Z,2019-09-24T12:00:00Z,2019-05-29T12:00:00Z,2019-06-04T12:00:00Z,2019-07-12T12:00:00Z,2019-07-28T12:00:00Z,2019-08-16T12:00:00Z,2019-08-17T12:00:00Z,2019-08-24T12:00:00Z,2019-09-02T12:00:00Z,2019-09-19T12:00:00Z,2019-09-23T12:00:00Z,2019-10-08T12:00:00Z,135,150,156,194,210,229,230,237,246,263,267,14,5,37,15,18,0,6,8,16,3,14,149,155,193,209,228,229,236,245,262,266,281
21,woodstock_ont,43.14542,-80.78348,1,2019-06-14,8,2019,early1,756.9109517347637,11,2019-05-31,2019-06-14,131,2019-10-23,2019-10-31,2019-11-14,Harvested at Maturity.,3.6359999815622968,1.3699999749660492,3.497058810556636,1.2377777761883206,3.544166684150696,0,4.2700001272288235,0.45666666825612384,3.3259259241598627,4.376249939203262,5.147333339850108,3.6359999815622968,1.3699999749660492,3.497058810556636,1.2377777761883206,3.544166684150696,0,4.2700001272288235,0.45666666825612384,3.3259259241598627,4.376249939203262,5.147333339850108,21.527679379781087,18.67399616241455,20.612915628096637,20.417601691351997,16.31061242024104,16.268274307250977,15.10847772251476,14.66466114256117,10.428687740255285,8.416909277439117,5.242066669464111,22.13999989827474,22.39800033569336,27.516470348133762,26.869999885559082,24.676250139872234,20.65999984741211,22.07181809165261,24.538888931274414,17.214814680593985,13.972500085830688,3.760666636625926,16.014666589101154,17.37400016784668,21.51764697187087,20.565277761883205,19.088541736205418,15.704999923706056,16.24590906229886,18.43833329942491,11.539999922116598,8.673750065267086,0.48866663333028554,9.889333279927571,12.35,15.518823595607982,14.26055563820733,13.500833332538605,10.75,10.420000032945113,12.337777667575413,5.86518516363921,3.3750000447034836,-2.7833333699653546,6.2757619920434555,7.374000167846679,8.62509500673463,9.533396161391137,9.09512540743961,5.704999923706054,7.637922170995041,9.152587568508917,6.00150052284866,5.06682459684033,0.0072415375253558345,6.2757619920434555,7.374000167846679,8.62509500673463,9.533396161391137,9.09512540743961,5.704999923706054,7.637922170995041,9.152587568508917,6.00150052284866,5.06682459684033,0.0072415375253558345,0,0,293.2532302289774,464.85436113401784,683.1373709125685,688.8423708362745,772.85951471722,855.2328028338002,1017.2733169507138,1057.8079137254365,1057.8079137254365,0,0,0.9501176427392399,0.9557222180896335,0.8382291783889135,0.5704999923706054,0.6058181827718562,0.7960555500454374,0.2428888819835804,0.0346875011920929,0,1,1,1,1,1,1,1,1,1,1,1,0.602833325068156,0.737400016784668,0.9501176427392399,0.9557222180896335,0.8382291783889135,0.5704999923706054,0.6058181827718562,0.7960555500454374,0.2428888819835804,0.0346875011920929,0,1,1,1,1,1,0.9999999999999998,0.9999999999999999,1,1,1,1,2019-05-31T12:00:00Z,2019-06-15T12:00:00Z,2019-06-20T12:00:00Z,2019-07-24T12:00:00Z,2019-08-11T12:00:00Z,2019-09-04T12:00:00Z,2019-09-05T12:00:00Z,2019-09-16T12:00:00Z,2019-09-25T12:00:00Z,2019-10-22T12:00:00Z,2019-10-30T12:00:00Z,2019-06-14T12:00:00Z,2019-06-19T12:00:00Z,2019-07-23T12:00:00Z,2019-08-10T12:00:00Z,2019-09-03T12:00:00Z,2019-09-04T12:00:00Z,2019-09-15T12:00:00Z,2019-09-24T12:00:00Z,2019-10-21T12:00:00Z,2019-10-29T12:00:00Z,2019-11-13T12:00:00Z,151,166,171,205,223,247,248,259,268,295,303,14,4,33,17,23,0,10,8,26,7,14,165,170,204,222,246,247,258,267,294,302,317
22,ames_ia,42.0215,-93.7745,2,2019-05-23,15,2019,early2,1134.1357363357608,11,2019-05-09,2019-05-23,119,2019-09-19,2019-09-22,2019-10-06,Harvested at Maturity.,9.572666708628336,8.09249997138977,5.491951247540916,2.3436841839238216,1.0965000092983246,0,3.78125,1.1611111097865634,5.736666663487752,6.916666428248088,7.5606668074925745,9.572666708628336,8.09249997138977,5.491951247540916,2.3436841839238216,1.0965000092983246,0,3.78125,1.1611111097865634,5.736666663487752,6.916666428248088,7.5606668074925745,17.16061102549235,19.661508560180664,20.290973198123094,19.975594922115928,19.966671228408813,19.817533493041992,16.40612304210663,16.355704413519966,14.287114715576172,10.308960119883219,10.559023412068685,18.79733327229818,25.764999866485596,27.000000093041397,29.290526339882298,27.971999835968017,26.3799991607666,26.40374994277954,24.51111094156901,26.883333206176758,29.109999974568684,21.86200008392334,12.993999989827474,19.338749885559082,21.21963420728358,23.630526366986725,22.01399998664856,20.554999351501465,20.800625026226044,18.819999959733753,21.096333312988282,24.463333447774254,16.54533338546753,7.190666707356771,12.912499904632568,15.43926832152576,17.970526394091156,16.0560001373291,14.729999542236328,15.197500109672546,13.128888977898493,15.309333419799804,19.816666920979817,11.228666687011719,4.077446321916779,9.338749885559082,7.161497813787513,9.588457648138322,10.639837630784612,10.481123823197745,10.916491151213647,9.160555511734882,11.251900055913131,14.384096661599479,5.990489803348184,4.077446321916779,9.338749885559082,7.161497813787513,9.588457648138322,10.639837630784612,10.481123823197745,10.916491151213647,9.160555511734882,11.251900055913131,14.384096661599479,5.990489803348184,0,0,293.6214103652881,475.8021056799161,688.5988582956082,699.079982118806,786.4119113285152,868.8569109341292,1037.6354117728265,1080.7877017576247,1080.7877017576247,0,0,0.9120121979131931,0.997815792184127,0.9833249926567078,1,0.9603125095367432,0.8621666643354629,0.9321000003814698,1,0.06666666666666667,1,1,1,1,1,1,1,1,1,1,1,0.32803333044052124,0.9338749885559083,0.9120121979131931,0.997815792184127,0.9833249926567078,1,0.9603125095367432,0.8621666643354629,0.9321000003814698,1,0.6181000026067098,1,1,1,0.9999999999999999,1,1,0.9999999999999999,1,0.9999999999999999,0.9999999999999999,1,2019-05-09T12:00:00Z,2019-05-24T12:00:00Z,2019-05-28T12:00:00Z,2019-07-08T12:00:00Z,2019-07-27T12:00:00Z,2019-08-16T12:00:00Z,2019-08-17T12:00:00Z,2019-08-25T12:00:00Z,2019-09-03T12:00:00Z,2019-09-18T12:00:00Z,2019-09-21T12:00:00Z,2019-05-23T12:00:00Z,2019-05-27T12:00:00Z,2019-07-07T12:00:00Z,2019-07-26T12:00:00Z,2019-08-15T12:00:00Z,2019-08-16T12:00:00Z,2019-08-24T12:00:00Z,2019-09-02T12:00:00Z,2019-09-17T12:00:00Z,2019-09-20T12:00:00Z,2019-10-05T12:00:00Z,129,144,148,189,208,228,229,237,246,261,264,14,3,40,18,19,0,7,8,14,2,14,143,147,188,207,227,228,236,245,260,263,278
23,urbana_il,40.05325,-88.23485,2,2019-06-05,17,2019,early2,941.0506488394144,11,2019-05-22,2019-06-05,102,2019-09-15,2019-09-19,2019-10-03,Harvested at Maturity.,2.882666622598966,0,4.335294125711217,1.2024999856948853,1.096315782321127,0,5.163333237171173,1.348750002682209,1.5550000241824558,0.875,3.3133333484331766,2.882666622598966,0,4.335294125711217,1.2024999856948853,1.096315782321127,0,5.163333237171173,1.348750002682209,1.5550000241824558,0.875,3.3133333484331766,21.496617444356282,22.63340950012207,19.798836708068848,20.685020864009857,19.656510152314837,19.205705642700195,14.066350142161053,17.881275296211243,16.413583619253977,16.438249826431274,13.458857536315918,27.522000122070313,30.059999465942383,28.369705873377182,30.233749866485596,28.885263041446084,28.229999542236328,28.52666695912679,26.05500030517578,27.315714291163854,28.93000030517578,28.65333302815755,21.648000113169353,24.227499961853027,22.918529426350315,24.386249899864197,22.858684163344535,22.5,23.828333536783855,20.422500252723694,21.59392854145595,21.958750128746033,22.35399980545044,15.774000104268392,18.395000457763672,17.467352979323444,18.538749933242798,16.832105285242985,16.770000457763672,19.130000114440918,14.790000200271606,15.872142791748047,14.987499952316284,16.054666582743327,11.618555978256861,14.16286386499405,8.78025237654572,10.793617285665707,11.867953303059595,12.5,13.799986934224766,10.567731283295155,11.544800894229327,12.093431483340265,11.375144949653944,11.618555978256861,14.16286386499405,8.78025237654572,10.793617285665707,11.867953303059595,12.5,13.799986934224766,10.567731283295155,11.544800894229327,12.093431483340265,11.375144949653944,0,0,298.52858080255453,471.2264573732059,696.7175701313383,709.2175701313383,792.0174917366869,876.5593420030481,1038.1865545222586,1086.5602804556197,1086.5602804556197,0,0,0.963308822407442,1,1,1,1,0.9676875114440918,0.9670714242117746,1,0.06666666666666667,1,1,1,1,1,1,1,1,1,1,1,0.9745333290100098,1,0.963308822407442,1,1,1,1,0.9676875114440918,0.9670714242117746,1,0.971933323542277,1,1,1,1,1,0.9999999999999998,0.9999999999999999,1,1,1,1,2019-05-22T12:00:00Z,2019-06-06T12:00:00Z,2019-06-08T12:00:00Z,2019-07-12T12:00:00Z,2019-07-28T12:00:00Z,2019-08-16T12:00:00Z,2019-08-17T12:00:00Z,2019-08-23T12:00:00Z,2019-08-31T12:00:00Z,2019-09-14T12:00:00Z,2019-09-18T12:00:00Z,2019-06-05T12:00:00Z,2019-06-07T12:00:00Z,2019-07-11T12:00:00Z,2019-07-27T12:00:00Z,2019-08-15T12:00:00Z,2019-08-16T12:00:00Z,2019-08-22T12:00:00Z,2019-08-30T12:00:00Z,2019-09-13T12:00:00Z,2019-09-17T12:00:00Z,2019-10-02T12:00:00Z,142,157,159,193,209,228,229,235,243,257,261,14,1,33,15,18,0,5,7,13,3,14,156,158,192,208,227,228,234,242,256,260,275
24,eastlansing_mi,42.6296,-84.4375,2,2019-05-29,16,2019,early2,998.6120531942156,11,2019-05-15,2019-05-29,126,2019-10-02,2019-10-10,2019-10-24,Harvested at Maturity.,3.3859999656677244,7.0366664330164594,4.093333318119957,2.5968420881974073,0.7935000002384186,0,2.8600000143051147,5.637777805328369,3.2152940665974334,4.788749925792218,2.346000023682912,3.3859999656677244,7.0366664330164594,4.093333318119957,2.5968420881974073,0.7935000002384186,0,2.8600000143051147,5.637777805328369,3.2152940665974334,4.788749925792218,2.346000023682912,20.34337018330892,20.852556705474854,20.56597139721825,19.389802882545872,18.878786468505858,21.15455436706543,15.361564254760742,12.716490268707275,12.818854331970215,10.76674896478653,10.057606347401936,21.585999933878583,22.28666655222575,26.651190280914307,28.63578936928197,27.571999931335448,24.690000534057617,24.117999839782716,24.105555640326607,24.125882485333612,19.2224999666214,15.342000007629395,15.466333317756654,16.068333228429157,20.789642799468268,22.709999862470124,21.49599995613098,17.34500026702881,18.6114999294281,18.787222226460774,18.653823628145105,14.177499949932098,9.852333319435516,9.346666701634724,9.849999904632568,14.928095318022228,16.78421035565828,15.419999980926514,10,13.105000019073486,13.468888812594944,13.181764770956601,9.132499933242798,4.362666631241639,5.829788742447694,6.324620557439327,6.858877668324997,9.65075875849774,10.978175434663838,7.345000267028809,9.045442071334124,9.33453881572816,9.18240967363014,6.78454395845756,1.5737903722891118,5.829788742447694,6.324620557439327,6.858877668324997,9.65075875849774,10.978175434663838,7.345000267028809,9.045442071334124,9.33453881572816,9.18240967363014,6.78454395845756,1.5737903722891118,0,0,288.07286206964983,471.437278481107,691.0007871743837,698.3457874414125,788.8002081547537,872.8110574963071,1028.9120219480194,1083.18837361568,1083.18837361568,0,0,0.8922380890165057,0.9776315789473684,0.9558000063896179,0.734500026702881,0.8375999927520752,0.7896111170450847,0.8177352961371926,0.39493749737739564,0.016533330281575522,1,1,1,1,1,1,1,1,1,1,1,0.5500333293279013,0.6068333228429159,0.8922380890165057,0.9776315789473684,0.9558000063896179,0.734500026702881,0.8375999927520752,0.7896111170450847,0.8177352961371926,0.39493749737739564,0.10616666316986084,1,1,1,0.9999999999999999,0.9999999999999999,1,1,1,1,1,1,2019-05-15T12:00:00Z,2019-05-30T12:00:00Z,2019-06-05T12:00:00Z,2019-07-17T12:00:00Z,2019-08-05T12:00:00Z,2019-08-25T12:00:00Z,2019-08-26T12:00:00Z,2019-09-05T12:00:00Z,2019-09-14T12:00:00Z,2019-10-01T12:00:00Z,2019-10-09T12:00:00Z,2019-05-29T12:00:00Z,2019-06-04T12:00:00Z,2019-07-16T12:00:00Z,2019-08-04T12:00:00Z,2019-08-24T12:00:00Z,2019-08-25T12:00:00Z,2019-09-04T12:00:00Z,2019-09-13T12:00:00Z,2019-09-30T12:00:00Z,2019-10-08T12:00:00Z,2019-10-23T12:00:00Z,135,150,156,198,217,237,238,248,257,274,282,14,5,41,18,19,0,9,8,16,7,14,149,155,197,216,236,237,247,256,273,281,296
25,mead_ne,41.15785,-96.42075,2,2019-05-16,10,2019,early2,965.4078677602369,11,2019-05-02,2019-05-16,113,2019-09-06,2019-09-10,2019-09-24,Harvested at Maturity.,3.309333403905233,8.071428724697657,5.415263163416009,0.9144444465637207,2.71999996304512,NA,4.908571515764509,2.0850000381469727,2.030666708946228,0.6850000023841858,6.6026666005452475,3.309333403905233,8.071428724697657,5.415263163416009,0.9144444465637207,2.71999996304512,NA,4.908571515764509,2.0850000381469727,2.030666708946228,0.6850000023841858,6.6026666005452475,19.720319493611655,14.991769245692662,20.487308251230342,20.44908184475369,18.800575733184814,NA,17.90095124925886,17.40655295054118,17.005581855773926,16.139426231384277,13.858146222432454,20.458666547139487,18.801428658621653,27.428421020507813,31.856666564941406,29.005500030517577,NA,29.49857112339565,28.413333574930828,26.303333282470703,27.425000190734863,29.63066660563151,13.88799991607666,14.502857208251953,21.539605228524458,26.116666581895615,23.79724988937378,NA,24.54214266368321,23.0016667842865,21.005333264668785,21.555000066757202,23.713666598002117,7.317333285013834,10.204285757882253,15.650789436541105,20.376666598849827,18.58899974822998,NA,19.585714203970774,17.58999999364217,15.707333246866861,15.684999942779541,17.79666659037272,4.619900275942484,5.065187503134778,7.521469805150982,10.43865046883727,11.040611998804364,NA,13.770573942920175,12.531078846282483,11.084713215453228,11.277040437904002,12.423310809645653,4.619900275942484,5.065187503134778,7.521469805150982,10.43865046883727,11.040611998804364,NA,13.770573942920175,12.531078846282483,11.084713215453228,11.277040437904002,12.423310809645653,0,0,285.8158525957373,473.7115610348081,694.5238010108953,NA,790.9178186113367,866.1042916890316,1032.37498992083,1077.483151672446,1077.483151672446,0,0,0.9343026299225656,0.9990277767181397,0.994350004196167,NA,1,0.9824999968210856,0.9756666723887125,1,0.06666666666666667,1,1,1,1,1,NA,1,1,1,1,1,0.3684999990463257,0.42000000476837157,0.9343026299225656,0.9990277767181397,0.994350004196167,NA,1,0.9824999968210856,0.9756666723887125,1,0.9938333320617676,1,1,1,0.9999999999999999,1,NA,1,1,0.9999999999999999,1,1,2019-05-02T12:00:00Z,2019-05-17T12:00:00Z,2019-05-24T12:00:00Z,2019-07-01T12:00:00Z,2019-07-19T12:00:00Z,NA,2019-08-08T12:00:00Z,2019-08-15T12:00:00Z,2019-08-21T12:00:00Z,2019-09-05T12:00:00Z,2019-09-09T12:00:00Z,2019-05-16T12:00:00Z,2019-05-23T12:00:00Z,2019-06-30T12:00:00Z,2019-07-18T12:00:00Z,2019-08-07T12:00:00Z,NA,2019-08-14T12:00:00Z,2019-08-20T12:00:00Z,2019-09-04T12:00:00Z,2019-09-08T12:00:00Z,2019-09-23T12:00:00Z,122,137,144,182,200,NA,220,227,233,248,252,14,6,37,17,19,NA,6,5,14,3,14,136,143,181,199,219,NA,226,232,247,251,266
26,phillips_ne,40.8473,-98.177,2,2019-05-18,11,2019,early2,936.0318021269272,11,2019-05-04,2019-05-18,116,2019-09-11,2019-09-15,2019-09-29,Harvested at Maturity.,3.579333265622457,14.327500253915787,4.376000040769577,5.834444469875759,6.510555691189236,20.5,4.188571521214077,20.42571462903704,1.4646666129430135,2.134999990463257,0.984666649500529,3.579333265622457,14.327500253915787,4.376000040769577,5.834444469875759,6.510555691189236,20.5,4.188571521214077,20.42571462903704,1.4646666129430135,2.134999990463257,0.984666649500529,19.41968043645223,17.319653868675232,20.263313794136046,19.614686754014755,18.604241953955757,12.222442626953123,18.18021093096052,12.10734578541347,17.1392879486084,16.18415927886963,15.431582959493001,21.13133322397868,17.975000023841858,27.327749967575073,30.208333333333332,29.248333401150173,29.25,27.485714503696986,25.920000076293945,26.4646666208903,28.612500190734863,27.6853333791097,14.485333254933357,13.02624997496605,21.348374986648558,24.525833394792343,23.723333332273697,24.989999771118164,22.060000079018728,21.74071434565953,20.845333258310955,22.450000047683716,21.222666676839193,7.839333285888036,8.07749992609024,15.369000005722047,18.843333456251358,18.198333263397217,20.729999542236328,16.63428565434047,17.56142861502511,15.225999895731608,16.28749990463257,14.759999974568684,5.437710851317334,3.8920330662917344,7.44907141498155,10.085563614110425,11.936075982006697,14.37649699209075,11.957428790946663,11.545700813603402,10.813040712442001,12.553874798035622,10.223164354245663,5.437710851317334,3.8920330662917344,7.44907141498155,10.085563614110425,11.936075982006697,14.37649699209075,11.957428790946663,11.545700813603402,10.813040712442001,12.553874798035622,10.223164354245663,0,0,297.96285659926195,479.5030016532496,694.35236932937,708.7288663214608,792.4308678580875,873.2507735533112,1035.4463842399414,1085.661883432084,1085.661883432084,0,0,0.9042999947071075,0.9949999994701809,1,1,0.9855000087193081,0.9947857175554548,0.9413999938964844,0.9678750038146973,0.06666666666666667,1,1,1,1,1,1,1,1,1,1,1,0.4413666645685832,0.35381249487400057,0.9042999947071075,0.9949999994701809,1,1,0.9855000087193081,0.9947857175554548,0.9413999938964844,0.9678750038146973,0.8837666702270508,1,1,0.9999999999999999,1,0.9999999999999999,1,1,1,0.9999999999999999,1,1,2019-05-04T12:00:00Z,2019-05-19T12:00:00Z,2019-05-27T12:00:00Z,2019-07-06T12:00:00Z,2019-07-24T12:00:00Z,2019-08-11T12:00:00Z,2019-08-12T12:00:00Z,2019-08-19T12:00:00Z,2019-08-26T12:00:00Z,2019-09-10T12:00:00Z,2019-09-14T12:00:00Z,2019-05-18T12:00:00Z,2019-05-26T12:00:00Z,2019-07-05T12:00:00Z,2019-07-23T12:00:00Z,2019-08-10T12:00:00Z,2019-08-11T12:00:00Z,2019-08-18T12:00:00Z,2019-08-25T12:00:00Z,2019-09-09T12:00:00Z,2019-09-13T12:00:00Z,2019-09-28T12:00:00Z,124,139,147,187,205,223,224,231,238,253,257,14,7,39,17,17,0,6,6,14,3,14,138,146,186,204,222,223,230,237,252,256,271
27,chatham_ont,42.38,-82.2524,2,2019-06-24,18,2019,early2,796.7672049521716,11,2019-06-10,2019-06-24,113,2019-10-15,2019-10-24,2019-11-07,Harvested at Maturity.,3.102000045776367,0,4.2416129496789745,1.5588235118809868,2.911000019311905,0,2.7224998772144318,0.17374999821186066,2.3595454584468496,1.685555511050754,4.191333362460137,3.102000045776367,0,4.2416129496789745,1.5588235118809868,2.911000019311905,0,2.7224998772144318,0.17374999821186066,2.3595454584468496,1.685555511050754,4.191333362460137,19.140031178792317,22.602495193481445,20.012298430165938,18.823751842274387,15.369586372375489,17.277700901031494,14.138548612594604,14.110719561576843,11.573941924355246,10.208584096696642,7.5958433469136555,21.911999893188476,28.1233336130778,28.57677428953109,27.45294122134938,25.208500099182128,22.074999809265137,24.052500247955322,24.555000066757202,20.92181821302934,15.488889164394802,11.898666763305664,17.454999923706055,23.203333536783852,23.37209684618058,22.314411864561194,20.73650004863739,17.27999997138977,19.570625066757202,20.231250047683716,16.441818193955854,10.452222320768568,7.955000054836273,12.997999954223632,18.28333346048991,18.167419402830063,17.175882507773007,16.264499998092653,12.485000133514404,15.088749885559082,15.90750002861023,11.961818174882369,5.415555477142334,4.011333346366882,7.454999923706055,13.203333536783854,9.266409276702467,10.910480122384735,10.71583402586897,7.2799999713897705,9.815270213143528,10.231250047683716,7.787981459575215,5.32302373439653,0.6702610660417875,7.454999923706055,13.203333536783854,9.266409276702467,10.910480122384735,10.71583402586897,7.2799999713897705,9.815270213143528,10.231250047683716,7.787981459575215,5.32302373439653,0.6702610660417875,0,0,287.25868757777647,472.7368496583169,687.0535301756963,701.6135301184759,780.1356918236241,861.9856922050939,1033.3212843157487,1081.2284979253177,1081.2284979253177,0,0,0.9987903210424608,0.99770588313832,0.9389499974250793,0.7279999971389771,0.8560000061988831,0.9518125057220459,0.6049318226900968,0.12583334313498604,0.010966668128967287,1,1,1,1,1,1,1,1,1,1,1,0.7335666592915854,1,0.9987903210424608,0.99770588313832,0.9389499974250793,0.7279999971389771,0.8560000061988831,0.9518125057220459,0.6049318226900968,0.12583334313498604,0.041800004641215006,1,1,1,0.9999999999999999,0.9999999999999999,1,0.9999999999999999,1,1,0.9999999999999999,1,2019-06-10T12:00:00Z,2019-06-25T12:00:00Z,2019-06-28T12:00:00Z,2019-07-29T12:00:00Z,2019-08-15T12:00:00Z,2019-09-04T12:00:00Z,2019-09-06T12:00:00Z,2019-09-14T12:00:00Z,2019-09-22T12:00:00Z,2019-10-14T12:00:00Z,2019-10-23T12:00:00Z,2019-06-24T12:00:00Z,2019-06-27T12:00:00Z,2019-07-28T12:00:00Z,2019-08-14T12:00:00Z,2019-09-03T12:00:00Z,2019-09-05T12:00:00Z,2019-09-13T12:00:00Z,2019-09-21T12:00:00Z,2019-10-13T12:00:00Z,2019-10-22T12:00:00Z,2019-11-06T12:00:00Z,161,176,179,210,227,247,249,257,265,287,296,14,2,30,16,19,1,7,7,21,8,14,175,178,209,226,246,248,256,264,286,295,310
28,ames_ia,42.0215,-93.7745,3,2019-05-23,15,2019,early3,1337.939458897809,11,2019-05-09,2019-05-23,136,2019-10-06,2019-10-16,2019-10-30,Harvested at Maturity.,9.572666708628336,8.09249997138977,4.777708354095618,2.3136363462968306,2.1708333417773247,0,2.679999977350235,8.0762500166893,6.771666718853845,5.404000091552734,3.9073333740234375,9.572666708628336,8.09249997138977,4.777708354095618,2.3136363462968306,2.1708333417773247,0,2.679999977350235,8.0762500166893,6.771666718853845,5.404000091552734,3.9073333740234375,17.16061102549235,19.661508560180664,20.585951924324036,19.668024236505683,17.404935320218403,15.7832670211792,16.614562511444092,13.13231897354126,10.775705946816338,11.957138967514037,8.992456245422364,18.79733327229818,25.764999866485596,27.39479172229767,28.604999975724652,26.65666651725769,21.875,25.826249837875366,27.352499961853027,23.753888924916584,16.036000061035157,12.429999828338623,12.993999989827474,19.338749885559082,21.568229218324024,22.89159096371044,20.947708288828533,17.079999923706055,19.67500001192093,21.735000014305115,18.548333366711933,9.6685000538826,6.4976665740211805,7.190666707356771,12.912499904632568,15.741666714350382,17.17818195169622,15.238750060399374,12.28499984741211,13.523750185966492,16.117500066757202,13.342777808507284,3.3010000467300413,0.5653333197037379,4.077446321916779,9.338749885559082,6.124371633220071,8.62838860291224,10.063893382468653,7.079999923706055,9.97247130631134,11.841167230176925,9.637607156079014,5.666018428780139,0.8838148542215862,4.077446321916779,9.338749885559082,6.124371633220071,8.62838860291224,10.063893382468653,7.079999923706055,9.97247130631134,11.841167230176925,9.637607156079014,5.666018428780139,0.8838148542215862,0,0,293.96983839456345,483.7943876586328,725.3278288378802,739.4878286852924,819.2675991357831,913.9969369771986,1087.473865786621,1144.1340500744222,1144.1340500744222,0,0,0.9248437523841858,0.986909090388905,0.9613750000794729,0.7079999923706055,0.9135624945163727,0.9423750042915344,0.7224444468816121,0.16740000009536743,0,1,1,1,1,1,1,1,1,1,1,1,0.32803333044052124,0.9338749885559083,0.9248437523841858,0.986909090388905,0.9613750000794729,0.7079999923706055,0.9135624945163727,0.9423750042915344,0.7224444468816121,0.16740000009536743,0.029833327134450277,1,1,1,0.9999999999999999,0.9999999999999999,1,1,1,1,0.9999999999999999,1,2019-05-09T12:00:00Z,2019-05-24T12:00:00Z,2019-05-28T12:00:00Z,2019-07-15T12:00:00Z,2019-08-06T12:00:00Z,2019-08-30T12:00:00Z,2019-09-01T12:00:00Z,2019-09-09T12:00:00Z,2019-09-17T12:00:00Z,2019-10-05T12:00:00Z,2019-10-15T12:00:00Z,2019-05-23T12:00:00Z,2019-05-27T12:00:00Z,2019-07-14T12:00:00Z,2019-08-05T12:00:00Z,2019-08-29T12:00:00Z,2019-08-31T12:00:00Z,2019-09-08T12:00:00Z,2019-09-16T12:00:00Z,2019-10-04T12:00:00Z,2019-10-14T12:00:00Z,2019-10-29T12:00:00Z,129,144,148,196,218,242,244,252,260,278,288,14,3,47,21,23,1,7,7,17,9,14,143,147,195,217,241,243,251,259,277,287,302
29,arthur_il,39.70646667,-88.47023333,3,2019-06-04,19,2019,early3,1184.2508954068016,11,2019-05-21,2019-06-04,110,2019-09-22,2019-09-27,2019-10-11,Harvested at Maturity.,6.216666793823242,0,5.508684158325195,0.9264999806880951,5.109444512261285,1.950000047683716,2.2737499475479126,3.3149999529123306,0.11999999559842624,2.4379999160766603,2.4073333740234375,6.216666793823242,0,5.508684158325195,0.9264999806880951,5.109444512261285,1.950000047683716,2.2737499475479126,3.3149999529123306,0.11999999559842624,2.4379999160766603,2.4073333740234375,20.266973114013673,23.52549171447754,19.966446249108564,20.667987012863158,17.74559211730957,13.695479393005373,16.881681323051453,16.89643967151642,17.118605393629807,12.912380981445313,12.77088254292806,27.23400001525879,31.300000190734863,28.91947384884483,29.88100004196167,29.493889066908096,26.81999969482422,26.423750400543213,26.36875009536743,29.97230735191932,26.94399948120117,26.156666819254557,21.41566670735677,24.960000038146973,23.540658059873078,24.225250053405762,23.91444452603658,23.024999618530273,21.040000081062317,20.74375009536743,23.446538264934834,21.668999767303468,19.53633346557617,15.597333399454753,18.619999885559082,18.161842270901328,18.569500064849855,18.334999985165066,19.229999542236328,15.656249761581421,15.118750095367432,16.920769177950344,16.39400005340576,12.916000111897786,11.435820533212821,14.489062264430526,7.847779532360407,10.005528074679244,12.672163286636918,13.024999618530272,11.087982598824054,10.860169157980383,13.133999724031412,11.781323431236745,8.917890027294556,11.435820533212821,14.489062264430526,7.847779532360407,10.005528074679244,12.672163286636918,13.024999618530272,11.087982598824054,10.860169157980383,13.133999724031412,11.781323431236745,8.917890027294556,0,0,298.21562222969555,498.3261837232803,726.4251228827446,739.4501225012749,828.1539832918673,915.0353365557104,1085.7773329681186,1144.6839501243023,1144.6839501243023,0,0,0.9755657936397352,1,1,1,0.9870000123977661,0.9617500007152557,0.9918846167050875,0.9771999835968018,0.053733332951863604,1,1,1,1,1,1,1,1,1,1,1,0.9338666693369547,1,0.9755657936397352,1,1,1,0.9870000123977661,0.9617500007152557,0.9918846167050875,0.9771999835968018,0.7670999940236409,1,1,1,0.9999999999999999,0.9999999999999999,1,1,1,1,1,1,2019-05-21T12:00:00Z,2019-06-05T12:00:00Z,2019-06-07T12:00:00Z,2019-07-15T12:00:00Z,2019-08-04T12:00:00Z,2019-08-22T12:00:00Z,2019-08-23T12:00:00Z,2019-08-31T12:00:00Z,2019-09-08T12:00:00Z,2019-09-21T12:00:00Z,2019-09-26T12:00:00Z,2019-06-04T12:00:00Z,2019-06-06T12:00:00Z,2019-07-14T12:00:00Z,2019-08-03T12:00:00Z,2019-08-21T12:00:00Z,2019-08-22T12:00:00Z,2019-08-30T12:00:00Z,2019-09-07T12:00:00Z,2019-09-20T12:00:00Z,2019-09-25T12:00:00Z,2019-10-10T12:00:00Z,141,156,158,196,216,234,235,243,251,264,269,14,1,37,19,17,0,7,7,12,4,14,155,157,195,215,233,234,242,250,263,268,283
30,urbana_il,40.05325,-88.23485,3,2019-06-05,17,2019,early3,1156.467828846428,11,2019-05-22,2019-06-05,114,2019-09-27,2019-10-02,2019-10-16,Harvested at Maturity.,2.882666622598966,0,4.23282051544923,0.46949999034404755,2.2404999703168866,9.960000038146973,1.9637500345706937,0.6100000143051147,1.4164285404341561,6.726000118255615,1.6633333166440327,2.882666622598966,0,4.23282051544923,0.46949999034404755,2.2404999703168866,9.960000038146973,1.9637500345706937,0.6100000143051147,1.4164285404341561,6.726000118255615,1.6633333166440327,21.496617444356282,22.63340950012207,19.702957960275505,21.45827555656433,17.159699296951295,11.817891120910645,16.62255334854126,16.90855360031128,15.431468759264265,12.178110122680664,13.011273447672526,27.522000122070313,30.059999465942383,28.6238461518899,29.679999828338623,28.189000034332274,27.040000915527344,26.322499990463257,26.9375,28.659999983651296,28.555999755859375,21.926666514078775,21.648000113169353,24.227499961853027,23.12230769181863,23.61024992465973,22.708250069618224,22.475000381469727,20.826250076293945,21.14687490463257,22.258571352277485,21.885999870300292,14.994666584332784,15.774000104268392,18.395000457763672,17.620769231747357,17.540500020980836,17.227500104904173,17.90999984741211,15.330000162124634,15.356249809265137,15.857142720903669,15.215999984741211,8.062666654586792,11.618555978256861,14.16286386499405,7.607289267030535,9.744543515591653,11.88054468740845,12.475000381469728,10.894671576127411,11.173986477019637,12.273110829197083,12.095554986968041,4.914321709656915,11.618555978256861,14.16286386499405,7.607289267030535,9.744543515591653,11.88054468740845,12.475000381469728,10.894671576127411,11.173986477019637,12.273110829197083,12.095554986968041,4.914321709656915,0,0,296.6842814141909,491.5751517260238,729.1860454741927,741.6610458556625,828.8184184646817,918.2103102808388,1090.033861889598,1150.5116368244385,1150.5116368244385,0,0,0.968012819534693,1,0.9922750043869019,1,0.9870000004768372,0.9423749923706055,0.9849285636629377,0.9579999923706055,0.06666666666666667,1,1,1,1,1,1,1,1,1,1,1,0.9745333290100098,1,0.968012819534693,1,0.9922750043869019,1,0.9870000004768372,0.9423749923706055,0.9849285636629377,0.9579999923706055,0.4514999914169312,1,1,0.9999999999999999,1,1,1,0.9999999999999999,1,1,1,1,2019-05-22T12:00:00Z,2019-06-06T12:00:00Z,2019-06-08T12:00:00Z,2019-07-17T12:00:00Z,2019-08-06T12:00:00Z,2019-08-26T12:00:00Z,2019-08-27T12:00:00Z,2019-09-04T12:00:00Z,2019-09-12T12:00:00Z,2019-09-26T12:00:00Z,2019-10-01T12:00:00Z,2019-06-05T12:00:00Z,2019-06-07T12:00:00Z,2019-07-16T12:00:00Z,2019-08-05T12:00:00Z,2019-08-25T12:00:00Z,2019-08-26T12:00:00Z,2019-09-03T12:00:00Z,2019-09-11T12:00:00Z,2019-09-25T12:00:00Z,2019-09-30T12:00:00Z,2019-10-15T12:00:00Z,142,157,159,198,218,238,239,247,255,269,274,14,1,38,19,19,0,7,7,13,4,14,156,158,197,217,237,238,246,254,268,273,288
31,wanatah_in,41.4444,-86.9437,3,2019-06-03,20,2019,early3,1163.355524898445,11,2019-05-20,2019-06-03,126,2019-10-07,2019-10-16,2019-10-30,Harvested at Maturity.,5.7186667144298555,1.940000057220459,3.0451162360435307,1.4054545760154724,2.773181834004142,NA,0.6355555719799466,3.5150000154972076,9.13941162474015,2.471111085679796,3.8593332330385843,5.7186667144298555,1.940000057220459,3.0451162360435307,1.4054545760154724,2.773181834004142,NA,0.6355555719799466,3.5150000154972076,9.13941162474015,2.471111085679796,3.8593332330385843,19.1100923538208,22.464080174763996,19.61565301584643,20.99938934499567,16.16624220934781,NA,16.243233574761284,13.673217177391052,11.359605256248923,12.710963673061794,9.068714888890584,23.32133344014486,27.206666310628254,27.875814083010653,28.173636349764738,26.632272807034578,NA,24.79888916015625,27.897500038146973,24.718235352460077,18.706666628519695,14.198000272115072,17.5896666208903,20.52499993642171,22.50186055205589,22.235227194699373,21.306363625959918,NA,19.340555667877197,22.069999992847443,19.698823536143582,12.199999984767702,9.155333458756408,11.857999801635742,13.84333356221517,17.12790702110113,16.29681803963401,15.980454444885254,NA,13.882222175598145,16.242499947547913,14.67941171982709,5.69333334101571,4.112666645397742,7.71563572853764,10.524999936421711,6.859894771828675,9.047897928629306,10.855746743088297,NA,9.554446865252654,11.936415128216893,10.144146066322397,6.262332604357269,1.183037661777932,7.71563572853764,10.524999936421711,6.859894771828675,9.047897928629306,10.855746743088297,NA,9.554446865252654,11.936415128216893,10.144146066322397,6.262332604357269,1.183037661777932,0,0,294.975475188633,494.0292296184776,732.8556579664199,NA,818.8456797536938,914.3370007794288,1086.7874839069098,1143.148477346125,1143.148477346125,0,0,0.9316162796907647,0.9883636366237294,0.962954551523382,NA,0.8521666685740154,0.9979999959468842,0.8305588217342601,0.30133333471086293,0.006900002161661784,1,1,1,1,1,NA,1,1,1,1,1,0.7304999923706055,0.9801666577657064,0.9316162796907647,0.9883636366237294,0.962954551523382,NA,0.8521666685740154,0.9979999959468842,0.8305588217342601,0.30133333471086293,0.056000006993611656,1,1,1,1,0.9999999999999999,NA,1,1,0.9999999999999999,1,1,2019-05-20T12:00:00Z,2019-06-04T12:00:00Z,2019-06-07T12:00:00Z,2019-07-20T12:00:00Z,2019-08-11T12:00:00Z,NA,2019-09-02T12:00:00Z,2019-09-11T12:00:00Z,2019-09-19T12:00:00Z,2019-10-06T12:00:00Z,2019-10-15T12:00:00Z,2019-06-03T12:00:00Z,2019-06-06T12:00:00Z,2019-07-19T12:00:00Z,2019-08-10T12:00:00Z,2019-09-01T12:00:00Z,NA,2019-09-10T12:00:00Z,2019-09-18T12:00:00Z,2019-10-05T12:00:00Z,2019-10-14T12:00:00Z,2019-10-29T12:00:00Z,140,155,158,201,223,NA,245,254,262,279,288,14,2,42,21,21,NA,8,7,16,8,14,154,157,200,222,244,NA,253,261,278,287,302
32,ottawa_ks,38.5404,-95.2477,3,2019-06-03,21,2019,early3,996.588826835016,11,2019-05-20,2019-06-03,103,2019-09-14,2019-09-18,2019-10-02,Harvested at Maturity.,15.816000477472942,8.055000305175781,6.795142889022827,0.6015789634303041,17.423157886454934,NA,3.248333295186361,12.302500009536743,2.018333315849304,0,7.861333513259888,15.816000477472942,8.055000305175781,6.795142889022827,0.6015789634303041,17.423157886454934,NA,3.248333295186361,12.302500009536743,2.018333315849304,0,7.861333513259888,19.0988561630249,20.264453887939453,19.28670013972691,22.106596846329538,16.938511923739785,NA,15.6954394976298,14.425142347812653,16.202520847320557,17.800211429595947,12.689582665761312,25.38933340708415,30.885000228881836,29.209428678240094,31.330526050768402,29.976842077154863,NA,30.714999834696453,26.18375015258789,30.455000559488933,30.78250026702881,28.85266660054525,19.83000005086263,24.96999979019165,23.803571455819267,25.415789378316777,24.795789367274235,NA,26.003333250681557,21.62062507867813,24.851250251134235,23.99875009059906,23.59300003051758,14.270666694641113,19.054999351501465,18.39771423339844,19.501052705865156,19.614736657393607,NA,21.291666666666668,17.05750000476837,19.24749994277954,17.21499991416931,18.333333460489907,9.84255379541119,14.599000571298598,8.43209850567158,10.278577082700934,12.826757355144695,NA,14.899021643558115,11.58711832523644,14.374607431231937,13.193427593053876,12.184173516835372,9.84255379541119,14.599000571298598,8.43209850567158,10.278577082700934,12.826757355144695,NA,14.899021643558115,11.58711832523644,14.374607431231937,13.193427593053876,12.184173516835372,0,0,295.12344769850523,490.4164122698229,734.124802017572,NA,823.5189318789207,916.2158784808124,1088.711167655595,1141.484878027811,1141.484878027811,0,0,0.9846857125418527,0.9970000016061883,1,NA,1,1,1,1,0.06666666666666667,1,1,1,1,1,NA,1,1,1,1,1,0.8711333338419597,1,0.9846857125418527,0.9970000016061883,1,NA,1,1,1,1,0.9953999964396159,1,1,1,0.9999999999999999,0.9999999999999999,NA,1,1,1,1,1,2019-05-20T12:00:00Z,2019-06-04T12:00:00Z,2019-06-06T12:00:00Z,2019-07-11T12:00:00Z,2019-07-30T12:00:00Z,NA,2019-08-18T12:00:00Z,2019-08-24T12:00:00Z,2019-09-01T12:00:00Z,2019-09-13T12:00:00Z,2019-09-17T12:00:00Z,2019-06-03T12:00:00Z,2019-06-05T12:00:00Z,2019-07-10T12:00:00Z,2019-07-29T12:00:00Z,2019-08-17T12:00:00Z,NA,2019-08-23T12:00:00Z,2019-08-31T12:00:00Z,2019-09-12T12:00:00Z,2019-09-16T12:00:00Z,2019-10-01T12:00:00Z,140,155,157,192,211,NA,230,236,244,256,260,14,1,34,18,18,NA,5,7,11,3,14,154,156,191,210,229,NA,235,243,255,259,274
33,albany_mo,40.2384,-94.3433,3,2019-06-07,22,2019,early3,1113.3349231172836,11,2019-05-24,2019-06-07,109,2019-09-24,2019-09-30,2019-10-14,Harvested at Maturity.,11.787333377202351,0,4.166486459809381,4.062499976158142,5.3100000222524,32.869998931884766,4.438749924302101,2.940000057220459,4.904999852180481,13.351666529973349,6.805999978383382,11.787333377202351,0,4.166486459809381,4.062499976158142,5.3100000222524,32.869998931884766,4.438749924302101,2.940000057220459,4.904999852180481,13.351666529973349,6.805999978383382,20.696697425842284,22.812314987182617,20.477348907573802,19.000725507736206,16.632326364517212,4.5946502685546875,17.12458699941635,17.2804172039032,12.961415072282156,13.078622023264566,11.28638604482015,26.9,26.833333333333332,29.820000004123997,29.763000106811525,29.073333422342937,19.270000457763672,26.362499952316284,28.740000009536743,29.52999973297119,25.488333066304524,20.054666614532472,21.004666646321613,20.885000069936115,24.118243230355752,24.33824999332428,23.962499962912666,17.925000190734863,20.727499961853027,22.685624957084656,24.389166394869488,19.09333324432373,14.35166664123535,15.10933329264323,14.9366668065389,18.416486456587506,18.913499879837037,18.851666503482395,16.579999923706055,15.09249997138977,16.63124990463257,19.248333056767784,12.698333422342936,8.648666667938233,10.888407894104322,10.885000069936117,7.9393251427027005,10.109450725228129,12.843724575154692,7.925000190734863,10.702106579560786,12.440826803003253,13.732996283941468,9.471985037047665,4.83726553296874,10.888407894104322,10.885000069936117,7.9393251427027005,10.109450725228129,12.843724575154692,7.925000190734863,10.702106579560786,12.440826803003253,13.732996283941468,9.471985037047665,4.83726553296874,0,0,293.75503027999986,495.9440447845624,727.131087137347,735.0560873280818,820.6729399645682,920.1995543885942,1084.9955097958916,1141.8274200181777,1141.8274200181777,0,0,0.9786216207452723,0.9906250047683716,0.9997777779897054,0.7925000190734863,0.976687490940094,1,0.9971250017484029,0.8790833314259847,0.0571999994913737,1,1,1,1,1,1,1,1,1,1,1,0.942199993133545,0.9676666577657064,0.9786216207452723,0.9906250047683716,0.9997777779897054,0.7925000190734863,0.976687490940094,1,0.9971250017484029,0.8790833314259847,0.41863333225250243,1,1,1,1,1,1,0.9999999999999999,1,1,1,1,2019-05-24T12:00:00Z,2019-06-08T12:00:00Z,2019-06-11T12:00:00Z,2019-07-18T12:00:00Z,2019-08-07T12:00:00Z,2019-08-25T12:00:00Z,2019-08-26T12:00:00Z,2019-09-03T12:00:00Z,2019-09-11T12:00:00Z,2019-09-23T12:00:00Z,2019-09-29T12:00:00Z,2019-06-07T12:00:00Z,2019-06-10T12:00:00Z,2019-07-17T12:00:00Z,2019-08-06T12:00:00Z,2019-08-24T12:00:00Z,2019-08-25T12:00:00Z,2019-09-02T12:00:00Z,2019-09-10T12:00:00Z,2019-09-22T12:00:00Z,2019-09-28T12:00:00Z,2019-10-13T12:00:00Z,144,159,162,199,219,237,238,246,254,266,272,14,2,36,19,17,0,7,7,11,5,14,158,161,198,218,236,237,245,253,265,271,286
34,columbia_mo,38.8894,-92.2081,3,2019-06-04,23,2019,early3,1039.4902698873764,11,2019-05-21,2019-06-04,104,2019-09-16,2019-09-20,2019-10-04,Harvested at Maturity.,2.6193333844343822,16.125,3.9850000076823764,2.391666690508525,2.857894734332436,NA,7.5571425982884,9.308749914169312,3.494166692097982,0,3.042666679620743,2.6193333844343822,16.125,3.9850000076823764,2.391666690508525,2.857894734332436,NA,7.5571425982884,9.308749914169312,3.494166692097982,0,3.042666679620743,20.010273106892903,19.85502052307129,19.95439052581787,19.977618800269234,19.50188536393015,NA,13.966866629464285,14.552545249462128,16.487521092096966,17.017955780029297,12.292220481236775,27.26933339436849,30.619998931884766,28.87194448047214,30.76055579715305,30.413684041876543,NA,28.97000013078962,26.112499952316284,29.675833225250244,33.34749984741211,28.33266677856445,21.62666670481364,24.609999656677246,23.83041661315494,25.323055691189236,24.803947247956927,NA,24.397142955235072,21.46375000476837,23.993749896685284,26.68874979019165,23.182666714986166,15.98400001525879,18.600000381469727,18.788888745837742,19.885555585225422,19.194210454037314,NA,19.824285779680526,16.81500005722046,18.31166656812032,20.02999973297119,18.03266665140788,11.625674906561375,13.92049397431612,8.335609545536144,10.498867777414674,12.85438582280972,NA,13.669116887042673,11.398795442304015,13.577344796019295,14.597853753820061,11.817528523066045,11.625674906561375,13.92049397431612,8.335609545536144,10.498867777414674,12.85438582280972,NA,13.669116887042673,11.398795442304015,13.577344796019295,14.597853753820061,11.817528523066045,0,0,300.08194363930113,489.06156363276534,733.2948942661501,NA,828.9787124754488,920.169076013881,1083.0972135661125,1141.4886285813927,1141.4886285813927,0,0,0.9797083338101705,1,1,NA,1,0.9835000038146973,1,1,0.06666666666666667,1,1,1,1,1,NA,1,1,1,1,1,0.9577000013987224,1,0.9797083338101705,1,1,NA,1,0.9835000038146973,1,1,0.9678333314259847,1,1,1,1,0.9999999999999999,NA,0.9999999999999999,1,0.9999999999999999,1,1,2019-05-21T12:00:00Z,2019-06-05T12:00:00Z,2019-06-07T12:00:00Z,2019-07-13T12:00:00Z,2019-07-31T12:00:00Z,NA,2019-08-19T12:00:00Z,2019-08-26T12:00:00Z,2019-09-03T12:00:00Z,2019-09-15T12:00:00Z,2019-09-19T12:00:00Z,2019-06-04T12:00:00Z,2019-06-06T12:00:00Z,2019-07-12T12:00:00Z,2019-07-30T12:00:00Z,2019-08-18T12:00:00Z,NA,2019-08-25T12:00:00Z,2019-09-02T12:00:00Z,2019-09-14T12:00:00Z,2019-09-18T12:00:00Z,2019-10-03T12:00:00Z,141,156,158,194,212,NA,231,238,246,258,262,14,1,35,17,18,NA,6,7,11,3,14,155,157,193,211,230,NA,237,245,257,261,276
35,phillips_ne,40.8473,-98.177,3,2019-05-18,11,2019,early3,1243.628171497448,11,2019-05-04,2019-05-18,128,2019-09-23,2019-09-29,2019-10-13,Harvested at Maturity.,3.579333265622457,14.327500253915787,4.688695674357207,4.4080953143891835,9.392500114440917,22.68000030517578,9.347777989175585,0.32749998569488525,2.216153805072491,0,2.3293332974116008,3.579333265622457,14.327500253915787,4.688695674357207,4.4080953143891835,9.392500114440917,22.68000030517578,9.347777989175585,0.32749998569488525,2.216153805072491,0,2.3293332974116008,19.41968043645223,17.319653868675232,20.252276109612506,20.080664861769904,16.565687513351442,10.795740127563477,15.015020635392931,17.302876114845276,15.329411800091084,16.08954906463623,11.80340846379598,21.13133322397868,17.975000023841858,27.544565200805664,30.14952378045945,28.643500137329102,23.780000686645508,24.387777752346462,27.487499952316284,29.765384674072266,25.40666675567627,18.402666600545246,14.485333254933357,13.02624997496605,21.594130464222122,24.3773809160505,23.398500037193298,20.135000228881836,19.70111099878947,21.65374994277954,23.655769238105187,18.34166669845581,12.375333333015442,7.839333285888036,8.07749992609024,15.643695727638576,18.605238051641557,18.153499937057497,16.489999771118164,15.014444245232477,15.819999933242798,17.546153802138107,11.276666641235352,6.348000065485636,5.437710851317334,3.8920330662917344,6.4082011536050665,9.336768818926872,11.783362311695068,10.135000228881838,9.85524597497715,11.419799571064114,13.483249812106902,9.141896754411857,3.72889906807373,5.437710851317334,3.8920330662917344,6.4082011536050665,9.336768818926872,11.783362311695068,10.135000228881838,9.85524597497715,11.419799571064114,13.483249812106902,9.141896754411857,3.72889906807373,0,0,294.777253065833,490.8493982632972,726.5166444971986,736.6516447260805,825.3488585008748,916.707255069388,1091.9895026267775,1146.840883153249,1146.840883153249,0,0,0.916782604093137,0.9957142852601552,0.9949250030517578,1,0.9220555464426676,0.97325000166893,0.9901153857891376,0.8200833400090536,0.02240000089009603,1,1,1,1,1,1,1,1,1,1,1,0.4413666645685832,0.35381249487400057,0.916782604093137,0.9957142852601552,0.9949250030517578,1,0.9220555464426676,0.97325000166893,0.9901153857891376,0.8200833400090536,0.30446666876475015,1,1,1,0.9999999999999999,0.9999999999999999,1,1,1,1,1,1,2019-05-04T12:00:00Z,2019-05-19T12:00:00Z,2019-05-27T12:00:00Z,2019-07-12T12:00:00Z,2019-08-02T12:00:00Z,2019-08-22T12:00:00Z,2019-08-23T12:00:00Z,2019-09-01T12:00:00Z,2019-09-09T12:00:00Z,2019-09-22T12:00:00Z,2019-09-28T12:00:00Z,2019-05-18T12:00:00Z,2019-05-26T12:00:00Z,2019-07-11T12:00:00Z,2019-08-01T12:00:00Z,2019-08-21T12:00:00Z,2019-08-22T12:00:00Z,2019-08-31T12:00:00Z,2019-09-08T12:00:00Z,2019-09-21T12:00:00Z,2019-09-27T12:00:00Z,2019-10-12T12:00:00Z,124,139,147,193,214,234,235,244,252,265,271,14,7,45,20,19,0,8,7,12,5,14,138,146,192,213,233,234,243,251,264,270,285
36,wymore_ne,40.1222,-96.6625,3,2019-06-05,24,2019,early3,1086.8842511977853,11,2019-05-22,2019-06-05,109,2019-09-22,2019-09-27,2019-10-11,Harvested at Maturity.,7.763333384195963,0,4.200256408789219,2.7199999533201518,7.945789487738359,1.5,5.587500095367432,4.35428558077131,0.13416666785875955,11.547999572753907,5.389333343505859,7.763333384195963,0,4.200256408789219,2.7199999533201518,7.945789487738359,1.5,5.587500095367432,4.35428558077131,0.13416666785875955,11.547999572753907,5.389333343505859,21.414645131429037,23.329633712768555,20.083579087868713,19.347596670451917,16.76136794843172,8.372613906860352,16.372103333473206,17.286125319344656,15.475053071975708,13.607533073425293,12.144069226582845,25.90533358256022,30.895000457763672,29.809743489974586,30.679473876953125,29.594736902337324,22.989999771118164,26.363750219345093,29.56428555079869,31.0683331489563,27.536000061035157,22.159999910990397,19.529000012079877,24.297500133514404,23.58525639313918,25.010000053204987,24.19657907987896,20.9399995803833,20.95812499523163,23.119285651615687,25.00791660944621,21.217999935150146,16.058999903996785,13.152666441599528,17.699999809265137,17.360769296303772,19.340526229456852,18.79842125742059,18.88999938964844,15.552499771118164,16.674285752432688,18.947500069936115,14.899999809265136,9.957999897003173,9.509272937128346,14.110071312886477,7.682908334811426,9.997977040272621,12.745080080705769,10.9399995803833,10.942164410224557,12.728244638957296,14.296875733550886,11.43502030364752,5.890263986526132,9.509272937128346,14.110071312886477,7.682908334811426,9.997977040272621,12.745080080705769,10.9399995803833,10.942164410224557,12.728244638957296,14.296875733550886,11.43502030364752,5.890263986526132,0,0,299.6334250576456,489.59498882282537,731.7515103562348,742.6915099366181,830.2288252184145,919.3265376911156,1090.8890464937265,1148.064148011964,1148.064148011964,0,0,0.974500000782502,0.9839473573785079,0.998789476093493,1,0.9868125021457672,1,1,0.9807000064849853,0.04883333206176758,1,1,1,1,1,1,1,1,1,1,1,0.8522666724522908,1,0.974500000782502,0.9839473573785079,0.998789476093493,1,0.9868125021457672,1,1,0.9807000064849853,0.5306999985376994,1,1,1,1,0.9999999999999999,1,0.9999999999999999,1,0.9999999999999999,0.9999999999999999,1,2019-05-22T12:00:00Z,2019-06-06T12:00:00Z,2019-06-08T12:00:00Z,2019-07-17T12:00:00Z,2019-08-05T12:00:00Z,2019-08-24T12:00:00Z,2019-08-25T12:00:00Z,2019-09-02T12:00:00Z,2019-09-09T12:00:00Z,2019-09-21T12:00:00Z,2019-09-26T12:00:00Z,2019-06-05T12:00:00Z,2019-06-07T12:00:00Z,2019-07-16T12:00:00Z,2019-08-04T12:00:00Z,2019-08-23T12:00:00Z,2019-08-24T12:00:00Z,2019-09-01T12:00:00Z,2019-09-08T12:00:00Z,2019-09-20T12:00:00Z,2019-09-25T12:00:00Z,2019-10-10T12:00:00Z,142,157,159,198,217,236,237,245,252,264,269,14,1,38,18,18,0,7,6,11,4,14,156,158,197,216,235,236,244,251,263,268,283
37,flora_il,38.702763,-88.518259,4,2019-06-10,25,2019,early4,1300.5976175659566,11,2019-05-27,2019-06-10,116,2019-10-04,2019-10-12,2019-10-26,Harvested at Maturity.,3.01933340827624,1.275000050663948,6.765750058926642,1.2504999876022338,2.122857105164301,NA,0.5762500166893005,0,1.2614285605294364,6.074999928474426,5.182666714986166,3.01933340827624,1.275000050663948,6.765750058926642,1.2504999876022338,2.122857105164301,NA,0.5762500166893005,0,1.2614285605294364,6.074999928474426,5.182666714986166,20.296154340108234,23.294201374053955,18.632900214195253,21.075383377075195,16.877067883809406,NA,18.064273595809937,17.364247185843332,14.320987292698451,12.250995516777039,11.02294044494629,28.688666661580402,24.949999809265137,30.743999862670897,30.56850004196167,29.008095423380535,NA,29.454999685287476,31.861428941999165,30.669999803815568,24.03249955177307,18.009333165486655,22.980333264668783,18.107499957084656,25.363124918937682,24.342249989509583,23.57738104320708,NA,22.65812486410141,24.57357168197632,23.747499840600153,17.16874986886978,11.397333224614462,17.271999867757163,11.265000104904175,19.982249975204468,18.115999937057495,18.14666666303362,NA,15.861250042915344,17.285714421953475,16.82499987738473,10.305000185966492,4.785333283742269,12.90224690889438,8.119108929760753,7.7899171352412075,10.65583172773458,12.845780962043664,NA,12.06055605168715,13.670110649159124,12.936760229768497,8.613913050249964,2.6017098975706596,12.90224690889438,8.119108929760753,7.7899171352412075,10.65583172773458,12.845780962043664,NA,12.06055605168715,13.670110649159124,12.936760229768497,8.613913050249964,2.6017098975706596,0,0,311.5966854096483,524.7133199643398,794.4747201672569,NA,890.9591685807541,986.6499431248682,1167.7645863416274,1236.675890743627,1236.675890743627,0,0,1,1,1,NA,0.9934375047683716,1,0.9913928610937937,0.6819374859333038,0.03449999809265137,1,1,1,1,1,NA,1,1,1,1,1,0.9945000012715658,0.8107499957084656,1,1,1,NA,0.9934375047683716,1,0.9913928610937937,0.6819374859333038,0.17153332273165386,1,1,1,0.9999999999999999,1,NA,1,1,1,1,1,2019-05-27T12:00:00Z,2019-06-11T12:00:00Z,2019-06-15T12:00:00Z,2019-07-25T12:00:00Z,2019-08-14T12:00:00Z,NA,2019-09-04T12:00:00Z,2019-09-12T12:00:00Z,2019-09-19T12:00:00Z,2019-10-03T12:00:00Z,2019-10-11T12:00:00Z,2019-06-10T12:00:00Z,2019-06-14T12:00:00Z,2019-07-24T12:00:00Z,2019-08-13T12:00:00Z,2019-09-03T12:00:00Z,NA,2019-09-11T12:00:00Z,2019-09-18T12:00:00Z,2019-10-02T12:00:00Z,2019-10-10T12:00:00Z,2019-10-25T12:00:00Z,147,162,166,206,226,NA,247,255,262,276,284,14,3,39,19,20,NA,7,6,13,7,14,161,165,205,225,246,NA,254,261,275,283,298
38,ivesdale_il,39.9481,-88.44975,4,2019-06-01,26,2019,early4,1390.6338282081028,11,2019-05-18,2019-06-01,133,2019-10-12,2019-10-24,2019-11-07,Harvested at Maturity.,5.887333313624064,0,4.016595700953869,2.3524999817212424,3.6308333079020185,2.9800000190734863,0.7385714224406651,1.99000004359654,3.355555534362793,1.777500033378601,7.281333255767822,5.887333313624064,0,4.016595700953869,2.3524999817212424,3.6308333079020185,2.9800000190734863,0.7385714224406651,1.99000004359654,3.355555534362793,1.777500033378601,7.281333255767822,18.68757553100586,24.659493764241535,19.827763902380113,20.412667671839397,15.831232786178589,10.683053970336914,16.789980343409947,14.84061050415039,12.939338737063938,11.221030592918396,7.7845753351847335,26.209333419799805,26.466666539510094,29.311063807061377,28.890000263849895,26.78458325068156,23.290000915527344,29.921428407941548,29.69714273725237,25.674444516499836,17.146666765213013,11.239333359400431,20.808333349227905,20.015000025431316,23.92138292434368,22.762083490689594,21.503124912579853,19.235000610351563,23.55928557259696,23.552857058388845,19.17250000105964,10.659583402021477,6.59300000568231,15.407333278656006,13.563333511352539,18.531702041625977,16.634166717529297,16.22166657447815,15.18000030517578,17.19714273725237,17.40857137952532,12.670555485619438,4.172500038829942,1.9466666519641875,10.844286263868213,10.015000025431316,6.5975709974900045,9.17927633138582,11.012667712112936,9.2350006103515625,13.288306307835239,13.466827433805806,10.003247523077329,5.5545498248912395,0.38818389067947867,10.844286263868213,10.015000025431316,6.5975709974900045,9.17927633138582,11.012667712112936,9.2350006103515625,13.288306307835239,13.466827433805806,10.003247523077329,5.5545498248912395,0.38818389067947867,0,0,310.0858368820302,530.3884688352899,794.6924939260003,803.9274945363519,896.9456386911986,991.2134307278392,1171.271886143231,1237.926484041926,1237.926484041926,0,0,0.9760638277581397,1,0.9771874984105429,0.9235000610351564,1,1,0.7802777687708538,0.12679167389869692,0.006666665077209474,1,1,1,1,1,1,1,1,1,1,1,0.8948333374659221,0.9369999885559082,0.9760638277581397,1,0.9771874984105429,0.9235000610351564,1,1,0.7802777687708538,0.12679167389869692,0.014566666285196941,1,1,1,0.9999999999999999,0.9999999999999999,1,1,0.9999999999999999,0.9999999999999999,1,1,2019-05-18T12:00:00Z,2019-06-02T12:00:00Z,2019-06-05T12:00:00Z,2019-07-22T12:00:00Z,2019-08-15T12:00:00Z,2019-09-08T12:00:00Z,2019-09-09T12:00:00Z,2019-09-16T12:00:00Z,2019-09-23T12:00:00Z,2019-10-11T12:00:00Z,2019-10-23T12:00:00Z,2019-06-01T12:00:00Z,2019-06-04T12:00:00Z,2019-07-21T12:00:00Z,2019-08-14T12:00:00Z,2019-09-07T12:00:00Z,2019-09-08T12:00:00Z,2019-09-15T12:00:00Z,2019-09-22T12:00:00Z,2019-10-10T12:00:00Z,2019-10-22T12:00:00Z,2019-11-06T12:00:00Z,138,153,156,203,227,251,252,259,266,284,296,14,2,46,23,23,0,6,6,17,11,14,152,155,202,226,250,251,258,265,283,295,310
39,urbana_il,40.05325,-88.23485,4,2019-06-05,17,2019,early4,1470.8803568091348,11,2019-05-22,2019-06-05,137,2019-10-20,2019-11-01,2019-11-15,Harvested at Maturity.,2.882666622598966,0,3.471666667610407,1.159565218116926,2.4573912905610125,0,0.6685714210782733,1.683333290947808,2.6627272882244806,9.173333272337914,1.1039999961853026,2.882666622598966,0,3.471666667610407,1.159565218116926,2.4573912905610125,0,0.6685714210782733,1.683333290947808,2.6627272882244806,9.173333272337914,1.1039999961853026,21.496617444356282,22.63340950012207,19.946459352970123,19.59710121154785,16.484608401422914,17.927310943603516,16.364996092660085,14.708262867397732,12.514810128645463,7.479315221309662,9.146581808725992,27.522000122070313,30.059999465942383,28.95229160785675,28.818695565928582,26.583043554554816,31.440000534057617,29.672857557024276,27.709999720255535,22.40409075130116,14.743333498636881,6.1200000206629435,21.648000113169353,24.227499961853027,23.4182291328907,22.830000006634254,21.14934788579526,24.829999923706055,23.18500021525792,21.474999745686848,15.600454465909438,10.06000007192294,0.4673333259920279,15.774000104268392,18.395000457763672,17.884166657924652,16.84130444733993,15.715652217035709,18.219999313354492,16.697142873491558,15.239999771118164,8.796818180517716,5.376666645208995,-5.185333368678887,11.618555978256861,14.16286386499405,6.483049529494454,9.64242728087529,10.851678997825204,14.343412327957152,13.048588022620338,11.618268568791285,8.349396295176447,5.391019356718908,0.07958135486419626,11.618555978256861,14.16286386499405,6.483049529494454,9.64242728087529,10.851678997825204,14.343412327957152,13.048588022620338,11.618268568791285,8.349396295176447,5.391019356718908,0.07958135486419626,0,0,311.1863774157338,532.9622048758655,782.550821825845,796.8942341538021,888.2343503121444,992.798767431266,1176.485485925148,1241.1777182057751,1241.1777182057751,0,0,0.974010415871938,1,0.968717392631199,1,1,0.9541110992431641,0.4892954468727112,0.10866667230923971,0,1,1,1,1,1,1,1,1,1,1,1,0.9745333290100098,1,0.974010415871938,1,0.968717392631199,1,1,0.9541110992431641,0.4892954468727112,0.10866667230923971,0,1,1,1,0.9999999999999999,0.9999999999999999,1,1,1,0.9999999999999999,0.9999999999999999,1,2019-05-22T12:00:00Z,2019-06-06T12:00:00Z,2019-06-08T12:00:00Z,2019-07-26T12:00:00Z,2019-08-18T12:00:00Z,2019-09-10T12:00:00Z,2019-09-11T12:00:00Z,2019-09-18T12:00:00Z,2019-09-27T12:00:00Z,2019-10-19T12:00:00Z,2019-10-31T12:00:00Z,2019-06-05T12:00:00Z,2019-06-07T12:00:00Z,2019-07-25T12:00:00Z,2019-08-17T12:00:00Z,2019-09-09T12:00:00Z,2019-09-10T12:00:00Z,2019-09-17T12:00:00Z,2019-09-26T12:00:00Z,2019-10-18T12:00:00Z,2019-10-30T12:00:00Z,2019-11-14T12:00:00Z,142,157,159,207,230,253,254,261,270,292,304,14,1,47,22,22,0,6,8,21,11,14,156,158,206,229,252,253,260,269,291,303,318
40,manhattan_ks,38.1326,-96.62,4,2019-06-05,27,2019,early4,1239.1477953994176,11,2019-05-22,2019-06-05,118,2019-10-01,2019-10-07,2019-10-21,Harvested at Maturity.,9.228000036875407,2.4066665967305503,4.633333399182274,6.486363714391535,4.596999996900559,0,0.6685714040483747,3.5316667556762695,2.577999973297119,8.575000206629435,1.3906666914621988,9.228000036875407,2.4066665967305503,4.633333399182274,6.486363714391535,4.596999996900559,0,0.6685714040483747,3.5316667556762695,2.577999973297119,8.575000206629435,1.3906666914621988,20.790289688110352,20.37527084350586,20.381386802310036,19.073494477705523,16.57733075618744,20.00772476196289,17.765529905046737,14.93683377901713,13.765700308481852,10.33246103922526,13.900039354960123,26.59733339945475,28.406666437784832,30.086904843648274,30.786818157542836,29.4585000038147,27.979999542236328,31.501428604125977,30.06666660308838,29.016666666666666,24.779999891916912,20.224666531880697,20.806333398818968,22.8116668065389,24.129166659854707,24.7243182442405,24.044500041007996,21.65499973297119,25.104999814714706,24.648333152135212,23.32966667811076,19.65083336830139,12.254999950279792,15.015333398183186,17.21666717529297,18.17142847606114,18.661818330938164,18.630500078201294,15.329999923706056,18.70857102530343,19.22999970118205,17.64266668955485,14.521666844685873,4.285333368678888,10.759402241599163,12.8116668065389,7.201039316928058,10.302811152769667,12.604014063439845,11.654999732971191,14.422149200715337,14.080198284222682,12.849958072611491,10.555342062208057,3.6132235049743704,10.759402241599163,12.8116668065389,7.201039316928058,10.302811152769667,12.604014063439845,11.654999732971191,14.422149200715337,14.080198284222682,12.849958072611491,10.555342062208057,3.6132235049743704,0,0,302.44365131097845,529.1054966719112,781.185777940708,792.8407776736792,893.7958220786866,978.2770117840226,1171.026382873195,1234.3584352464434,1234.3584352464434,0,0,0.9770595266705467,1,0.9996250009536743,1,1,1,0.9971666653951009,0.7194166580835978,0.025866664250691732,1,1,1,1,1,1,1,1,1,1,1,0.9210666735967,1,0.9770595266705467,1,0.9996250009536743,1,1,1,0.9971666653951009,0.7194166580835978,0.27829999424517154,1,1,1,1,0.9999999999999999,1,1,1,1,1,1,2019-05-22T12:00:00Z,2019-06-06T12:00:00Z,2019-06-09T12:00:00Z,2019-07-21T12:00:00Z,2019-08-12T12:00:00Z,2019-09-01T12:00:00Z,2019-09-02T12:00:00Z,2019-09-09T12:00:00Z,2019-09-15T12:00:00Z,2019-09-30T12:00:00Z,2019-10-06T12:00:00Z,2019-06-05T12:00:00Z,2019-06-08T12:00:00Z,2019-07-20T12:00:00Z,2019-08-11T12:00:00Z,2019-08-31T12:00:00Z,2019-09-01T12:00:00Z,2019-09-08T12:00:00Z,2019-09-14T12:00:00Z,2019-09-29T12:00:00Z,2019-10-05T12:00:00Z,2019-10-20T12:00:00Z,142,157,160,202,224,244,245,252,258,273,279,14,2,41,21,19,0,6,5,14,5,14,156,159,201,223,243,244,251,257,272,278,293
41,ottawa_ks,38.5404,-95.2477,4,2019-06-03,21,2019,early4,1264.779023892162,11,2019-05-20,2019-06-03,118,2019-09-29,2019-10-03,2019-10-17,Harvested at Maturity.,15.816000477472942,8.055000305175781,5.530930258506952,10.65954545953057,10.755714280264717,0,0,3.4599999700273787,4.872857281139919,12.425000190734863,4.005333320299784,15.816000477472942,8.055000305175781,5.530930258506952,10.65954545953057,10.755714280264717,0,0,3.4599999700273787,4.872857281139919,12.425000190734863,4.005333320299784,19.0988561630249,20.264453887939453,19.956601453381914,19.33342042836276,15.497820286523728,17.542009353637695,18.922091801961262,13.810971941266741,14.378269706453596,11.11742639541626,12.625116189320883,25.38933340708415,30.885000228881836,29.72279069590014,30.17909084666859,29.244761875697545,24.770000457763672,30.58166726430257,29.782857622419083,29.47642857687814,29.18499994277954,19.29133332570394,19.83000005086263,24.96999979019165,24.202790681705917,24.76954540339383,24.2990475609189,20.200000286102295,24.40333366394043,24.775714465550013,23.581785781042917,24.52749991416931,13.118999975174665,14.270666694641113,19.054999351501465,18.682790667511696,19.359999960119076,19.353333246140252,15.630000114440918,18.22500006357829,19.768571308680944,17.687142985207693,19.869999885559082,6.946666624645392,9.84255379541119,14.599000571298598,7.2004570496804305,9.943945958006772,12.759678743382567,10.200000286102297,13.840552282446623,14.440996529855049,13.027550259478177,14.300427131599188,3.285931609879807,9.84255379541119,14.599000571298598,7.2004570496804305,9.943945958006772,12.759678743382567,10.200000286102297,13.840552282446623,14.440996529855049,13.027550259478177,14.300427131599188,3.285931609879807,0,0,309.6196531362584,528.3864642124074,796.3397178234413,806.5397181095436,889.5830318042233,990.6700075132086,1173.0557111459032,1230.2574196723,1230.2574196723,0,0,0.987534882301508,0.9974090922962535,1,1,1,1,0.9950714247567313,1,0.06666666666666667,1,1,1,1,1,1,1,1,1,1,1,0.8711333338419597,1,0.987534882301508,0.9974090922962535,1,1,1,1,0.9950714247567313,1,0.31656666596730554,1,1,1,1,0.9999999999999999,0.9999999999999998,1,0.9999999999999999,1,0.9999999999999999,1,2019-05-20T12:00:00Z,2019-06-04T12:00:00Z,2019-06-06T12:00:00Z,2019-07-19T12:00:00Z,2019-08-10T12:00:00Z,2019-08-31T12:00:00Z,2019-09-01T12:00:00Z,2019-09-07T12:00:00Z,2019-09-14T12:00:00Z,2019-09-28T12:00:00Z,2019-10-02T12:00:00Z,2019-06-03T12:00:00Z,2019-06-05T12:00:00Z,2019-07-18T12:00:00Z,2019-08-09T12:00:00Z,2019-08-30T12:00:00Z,2019-08-31T12:00:00Z,2019-09-06T12:00:00Z,2019-09-13T12:00:00Z,2019-09-27T12:00:00Z,2019-10-01T12:00:00Z,2019-10-16T12:00:00Z,140,155,157,200,222,243,244,250,257,271,275,14,1,42,21,20,0,5,6,13,3,14,154,156,199,221,242,243,249,256,270,274,289
42,riley_ks,39.310966,-96.837075,4,2019-06-04,28,2019,early4,1292.6264952355018,11,2019-05-21,2019-06-04,121,2019-10-03,2019-10-14,2019-10-28,Harvested at Maturity.,4.249999984105428,14.574999809265137,5.615217367916004,4.807619106201899,6.934285695354144,0,2.192857197352818,0.3649999996026357,6.665333278973897,4.3927273316816855,0.7006666739781697,4.249999984105428,14.574999809265137,5.615217367916004,4.807619106201899,6.934285695354144,0,2.192857197352818,0.3649999996026357,6.665333278973897,4.3927273316816855,0.7006666739781697,21.277655855814615,19.331567764282227,19.895754326944765,18.593277022952126,15.995244889032273,19.12232208251953,16.584412847246444,16.681992212931313,13.062393951416016,11.44491085139188,11.931991259256998,25.32466646830241,30.295000076293945,30.22739145030146,30.572381155831472,28.508095241728284,33.20000076293945,30.52999986921038,31.265000025431316,29.14333292643229,18.71545479514382,17.227333323160806,19.32066658337911,24.494999885559082,24.242391327153083,24.729523885817756,23.30690472466605,26.480000495910645,24.70500005994524,24.636666536331177,23.21899979909261,12.735000098293478,10.034333320707082,13.31666669845581,18.69499969482422,18.2573912040047,18.886666615804035,18.105714207603818,19.760000228881836,18.880000250680105,18.008333047231037,17.29466667175293,6.754545401443135,2.841333318253358,9.383594108466903,14.275515529537202,6.772473559308066,10.349631434828314,12.175711221827013,14.625099706947802,14.29538855914218,13.653420171515148,12.85858674939712,6.149939739201015,2.3639493083525696,9.383594108466903,14.275515529537202,6.772473559308066,10.349631434828314,12.175711221827013,14.625099706947802,14.29538855914218,13.653420171515148,12.85858674939712,6.149939739201015,2.3639493083525696,0,0,311.5337837281711,528.8760438595656,784.565979517933,799.1910792248808,899.258799138876,981.179320167967,1174.0581214089236,1241.707458540135,1241.707458540135,0,0,0.9730108655017355,0.9997380960555303,1,1,1,1,0.9779666678110759,0.32368182919242167,0,1,1,1,1,1,1,1,1,1,1,1,0.8321666574478149,1,0.9730108655017355,0.9997380960555303,1,1,1,1,0.9779666678110759,0.32368182919242167,0.13419999996821086,1,1,1,0.9999999999999999,0.9999999999999999,1,0.9999999999999999,1,1,0.9999999999999999,1,2019-05-21T12:00:00Z,2019-06-05T12:00:00Z,2019-06-07T12:00:00Z,2019-07-23T12:00:00Z,2019-08-13T12:00:00Z,2019-09-03T12:00:00Z,2019-09-04T12:00:00Z,2019-09-11T12:00:00Z,2019-09-17T12:00:00Z,2019-10-02T12:00:00Z,2019-10-13T12:00:00Z,2019-06-04T12:00:00Z,2019-06-06T12:00:00Z,2019-07-22T12:00:00Z,2019-08-12T12:00:00Z,2019-09-02T12:00:00Z,2019-09-03T12:00:00Z,2019-09-10T12:00:00Z,2019-09-16T12:00:00Z,2019-10-01T12:00:00Z,2019-10-12T12:00:00Z,2019-10-27T12:00:00Z,141,156,158,204,225,246,247,254,260,275,286,14,1,45,20,20,0,6,5,14,10,14,155,157,203,224,245,246,253,259,274,285,300
43,albany_mo,40.2384,-94.3433,4,2019-06-07,22,2019,early4,1273.1576547354312,11,2019-05-24,2019-06-07,134,2019-10-19,2019-11-01,2019-11-15,Harvested at Maturity.,11.787333377202351,0,4.3008695192959,5.3714286259242465,4.880434725595557,0,0.588571412222726,7.819999762943813,7.591666618982951,1.972307718717135,0.11199999650319417,11.787333377202351,0,4.3008695192959,5.3714286259242465,4.880434725595557,0,0.588571412222726,7.819999762943813,7.591666618982951,1.972307718717135,0.11199999650319417,20.696697425842284,22.812314987182617,20.321230276771214,17.81189146496001,16.292431541111156,19.05071449279785,15.091235773903984,11.595013856887817,11.755590637524922,7.953580929682805,9.184610827763874,26.9,26.833333333333332,29.978478265845258,29.1752382005964,27.322608781897504,32.119998931884766,30.041428429739817,28.584285463605607,20.666249930858612,12.169999957084656,7.285333275794983,21.004666646321613,20.885000069936115,24.306086913399074,23.930000100817,21.96347817130711,24.78499984741211,24.359999861036027,23.794285433632986,14.608958306411902,7.407692276801054,1.1340000102296472,15.10933329264323,14.9366668065389,18.63369556095289,18.684762001037598,16.60434756071671,17.450000762939453,18.67857129233224,19.00428540366037,8.551666681965193,2.6453845965174527,-5.017333255335688,10.888407894104322,10.885000069936117,6.668191836952691,10.310941137394972,11.420308065490207,13.853500191307068,13.809431943525587,13.281643548073088,7.57381013830003,5.311697931877123,0.3163375186971071,10.888407894104322,10.885000069936117,6.668191836952691,10.310941137394972,11.420308065490207,13.853500191307068,13.809431943525587,13.281643548073088,7.57381013830003,5.311697931877123,0.3163375186971071,0,0,306.73682449982374,523.2665883851181,785.9336738913928,799.7871740826998,896.453197687379,989.4247025238906,1171.1961458430908,1240.2482189574932,1240.2482189574932,0,0,0.9795326098151829,0.9980476197742281,0.9828695628954016,1,0.9992857183728899,0.985357141494751,0.4484791678686937,0.07280768706248357,0,1,1,1,1,1,1,1,1,1,1,1,0.942199993133545,0.9676666577657064,0.9795326098151829,0.9980476197742281,0.9828695628954016,1,0.9992857183728899,0.985357141494751,0.4484791678686937,0.07280768706248357,0,1,1,1,0.9999999999999999,0.9999999999999999,1,0.9999999999999999,0.9999999999999999,1,1,1,2019-05-24T12:00:00Z,2019-06-08T12:00:00Z,2019-06-11T12:00:00Z,2019-07-27T12:00:00Z,2019-08-17T12:00:00Z,2019-09-09T12:00:00Z,2019-09-10T12:00:00Z,2019-09-17T12:00:00Z,2019-09-24T12:00:00Z,2019-10-18T12:00:00Z,2019-10-31T12:00:00Z,2019-06-07T12:00:00Z,2019-06-10T12:00:00Z,2019-07-26T12:00:00Z,2019-08-16T12:00:00Z,2019-09-08T12:00:00Z,2019-09-09T12:00:00Z,2019-09-16T12:00:00Z,2019-09-23T12:00:00Z,2019-10-17T12:00:00Z,2019-10-30T12:00:00Z,2019-11-14T12:00:00Z,144,159,162,208,229,252,253,260,267,291,304,14,2,45,20,22,0,6,6,23,12,14,158,161,207,228,251,252,259,266,290,303,318
44,columbia_mo,38.8894,-92.2081,4,2019-06-03,23,2019,early4,1359.8914090393496,11,2019-05-20,2019-06-03,120,2019-10-01,2019-10-06,2019-10-20,Harvested at Maturity.,4.6466666758060455,18.16000008583069,3.3065909147262573,2.063181833787398,8.442857027053833,0,5.990000043596541,0,3.236428584371294,0.06600000262260437,3.210000091791153,4.6466666758060455,18.16000008583069,3.3065909147262573,2.063181833787398,8.442857027053833,0,5.990000043596541,0,3.236428584371294,0.06600000262260437,3.210000091791153,19.883367919921874,18.139328002929688,20.208625555038452,20.065915497866545,15.124941803160167,14.810457229614258,17.456631115504674,16.396178926740376,13.309622475079127,12.315619087219238,12.93933900197347,26.556000010172525,30.729999542236328,29.337045496160332,30.303181821649726,28.586190541585285,24.239999771118164,28.918571199689595,30.79428563799177,29.299999918256486,27.08000068664551,18.787999852498373,21.008666674296062,24.28749990463257,24.244545405561276,24.549090905623004,23.875952448163716,20.399999618530273,22.91857133592878,25.03714268548148,23.803214243480138,22.07000026702881,12.166999912261963,15.461333338419596,17.84500026702881,19.152045314962212,18.79499998959628,19.165714354742143,16.559999465942383,16.91857147216797,19.27999973297119,18.306428568703787,17.059999847412108,5.5459999720255535,11.012674097263814,13.597994222271442,7.10098142487033,10.03019259952537,12.4660231880989,10.399999618530272,12.774946115609577,14.26805314186556,13.066091198277473,12.120796467324496,3.0793542449006437,11.012674097263814,13.597994222271442,7.10098142487033,10.03019259952537,12.4660231880989,10.399999618530272,12.774946115609577,14.26805314186556,13.066091198277473,12.120796467324496,3.0793542449006437,0,0,312.44318269429453,533.1074198838527,794.8939068339298,805.2939064524601,894.7185292617271,994.594901254786,1177.5201780306706,1238.1241603672934,1238.1241603672934,0,0,0.9833977276628668,1,0.9937142871675038,1,1,1,0.9861071382250105,0.8330000114440919,0.04456666310628255,1,1,1,1,1,1,1,1,1,1,1,0.914900000890096,1,0.9833977276628668,1,0.9937142871675038,1,1,1,0.9861071382250105,0.8330000114440919,0.2690666619936625,1,1,1,0.9999999999999999,0.9999999999999999,1,1,0.9999999999999999,1,0.9999999999999999,1,2019-05-20T12:00:00Z,2019-06-04T12:00:00Z,2019-06-06T12:00:00Z,2019-07-20T12:00:00Z,2019-08-11T12:00:00Z,2019-09-01T12:00:00Z,2019-09-02T12:00:00Z,2019-09-09T12:00:00Z,2019-09-16T12:00:00Z,2019-09-30T12:00:00Z,2019-10-05T12:00:00Z,2019-06-03T12:00:00Z,2019-06-05T12:00:00Z,2019-07-19T12:00:00Z,2019-08-10T12:00:00Z,2019-08-31T12:00:00Z,2019-09-01T12:00:00Z,2019-09-08T12:00:00Z,2019-09-15T12:00:00Z,2019-09-29T12:00:00Z,2019-10-04T12:00:00Z,2019-10-19T12:00:00Z,140,155,157,201,223,244,245,252,259,273,278,14,1,43,21,20,0,6,6,13,4,14,154,156,200,222,243,244,251,258,272,277,292
45,portagevilleclay_mo,36.3987,-88.6051,4,2019-05-16,29,2019,early4,1417.252028093212,11,2019-05-02,2019-05-16,117,2019-09-10,2019-09-15,2019-09-29,Harvested at Maturity.,4.1546666622161865,9.3149995803833,4.238205147095216,5.951304300971653,1.654347792915676,0,0,10.30666677157084,0.4164285659790039,0,0.7273333231608073,4.1546666622161865,9.3149995803833,4.238205147095216,5.951304300971653,1.654347792915676,0,0,10.30666677157084,0.4164285659790039,0,0.7273333231608073,16.017362340291342,19.950533866882324,19.123658314729347,17.758604339931324,20.471896710603133,22.242992401123047,20.36279378618513,13.721240997314453,18.42555890764509,17.692953491210936,15.360654958089192,22.956666819254558,30.84000015258789,29.441794860057342,31.6026087221892,30.548261144886848,33.720001220703125,33.24857112339565,31.083333333333332,30.785000119890487,33.97200012207031,31.921333440144856,17.984333403905232,24.49500036239624,23.944487180465305,26.60086955194888,25.020217584527057,26.925000190734863,26.93428557259696,25.606666882832847,24.1385714667184,26.73799991607666,24.81466671625773,13.011999988555909,18.15000057220459,18.447179500873272,21.59913038170856,19.49217402416727,20.1299991607666,20.62000002179827,20.130000432332356,17.492142813546316,19.503999710083008,17.707999992370606,8.039559167185823,14.322524862962961,8.152941040211957,9.408093131113853,11.192094756009594,12.798689933612444,13.646748552651454,14.307292320567903,13.573313997706771,14.104835087521076,12.319795217092036,8.039559167185823,14.322524862962961,8.152941040211957,9.408093131113853,11.192094756009594,12.798689933612444,13.646748552651454,14.307292320567903,13.573313997706771,14.104835087521076,12.319795217092036,0,0,317.96470056826627,534.3508425838849,791.7690219721055,804.5677119057179,900.0949517742782,985.9387056976856,1175.9651016655805,1246.4892771031855,1246.4892771031855,0,0,0.9919871819324982,1,1,1,1,1,1,1,0.06666666666666667,1,1,1,1,1,1,1,1,1,1,1,0.754300004641215,1,0.9919871819324982,1,1,1,1,1,1,1,1,1,1,1,1,1,1,1,1,0.9999999999999999,1,1,2019-05-02T12:00:00Z,2019-05-17T12:00:00Z,2019-05-19T12:00:00Z,2019-06-27T12:00:00Z,2019-07-20T12:00:00Z,2019-08-12T12:00:00Z,2019-08-13T12:00:00Z,2019-08-20T12:00:00Z,2019-08-26T12:00:00Z,2019-09-09T12:00:00Z,2019-09-14T12:00:00Z,2019-05-16T12:00:00Z,2019-05-18T12:00:00Z,2019-06-26T12:00:00Z,2019-07-19T12:00:00Z,2019-08-11T12:00:00Z,2019-08-12T12:00:00Z,2019-08-19T12:00:00Z,2019-08-25T12:00:00Z,2019-09-08T12:00:00Z,2019-09-13T12:00:00Z,2019-09-28T12:00:00Z,122,137,139,178,201,224,225,232,238,252,257,14,1,38,22,22,0,6,5,13,4,14,136,138,177,200,223,224,231,237,251,256,271
46,portagevilleloam_mo,36.39516667,-89.6102,4,2019-05-14,30,2019,early4,1399.0444822646352,11,2019-04-30,2019-05-14,116,2019-09-07,2019-09-12,2019-09-26,Harvested at Maturity.,5.581333335240682,0,5.790000098782617,8.18458334604899,2.3947826261105747,0,0,11.621666749318441,1.6346153846153846,0,0.9840000152587891,5.581333335240682,0,5.790000098782617,8.18458334604899,2.3947826261105747,0,0,11.621666749318441,1.6346153846153846,0,0.9840000152587891,14.891769727071127,25.244730631510418,19.34231559650318,17.96376399199168,19.82300269085428,18.82221794128418,20.16394124712263,16.061878204345703,17.562867017892692,18.53252067565918,16.368849182128905,22.54133326212565,29.130000432332356,29.6645944440687,31.59458327293396,30.74956529036812,31.360000610351563,32.81142915998186,32.653333028157554,30.38153839111328,31.74000015258789,32.688666661580406,18.22233336766561,22.051666736602783,24.2078377491719,26.66687496503194,25.478260911029317,26.52500057220459,27.040000370570592,27.01166661580404,24.598846142108624,24.98400001525879,25.686666615804036,13.903333473205567,14.973333040873209,18.7510810542751,21.739166657129925,20.206956531690516,21.690000534057617,21.26857158115932,21.370000203450523,18.816153893103966,18.227999877929687,18.68466657002767,8.23690270224015,11.965784749281406,8.353666985516863,9.24392624717359,11.118737018839045,13.736647462465235,13.720813232346776,14.662822651752862,14.14266090085323,13.990477974994182,12.699005803758304,8.23690270224015,11.965784749281406,8.353666985516863,9.24392624717359,11.118737018839045,13.736647462465235,13.720813232346776,14.662822651752862,14.14266090085323,13.990477974994182,12.699005803758304,0,0,309.0856784641239,530.93990839629,786.670859829588,800.4075072920533,896.4531999184807,984.4301358289978,1168.2847275400898,1238.2371174150608,1238.2371174150608,0,0,0.9981081073348587,1,1,1,1,1,1,1,0.06666666666666667,1,1,1,1,1,1,1,1,1,1,1,0.7674000040690104,0.9708333492279053,0.9981081073348587,1,1,1,1,1,1,1,1,1,1,1,0.9999999999999999,0.9999999999999999,1,1,1,0.9999999999999999,0.9999999999999999,1,2019-04-30T12:00:00Z,2019-05-15T12:00:00Z,2019-05-18T12:00:00Z,2019-06-24T12:00:00Z,2019-07-18T12:00:00Z,2019-08-10T12:00:00Z,2019-08-11T12:00:00Z,2019-08-18T12:00:00Z,2019-08-24T12:00:00Z,2019-09-06T12:00:00Z,2019-09-11T12:00:00Z,2019-05-14T12:00:00Z,2019-05-17T12:00:00Z,2019-06-23T12:00:00Z,2019-07-17T12:00:00Z,2019-08-09T12:00:00Z,2019-08-10T12:00:00Z,2019-08-17T12:00:00Z,2019-08-23T12:00:00Z,2019-09-05T12:00:00Z,2019-09-10T12:00:00Z,2019-09-25T12:00:00Z,120,135,138,175,199,222,223,230,236,249,254,14,2,36,23,22,0,6,5,12,4,14,134,137,174,198,221,222,229,235,248,253,268
47,shelly_mn,47.4264,-96.8317,0,2019-05-20,31,2019,early0,809.9060163021627,11,2019-05-06,2019-05-20,128,2019-09-25,2019-10-02,2019-10-16,Harvested at Maturity.,1.4453333218892415,4.18888881471422,3.6995237859941663,1.3406250029802322,2.985238055388133,NA,6.569999933242798,2.0081818212162363,6.136111123694314,4.068571473870959,6.307333254814148,1.4453333218892415,4.18888881471422,3.6995237859941663,1.3406250029802322,2.985238055388133,NA,6.569999933242798,2.0081818212162363,6.136111123694314,4.068571473870959,6.307333254814148,24.28940575917562,19.966841485765244,20.57202995391119,20.715648293495178,18.032523927234468,NA,17.496687942081028,15.032438104802912,12.188120444615683,10.085777078356061,6.693111944198608,17.033999888102212,19.27444447411431,26.148095357985724,28.6837500333786,25.9742857615153,NA,24.791111204359268,21.210909236561168,22.269999980926514,15.438571793692454,9.246000011761984,9.737333257993063,12.916666706403097,19.56488102958316,22.37937507033348,19.906428609575546,NA,18.38388893339369,15.54590916633606,17.032500015364754,11.052857330867223,6.052333351969719,2.4406666278839113,6.558888938691881,12.981666701180595,16.07500010728836,13.838571457635789,NA,11.976666662428114,9.880909096110951,11.795000049802992,6.667142868041992,2.858666692177455,2.4115006280731164,3.6926856529568632,6.777287662614376,9.7300385499854265,9.198611224987166,NA,9.053952917275163,7.100751316007159,8.312531856448452,5.451788282981089,0.6911189389926194,2.4115006280731164,3.6926856529568632,6.777287662614376,9.7300385499854265,9.198611224987166,NA,9.053952917275163,7.100751316007159,8.312531856448452,5.451788282981089,0.6911189389926194,0,0,284.6460818298038,440.3266986295706,633.4975343543009,NA,714.9831106097774,793.0913750858562,942.7169485019284,980.879466482796,980.879466482796,0,0,0.8463690519332886,0.9835312515497208,0.8839761938367572,NA,0.8361666785346137,0.5545909166336059,0.6354166759385004,0.14642858505249023,0,1,1,1,1,1,NA,1,1,1,1,1,0.13056666175524395,0.29866666926278007,0.8463690519332886,0.9835312515497208,0.8839761938367572,NA,0.8361666785346137,0.5545909166336059,0.6354166759385004,0.14642858505249023,0.036033333142598475,1,1,1,1,1,NA,0.9999999999999999,0.9999999999999999,0.9999999999999999,1,1,2019-05-06T12:00:00Z,2019-05-21T12:00:00Z,2019-05-30T12:00:00Z,2019-07-11T12:00:00Z,2019-07-27T12:00:00Z,NA,2019-08-17T12:00:00Z,2019-08-26T12:00:00Z,2019-09-06T12:00:00Z,2019-09-24T12:00:00Z,2019-10-01T12:00:00Z,2019-05-20T12:00:00Z,2019-05-29T12:00:00Z,2019-07-10T12:00:00Z,2019-07-26T12:00:00Z,2019-08-16T12:00:00Z,NA,2019-08-25T12:00:00Z,2019-09-05T12:00:00Z,2019-09-23T12:00:00Z,2019-09-30T12:00:00Z,2019-10-15T12:00:00Z,126,141,150,192,208,NA,229,238,249,267,274,14,8,41,15,20,NA,8,10,17,6,14,140,149,191,207,228,NA,237,248,266,273,288
48,wanatah_in,41.4444,-86.9437,1,2019-06-03,20,2019,early1,854.0760862260028,11,2019-05-20,2019-06-03,103,2019-09-14,2019-09-18,2019-10-02,Harvested at Maturity.,5.7186667144298555,1.940000057220459,3.2205881791956283,2.113750010728836,2.092353014384999,0,3.3728571449007307,2.546249955892563,0.5580000162124634,6.367500007152557,9.837333178520202,5.7186667144298555,1.940000057220459,3.2205881791956283,2.113750010728836,2.092353014384999,0,3.3728571449007307,2.546249955892563,0.5580000162124634,6.367500007152557,9.837333178520202,19.1100923538208,22.464080174763996,19.939620943630445,19.24478805065155,20.741491990930893,14.00476360321045,14.922843660627093,16.282931566238403,16.601687049865724,12.322410345077515,12.668179162343343,23.32133344014486,27.206666310628254,27.09529427921071,29.465625047683716,28.357646942138672,27.860000610351563,27.65857151576451,25.875,25.850666936238607,26.357499599456787,26.237333424886067,17.5896666208903,20.52499993642171,21.72529423938078,24.011249989271164,22.33147040535422,24.155000686645508,22.602857181004115,20.489999890327454,20.114000129699708,20.84124982357025,20.7846666653951,11.857999801635742,13.84333356221517,16.355294199550855,18.556874930858612,16.305293868569766,20.450000762939453,17.547142846243723,15.104999780654907,14.377333323160807,15.325000047683716,15.331999905904134,7.71563572853764,10.524999936421711,8.742854644142016,11.186111393393226,11.670510583376641,14.15500068664551,12.603017004355364,10.61938945287615,10.225185458584628,10.919959880138935,9.982348161035379,7.71563572853764,10.524999936421711,8.742854644142016,11.186111393393226,11.670510583376641,14.15500068664551,12.603017004355364,10.61938945287615,10.225185458584628,10.919959880138935,9.982348161035379,0,0,297.2570579008286,476.2348401951203,674.6335201125231,688.7885207991686,777.0096398296562,861.9647554526653,1015.3425373314348,1059.0223768519909,1059.0223768519909,0,0,0.9135147066677318,0.988968750834465,0.9953235289629768,1,1,0.9477500081062318,0.8848333390553793,0.9959999918937683,0.06666666666666667,1,1,1,1,1,1,1,1,1,1,1,0.7304999923706055,0.9801666577657064,0.9135147066677318,0.988968750834465,0.9953235289629768,1,1,0.9477500081062318,0.8848333390553793,0.9959999918937683,0.9182333278656006,1,1,1,1,0.9999999999999999,0.9999999999999996,0.9999999999999999,1,1,1,1,2019-05-20T12:00:00Z,2019-06-04T12:00:00Z,2019-06-07T12:00:00Z,2019-07-11T12:00:00Z,2019-07-27T12:00:00Z,2019-08-13T12:00:00Z,2019-08-14T12:00:00Z,2019-08-21T12:00:00Z,2019-08-29T12:00:00Z,2019-09-13T12:00:00Z,2019-09-17T12:00:00Z,2019-06-03T12:00:00Z,2019-06-06T12:00:00Z,2019-07-10T12:00:00Z,2019-07-26T12:00:00Z,2019-08-12T12:00:00Z,2019-08-13T12:00:00Z,2019-08-20T12:00:00Z,2019-08-28T12:00:00Z,2019-09-12T12:00:00Z,2019-09-16T12:00:00Z,2019-10-01T12:00:00Z,140,155,158,192,208,225,226,233,241,256,260,14,2,33,15,16,0,6,7,14,3,14,154,157,191,207,224,225,232,240,255,259,274
49,saginaw_mi,43.4003,-83.8684,1,2019-06-08,32,2019,early1,823.6718854156771,11,2019-05-25,2019-06-08,117,2019-10-03,2019-10-10,2019-10-24,Harvested at Maturity.,5.141333349545797,11.800000190734863,2.5251428416797093,2.416874974966049,1.4100000381469726,0,2.0088889135254755,4.323999977111816,8.111111289925045,2.558571457862854,2.4619999845822655,5.141333349545797,11.800000190734863,2.5251428416797093,2.416874974966049,1.4100000381469726,0,2.0088889135254755,4.323999977111816,8.111111289925045,2.558571457862854,2.4619999845822655,20.107238642374675,16.531198104222614,21.120303780691962,19.746163368225098,17.558544445037843,21.36276626586914,16.492755995856392,12.593823051452636,12.157593356238472,10.629072938646589,9.634088389078777,22.726667086283367,21.39333375295003,27.763714381626674,28.392499923706055,27.07199983596802,25.06999969482422,25.055555555555557,22.7689998626709,23.997222158643936,17.097142492021835,14.927999941507975,16.51200024286906,16.451666831970215,21.643571499415806,22.12343743443489,21.071250009536744,17.40999984741211,18.693888849682278,17.746999883651732,18.436388889948528,12.327142698424204,9.52966665327549,10.297333399454752,11.509999910990397,15.523428617204939,15.854374945163727,15.07050018310547,9.75,12.332222143809,12.724999904632568,12.87555562125312,7.557142904826573,4.131333365043004,6.640786973027587,6.512966978008548,8.40486813007357,10.309649228138008,10.876197936951778,7.409999847412109,9.27804912495017,8.401288963909149,9.03478461803231,5.606380526897098,1.4249698375236368,6.640786973027587,6.512966978008548,8.40486813007357,10.309649228138008,10.876197936951778,7.409999847412109,9.27804912495017,8.401288963909149,9.03478461803231,5.606380526897098,1.4249698375236368,0,0,294.1703845525749,459.1247722027831,676.6487309418185,684.0587307892306,767.5611729137822,851.5740625528738,1014.2001856774554,1053.444849365735,1053.444849365735,0,0,0.9277571405683245,0.9709687530994415,0.9391000032424927,0.740999984741211,0.8497222185134888,0.744749984741211,0.8063333325915867,0.24199998378753665,0.0146666685740153,1,1,1,1,1,1,1,1,1,1,1,0.6512000242869059,0.6451666831970215,0.9277571405683245,0.9709687530994415,0.9391000032424927,0.740999984741211,0.8497222185134888,0.744749984741211,0.8063333325915867,0.24199998378753665,0.0946666685740153,1,1,1,0.9999999999999999,1,1,1,0.9999999999999999,1,0.9999999999999999,1,2019-05-25T12:00:00Z,2019-06-09T12:00:00Z,2019-06-15T12:00:00Z,2019-07-20T12:00:00Z,2019-08-05T12:00:00Z,2019-08-25T12:00:00Z,2019-08-26T12:00:00Z,2019-09-04T12:00:00Z,2019-09-14T12:00:00Z,2019-10-02T12:00:00Z,2019-10-09T12:00:00Z,2019-06-08T12:00:00Z,2019-06-14T12:00:00Z,2019-07-19T12:00:00Z,2019-08-04T12:00:00Z,2019-08-24T12:00:00Z,2019-08-25T12:00:00Z,2019-09-03T12:00:00Z,2019-09-13T12:00:00Z,2019-10-01T12:00:00Z,2019-10-08T12:00:00Z,2019-10-23T12:00:00Z,145,160,166,201,217,237,238,247,257,275,282,14,5,34,15,19,0,8,9,17,6,14,159,165,200,216,236,237,246,256,274,281,296
50,danvers_mn,45.2803,-95.7591,1,2019-05-26,33,2019,early1,1017.190022886939,11,2019-05-12,2019-05-26,124,2019-09-27,2019-10-04,2019-10-18,Harvested at Maturity.,6.296666582425435,2.7899998664855956,4.053414602832096,2.801666729980045,3.9938094786235268,0,1.5800000190734864,3.1910000085830688,5.733125030994415,3.3528570788247243,3.7686665932337444,6.296666582425435,2.7899998664855956,4.053414602832096,2.801666729980045,3.9938094786235268,0,1.5800000190734864,3.1910000085830688,5.733125030994415,3.3528570788247243,3.7686665932337444,18.569681644439697,23.11999931335449,19.46301713803919,20.521448347303604,18.723591849917458,18.98004722595215,16.688800239562987,14.400583934783935,13.258202701807022,9.18567180633545,8.143847688039143,18.514666716257732,24.796000289916993,26.768780592011243,29.126111030578613,26.700476328531902,27.219999313354492,23.120999908447267,22.225000190734864,25.382499933242798,16.887142726353236,11.866666531562805,12.765333382288615,17.232000160217286,20.76646340765604,23.29500002331204,20.804047652653285,21.174999713897705,17.65099992752075,17.02450008392334,19.386562436819077,11.87642855303628,7.45466661589841,7.016000048319499,9.668000030517579,14.764146223300841,17.463889016045464,14.90761897677467,15.130000114440918,12.180999946594238,11.823999977111816,13.390624940395355,6.865714379719326,3.0426667002340158,3.6850416156834367,7.294294094183445,7.163967760589896,9.806082685667855,10.054061627236784,11.174999713897703,8.327873154746294,7.855827623174786,9.980394679072871,6.005650068555134,1.4664714816515894,3.6850416156834367,7.294294094183445,7.163967760589896,9.806082685667855,10.054061627236784,11.174999713897703,8.327873154746294,7.855827623174786,9.980394679072871,6.005650068555134,1.4664714816515894,0,0,293.7226781841858,470.23216652620704,681.3674606981795,692.5424604120772,775.8211919595401,854.379468191288,1014.065783056454,1056.10533353634,1056.10533353634,0,0,0.9079268292682927,0.9904166671964857,0.9467857224600655,1,0.7599999904632568,0.702450008392334,0.8122187465429306,0.23421428884778706,0,1,1,1,1,1,1,1,1,1,1,1,0.3098333406448364,0.6797000122070312,0.9079268292682927,0.9904166671964857,0.9467857224600655,1,0.7599999904632568,0.702450008392334,0.8122187465429306,0.23421428884778706,0.10769999821980794,1,1,1,0.9999999999999999,1,1,0.9999999999999999,1,0.9999999999999999,0.9999999999999999,1,2019-05-12T12:00:00Z,2019-05-27T12:00:00Z,2019-06-01T12:00:00Z,2019-07-12T12:00:00Z,2019-07-30T12:00:00Z,2019-08-20T12:00:00Z,2019-08-21T12:00:00Z,2019-08-31T12:00:00Z,2019-09-10T12:00:00Z,2019-09-26T12:00:00Z,2019-10-03T12:00:00Z,2019-05-26T12:00:00Z,2019-05-31T12:00:00Z,2019-07-11T12:00:00Z,2019-07-29T12:00:00Z,2019-08-19T12:00:00Z,2019-08-20T12:00:00Z,2019-08-30T12:00:00Z,2019-09-09T12:00:00Z,2019-09-25T12:00:00Z,2019-10-02T12:00:00Z,2019-10-17T12:00:00Z,132,147,152,193,211,232,233,243,253,269,276,14,4,40,17,20,0,9,9,15,6,14,146,151,192,210,231,232,242,252,268,275,290
51,morris_mn,45.3552,-95.5436,1,2019-05-30,34,2019,early1,975.6163604698096,11,2019-05-16,2019-05-30,126,2019-10-03,2019-10-10,2019-10-24,Harvested at Maturity.,6.13066676457723,2.0999999046325684,3.9382500499486923,2.705789484475788,3.799047577948797,0,4.20727264881134,7.877272811802951,3.0611764052334958,5.455714157649449,4.51666675011317,6.13066676457723,2.0999999046325684,3.9382500499486923,2.705789484475788,3.799047577948797,0,4.20727264881134,7.877272811802951,3.0611764052334958,5.455714157649449,4.51666675011317,18.475220187505087,24.091450691223145,19.25433678627014,20.410269285503187,18.441988808768137,20.876712799072266,14.55669082294811,13.324134306474166,12.59127773958094,8.494091204234532,7.941605965296428,18.474666754404705,26.982500076293945,26.758749771118165,28.373158003154554,26.306190490722656,25.079999923706055,22.32000021501021,21.53727288679643,23.792941317838782,14.4371429170881,10.646666582425436,12.900666733582815,19.040000081062317,20.92599985599518,22.478684274773848,20.469047682625906,17.980000019073486,17.530909191478383,16.213636419989847,17.70941174731535,9.987857205527169,6.181666636342803,7.326666712760925,11.097500085830688,15.093249940872193,16.584210546393145,14.631904874529157,10.880000114440918,12.741818167946555,10.889999953183262,11.62588217679192,5.538571493966239,1.716666690260172,3.782686266758641,9.036011054430903,7.284258537448678,9.438880422338698,9.92516867096924,7.980000019073487,8.074424867388878,7.4038704917257485,9.279371650064341,5.548168256467581,0.5703844840895136,3.782686266758641,9.036011054430903,7.284258537448678,9.438880422338698,9.92516867096924,7.980000019073487,8.074424867388878,7.4038704917257485,9.279371650064341,5.548168256467581,0.5703844840895136,0,0,291.3703414979471,470.7090695223824,679.1376116127366,687.1176116318101,775.9362851730878,857.378860582071,1015.1281786331648,1053.965356428438,1053.965356428438,0,0,0.911762501001358,0.972921055241635,0.9290476231347947,0.7980000019073487,0.7507727362892845,0.6213636419989846,0.6660294140086455,0.12928571701049804,0.0400333309173584,1,1,1,1,1,1,1,1,1,1,1,0.3302666727701823,0.8402499914169312,0.911762501001358,0.972921055241635,0.9290476231347947,0.7980000019073487,0.7507727362892845,0.6213636419989846,0.6660294140086455,0.12928571701049804,0.05223332881927491,1,1,1,1,0.9999999999999999,1,1,0.9999999999999999,1,1,1,2019-05-16T12:00:00Z,2019-05-31T12:00:00Z,2019-06-04T12:00:00Z,2019-07-14T12:00:00Z,2019-08-02T12:00:00Z,2019-08-23T12:00:00Z,2019-08-24T12:00:00Z,2019-09-04T12:00:00Z,2019-09-15T12:00:00Z,2019-10-02T12:00:00Z,2019-10-09T12:00:00Z,2019-05-30T12:00:00Z,2019-06-03T12:00:00Z,2019-07-13T12:00:00Z,2019-08-01T12:00:00Z,2019-08-22T12:00:00Z,2019-08-23T12:00:00Z,2019-09-03T12:00:00Z,2019-09-14T12:00:00Z,2019-10-01T12:00:00Z,2019-10-08T12:00:00Z,2019-10-23T12:00:00Z,136,151,155,195,214,235,236,247,258,275,282,14,3,39,18,20,0,10,10,16,6,14,150,154,194,213,234,235,246,257,274,281,296
52,pontiac_il,40.82216667,-88.62016667,2,2019-06-07,35,2019,early2,998.8173444941768,11,2019-05-24,2019-06-07,105,2019-09-20,2019-09-24,2019-10-08,Harvested at Maturity.,4.4800000031789144,0,4.791470590759726,0.42764705244232626,2.0333333810170493,0,4.566249907016754,2.9333333439297147,2.6984615325927734,7.7774999141693115,9.31733323733012,4.4800000031789144,0,4.791470590759726,0.42764705244232626,2.0333333810170493,0,4.566249907016754,2.9333333439297147,2.6984615325927734,7.7774999141693115,9.31733323733012,20.891481145222983,21.614973704020183,20.3139962869532,20.074135443743536,18.64269797007243,18.240751266479492,15.622207045555115,16.517418013678657,14.782993390009953,10.810338973999023,11.575855445861816,26.755333582560223,27.13666661580404,28.4458823484533,29.73117671293371,28.59388870663113,30.450000762939453,26.541249752044678,25.162222332424587,27.433846400334286,27.942500114440918,24.143999989827474,20.962000115712485,21.7599999109904,22.751176553614,24.236470699310303,22.516111029518974,24.75,21.0681249499321,19.438888920678032,21.550384741563064,22.615000247955322,18.624999952316283,15.168666648864747,16.383333206176758,17.0564707587747,18.741764685686896,16.43833335240682,19.049999237060547,15.595000147819519,13.715555508931478,15.666923082791842,17.287500381469727,13.105999914805095,10.962000115712483,11.759999910990397,8.4600430168707,10.89708355837351,11.792741458877034,14.709285981035231,11.22958310239464,9.60646616022587,11.634917622832152,12.615000247955322,8.087696860797406,10.962000115712483,11.759999910990397,8.4600430168707,10.89708355837351,11.792741458877034,14.709285981035231,11.22958310239464,9.60646616022587,11.634917622832152,12.615000247955322,8.087696860797406,0,0,287.64146257360375,472.8918830659534,685.1612293257401,699.8705153067754,789.7071801259325,876.1653755679653,1027.419304664783,1077.8793056566046,1077.8793056566046,0,0,0.9546764710370232,1,0.9983888864517212,1,0.9614999949932098,0.9261111206478543,0.9533461644099309,1,0.06586666742960613,1,1,1,1,1,1,1,1,1,1,1,0.974366668065389,1,0.9546764710370232,1,0.9983888864517212,1,0.9614999949932098,0.9261111206478543,0.9533461644099309,1,0.7751333379745483,1,1,1,1,1,1,0.9999999999999999,1,1,0.9999999999999999,1,2019-05-24T12:00:00Z,2019-06-08T12:00:00Z,2019-06-11T12:00:00Z,2019-07-15T12:00:00Z,2019-08-01T12:00:00Z,2019-08-19T12:00:00Z,2019-08-20T12:00:00Z,2019-08-28T12:00:00Z,2019-09-06T12:00:00Z,2019-09-19T12:00:00Z,2019-09-23T12:00:00Z,2019-06-07T12:00:00Z,2019-06-10T12:00:00Z,2019-07-14T12:00:00Z,2019-07-31T12:00:00Z,2019-08-18T12:00:00Z,2019-08-19T12:00:00Z,2019-08-27T12:00:00Z,2019-09-05T12:00:00Z,2019-09-18T12:00:00Z,2019-09-22T12:00:00Z,2019-10-07T12:00:00Z,144,159,162,196,213,231,232,240,249,262,266,14,2,33,16,17,0,7,8,12,3,14,158,161,195,212,230,231,239,248,261,265,280
53,urbana_il,40.05325,-88.23485,2,2019-05-31,17,2019,early2,926.5712727183112,11,2019-05-17,2019-05-31,104,2019-09-12,2019-09-16,2019-09-30,Harvested at Maturity.,5.366666598121325,0,4.220588240553351,1.361176462734447,1.096315782321127,0,3.081666628519694,3.3257142390523637,1.3726666927337645,0.29499998688697815,3.4853333473205566,5.366666598121325,0,4.220588240553351,1.361176462734447,1.096315782321127,0,3.081666628519694,3.3257142390523637,1.3726666927337645,0.29499998688697815,3.4853333473205566,19.237343788146973,24.32040532430013,20.05440672706155,20.203764466678393,20.729347630550986,14.385289192199709,16.375664710998535,16.34596415928432,16.842928822835287,17.138123512268066,14.050994682312012,25.973333422342936,26.423333485921223,28.247941185446347,30.647058599135455,28.9863156770405,28.469999313354492,28.751667022705078,26.761428833007813,26.309333292643228,30.08750057220459,28.249333063761394,20.588666756947834,20.09166685740153,22.76558828353882,24.984117479885324,22.64210525311922,24.519999504089355,23.535000165303547,21.56428595951625,20.654333305358886,23.62000036239624,21.832333119710288,15.204000091552734,13.760000228881836,17.28323538163129,19.321176360635196,16.297894829197933,20.56999969482422,18.31833330790202,16.367143086024694,14.999333318074545,17.15250015258789,15.41533317565918,10.621573733170827,10.091666857401531,8.66492981900861,10.908146227758206,11.347893917276949,14.375323674802331,13.506011675096433,11.652068280359677,10.744546352314552,13.381279025280477,11.03569896824201,10.621573733170827,10.091666857401531,8.66492981900861,10.908146227758206,11.347893917276949,14.375323674802331,13.506011675096433,11.652068280359677,10.744546352314552,13.381279025280477,11.03569896824201,0,0,294.6076138462928,480.04609971818235,695.6560841464445,710.0314078212468,791.0674778718254,872.6319558343431,1033.8001511190614,1087.3252672201834,1087.3252672201834,0,0,0.963308822407442,1,1,1,1,0.9779285839625768,0.9623333295186361,1,0.06666666666666667,1,1,1,1,1,1,1,1,1,1,1,0.891366662979126,0.9233333269755046,0.963308822407442,1,1,1,1,0.9779285839625768,0.9623333295186361,1,0.971933323542277,1,1,1,1,1,1,1,0.9999999999999999,1,0.9999999999999998,1,2019-05-17T12:00:00Z,2019-06-01T12:00:00Z,2019-06-04T12:00:00Z,2019-07-08T12:00:00Z,2019-07-25T12:00:00Z,2019-08-13T12:00:00Z,2019-08-14T12:00:00Z,2019-08-20T12:00:00Z,2019-08-27T12:00:00Z,2019-09-11T12:00:00Z,2019-09-15T12:00:00Z,2019-05-31T12:00:00Z,2019-06-03T12:00:00Z,2019-07-07T12:00:00Z,2019-07-24T12:00:00Z,2019-08-12T12:00:00Z,2019-08-13T12:00:00Z,2019-08-19T12:00:00Z,2019-08-26T12:00:00Z,2019-09-10T12:00:00Z,2019-09-14T12:00:00Z,2019-09-29T12:00:00Z,137,152,155,189,206,225,226,232,239,254,258,14,2,33,16,18,0,5,6,14,3,14,151,154,188,205,224,225,231,238,253,257,272
54,wanatah_in,41.4444,-86.9437,2,2019-06-03,20,2019,early2,1012.2016875326744,11,2019-05-20,2019-06-03,111,2019-09-22,2019-09-26,2019-10-10,Harvested at Maturity.,5.7186667144298555,1.940000057220459,2.9849999515633834,2.76941180229187,2.1115789852644267,1.8700000047683716,2.546249955892563,0.4888888994852702,2.102857155459268,1.2500000298023224,10.024666500091552,5.7186667144298555,1.940000057220459,2.9849999515633834,2.76941180229187,2.1115789852644267,1.8700000047683716,2.546249955892563,0.4888888994852702,2.102857155459268,1.2500000298023224,10.024666500091552,19.1100923538208,22.464080174763996,20.077710327349212,18.587417602539063,19.178237864845677,13.608142852783203,16.282931566238403,17.011502265930176,15.019046238490514,11.932713150978088,11.158242479960125,23.32133344014486,27.206666310628254,27.404473806682386,28.798823637120865,28.343157818442897,26.770000457763672,25.875,24.662222544352215,27.502857208251953,26.255000114440918,22.717333348592124,17.5896666208903,20.52499993642171,21.961842185572575,23.643529443179858,22.385263066542777,23.039999961853027,20.489999890327454,19.086111227671307,21.441785744258336,21.33625018596649,17.54533330599467,11.857999801635742,13.84333356221517,16.519210564462764,18.488235249238855,16.427368314642656,19.309999465942383,15.104999780654907,13.509999910990397,15.380714280264717,16.417500257492065,12.373333263397218,7.71563572853764,10.524999936421711,7.819275785005963,10.248087787748581,11.610817526222407,13.039999961853026,10.61938945287615,9.385483187511232,11.39577605663538,11.490251343846321,6.973528725221952,7.71563572853764,10.524999936421711,7.819275785005963,10.248087787748581,11.610817526222407,13.039999961853026,10.61938945287615,9.385483187511232,11.39577605663538,11.490251343846321,6.973528725221952,0,0,297.1324798302265,471.3499722219523,691.9555052201781,704.9955051820311,789.9506208050402,874.4199694926414,1033.9608342855367,1079.921839660922,1079.921839660922,0,0,0.922618421755339,0.9849411768071792,1,1,0.9477500081062318,0.8683888965182834,0.9600714274815151,0.9485000014305115,0.06516666730244955,1,1,1,1,1,1,1,1,1,1,1,0.7304999923706055,0.9801666577657064,0.922618421755339,0.9849411768071792,1,1,0.9477500081062318,0.8683888965182834,0.9600714274815151,0.9485000014305115,0.6767333300908407,1,1,1,1,1,1,1,0.9999999999999999,0.9999999999999999,1,1,2019-05-20T12:00:00Z,2019-06-04T12:00:00Z,2019-06-07T12:00:00Z,2019-07-15T12:00:00Z,2019-08-01T12:00:00Z,2019-08-20T12:00:00Z,2019-08-21T12:00:00Z,2019-08-29T12:00:00Z,2019-09-07T12:00:00Z,2019-09-21T12:00:00Z,2019-09-25T12:00:00Z,2019-06-03T12:00:00Z,2019-06-06T12:00:00Z,2019-07-14T12:00:00Z,2019-07-31T12:00:00Z,2019-08-19T12:00:00Z,2019-08-20T12:00:00Z,2019-08-28T12:00:00Z,2019-09-06T12:00:00Z,2019-09-20T12:00:00Z,2019-09-24T12:00:00Z,2019-10-09T12:00:00Z,140,155,158,196,213,232,233,241,250,264,268,14,2,37,16,18,0,7,8,13,3,14,154,157,195,212,231,232,240,249,263,267,282
55,britton_mi,41.9256,-83.8225,2,2019-06-09,36,2019,early2,903.409471363409,11,2019-05-26,2019-06-09,112,2019-09-29,2019-10-04,2019-10-18,Harvested at Maturity.,6.952666664123535,4.203999996185303,3.1037142498152597,3.4711111386617026,4.0289473659113835,16.899999618530273,1.676250010728836,4.249999947018093,3.0626667141914368,9.080000114440917,1.3726666490236918,6.952666664123535,4.203999996185303,3.1037142498152597,3.4711111386617026,4.0289473659113835,16.899999618530273,1.676250010728836,4.249999947018093,3.0626667141914368,9.080000114440917,1.3726666490236918,19.176688702901206,19.184809303283693,20.70630102157593,19.161169422997368,17.569525116368343,11.31494426727295,15.520524859428406,15.119092411465115,14.526392873128255,9.777988052368164,10.962527465820314,24.517333221435546,22.860000228881837,29.15542858668736,29.493333286709255,28.047894628424395,22.899999618530273,25.323749780654907,25.314444647894966,26.731999969482423,24.986000061035156,17.97733345031738,18.54533330599467,16.725000143051147,22.92042852129255,23.066111087799072,22.008684083035117,18.399999618530273,19.63624995946884,19.693888982137043,20.33433332443237,19.40600004196167,12.020666698614756,12.573333390553792,10.59000005722046,16.68542845589774,16.63888888888889,15.969473537645841,13.899999618530272,13.948750138282776,14.073333316379124,13.936666679382324,13.826000022888184,6.06399994691213,8.61978724580884,6.81888379818797,8.2791623681387,10.346003956975837,11.663571732379763,8.399999618530273,9.827513806392254,9.888310466892852,10.646197261511483,9.644137743924857,2.8191371938811742,8.61978724580884,6.81888379818797,8.2791623681387,10.346003956975837,11.663571732379763,8.399999618530273,9.827513806392254,9.888310466892852,10.646197261511483,9.644137743924857,2.8191371938811742,0,0,289.7706828848545,475.9987541104196,697.6066170256349,706.0066166441652,784.6267270953032,873.6215212973387,1033.3144802200109,1081.5351689396352,1081.5351689396352,0,0,0.9549571418762207,0.9987499978807237,0.970263157392803,0.8399999618530274,0.9235625028610229,0.8736111217074924,0.9237333297729492,0.8504000091552735,0.04933333396911621,1,1,1,1,1,1,1,1,1,1,1,0.8485666608810425,0.6725000143051147,0.9549571418762207,0.9987499978807237,0.970263157392803,0.8399999618530274,0.9235625028610229,0.8736111217074924,0.9237333297729492,0.8504000091552735,0.26230000535647074,1,1,1,1,1,0.9999999999999998,1,1,1,0.9999999999999999,1,2019-05-26T12:00:00Z,2019-06-10T12:00:00Z,2019-06-15T12:00:00Z,2019-07-20T12:00:00Z,2019-08-07T12:00:00Z,2019-08-26T12:00:00Z,2019-08-27T12:00:00Z,2019-09-04T12:00:00Z,2019-09-13T12:00:00Z,2019-09-28T12:00:00Z,2019-10-03T12:00:00Z,2019-06-09T12:00:00Z,2019-06-14T12:00:00Z,2019-07-19T12:00:00Z,2019-08-06T12:00:00Z,2019-08-25T12:00:00Z,2019-08-26T12:00:00Z,2019-09-03T12:00:00Z,2019-09-12T12:00:00Z,2019-09-27T12:00:00Z,2019-10-02T12:00:00Z,2019-10-17T12:00:00Z,146,161,166,201,219,238,239,247,256,271,276,14,4,34,17,18,0,7,8,14,4,14,160,165,200,218,237,238,246,255,270,275,290
56,wooster_oh,40.7565,-81.9004,2,2019-05-22,37,2019,early2,974.285557929452,11,2019-05-08,2019-05-22,115,2019-09-14,2019-09-19,2019-10-03,Harvested at Maturity.,3.525999967257182,3.2833333810170493,5.373414609490371,10.548235248116887,1.8528571242377871,27.290000915527344,1.461666742960612,3.4675000309944153,1.3668749928474426,1.0300000190734864,3.087999983628591,3.525999967257182,3.2833333810170493,5.373414609490371,10.548235248116887,1.8528571242377871,27.290000915527344,1.461666742960612,3.4675000309944153,1.3668749928474426,1.0300000190734864,3.087999983628591,19.22053731282552,20.733371098836262,19.563790553953588,18.745593351476334,20.780844143458776,10.13073444366455,18.329092979431152,14.934154510498047,17.780605018138885,15.096861267089844,14.347464561462402,20.923999722798666,27.456666310628254,26.099024377218107,30.03352939381319,27.96428562345959,24.920000076293945,28.928333282470703,24.946250200271606,26.20437479019165,27.12200012207031,27.58466682434082,14.914333168665568,20.524999936421715,20.61097554462712,24.623235365923712,21.9240475609189,21.49499988555908,23.31416670481364,20.01437509059906,19.970937371253967,21.121000003814697,20.663666756947837,8.904666614532472,13.59333356221517,15.122926712036133,19.212941338034238,15.88380949837821,18.06999969482422,17.700000127156574,15.082499980926514,13.737499952316284,15.119999885559082,13.74266668955485,5.474293964354396,10.524999936421713,7.242076766811655,10.556629687056107,10.49034346303753,11.265702510157446,13.199020503303194,10.263455600024761,10.21888106474802,11.082131134513617,10.024812978273234,5.474293964354396,10.524999936421713,7.242076766811655,10.556629687056107,10.49034346303753,11.265702510157446,13.199020503303194,10.263455600024761,10.21888106474802,11.082131134513617,10.024812978273234,0,0,296.92514743927785,476.38785211923175,696.6850648430201,707.9507673531775,787.1448903729967,869.2525351731948,1032.7546322091632,1088.1652878817313,1088.1652878817313,0,0,0.8963902438559184,1,0.9920238063448952,1,1,0.8844375014305115,0.9156562447547912,0.9700000095367431,0.06070000012715659,1,1,1,1,1,1,1,1,1,1,1,0.4833999888102214,0.937666670481364,0.8963902438559184,1,0.9920238063448952,1,1,0.8844375014305115,0.9156562447547912,0.9700000095367431,0.9214000066121419,1,1,1,1,0.9999999999999999,0.9999999999999998,0.9999999999999999,1,0.9999999999999999,0.9999999999999999,1,2019-05-08T12:00:00Z,2019-05-23T12:00:00Z,2019-05-26T12:00:00Z,2019-07-06T12:00:00Z,2019-07-23T12:00:00Z,2019-08-13T12:00:00Z,2019-08-14T12:00:00Z,2019-08-20T12:00:00Z,2019-08-28T12:00:00Z,2019-09-13T12:00:00Z,2019-09-18T12:00:00Z,2019-05-22T12:00:00Z,2019-05-25T12:00:00Z,2019-07-05T12:00:00Z,2019-07-22T12:00:00Z,2019-08-12T12:00:00Z,2019-08-13T12:00:00Z,2019-08-19T12:00:00Z,2019-08-27T12:00:00Z,2019-09-12T12:00:00Z,2019-09-17T12:00:00Z,2019-10-02T12:00:00Z,128,143,146,187,204,225,226,232,240,256,261,14,2,40,16,20,0,5,7,15,4,14,142,145,186,203,224,225,231,239,255,260,275
57,urbana_il,40.05325,-88.23485,3,2019-05-31,17,2019,early3,1275.960148077547,11,2019-05-17,2019-05-31,115,2019-09-23,2019-09-29,2019-10-13,Harvested at Maturity.,5.366666598121325,0,3.6850000068545343,1.3199999809265137,2.232499971985817,0,2.9025000408291817,0.9066666762034098,0.38999999562899273,3.5383332570393877,3.500000027815501,5.366666598121325,0,3.6850000068545343,1.3199999809265137,2.232499971985817,0,2.9025000408291817,0.9066666762034098,0.38999999562899273,3.5383332570393877,3.500000027815501,19.237343788146973,24.32040532430013,20.43117423057556,20.18435869216919,17.695192289352416,18.705482482910156,16.99195432662964,16.829996850755478,16.32149052619934,13.682268142700195,12.428561782836914,25.973333422342936,26.423333485921223,28.624499988555907,29.6729998588562,28.890499973297118,26.049999237060547,25.89875030517578,26.02111095852322,29.92833360036214,26.424999554951984,24.314666493733725,20.588666756947834,20.09166685740153,23.022625029087067,23.936999893188478,23.228750038146973,20.489999771118164,20.39937525987625,20.30222209294637,23.362500071525574,19.994999647140503,17.775666586558025,15.204000091552734,13.760000228881836,17.420750069618226,18.20099992752075,17.567000102996825,14.93000030517578,14.900000214576721,14.58333322736952,16.796666542689007,13.56499973932902,11.236666679382324,10.621573733170827,10.091666857401531,7.495557722513941,9.608561710412937,12.037546778409205,10.489999771118166,10.544606290447712,10.445823348659278,13.208251340063413,10.409560609127086,7.2940078042453536,10.621573733170827,10.091666857401531,7.495557722513941,9.608561710412937,12.037546778409205,10.489999771118166,10.544606290447712,10.445823348659278,13.208251340063413,10.409560609127086,7.2940078042453536,0,0,299.8223089005577,491.9935431088163,732.7444786770003,743.2344784481185,827.5913287717001,921.6037389096336,1080.1027549903947,1142.5601186451572,1142.5601186451572,0,0,0.9688124990463257,1,1,1,0.9676875114440918,0.9487777709960937,1,0.9298333088556926,0.06666666666666667,1,1,1,1,1,1,1,1,1,1,1,0.891366662979126,0.9233333269755046,0.9688124990463257,1,1,1,0.9676875114440918,0.9487777709960937,1,0.9298333088556926,0.6478666591644288,1,1,1,1,0.9999999999999999,1,1,1,0.9999999999999999,1,1,2019-05-17T12:00:00Z,2019-06-01T12:00:00Z,2019-06-04T12:00:00Z,2019-07-14T12:00:00Z,2019-08-03T12:00:00Z,2019-08-23T12:00:00Z,2019-08-24T12:00:00Z,2019-09-01T12:00:00Z,2019-09-10T12:00:00Z,2019-09-22T12:00:00Z,2019-09-28T12:00:00Z,2019-05-31T12:00:00Z,2019-06-03T12:00:00Z,2019-07-13T12:00:00Z,2019-08-02T12:00:00Z,2019-08-22T12:00:00Z,2019-08-23T12:00:00Z,2019-08-31T12:00:00Z,2019-09-09T12:00:00Z,2019-09-21T12:00:00Z,2019-09-27T12:00:00Z,2019-10-12T12:00:00Z,137,152,155,195,215,235,236,244,253,265,271,14,2,39,19,19,0,7,8,11,5,14,151,154,194,214,234,235,243,252,264,270,285
58,romney_in,40.2364,-86.8889,3,2019-06-08,38,2019,early3,1097.122498126671,11,2019-05-25,2019-06-08,116,2019-10-02,2019-10-08,2019-10-22,Harvested at Maturity.,5.709999990463257,1.4399999976158142,3.1927026864644645,1.9971428201312111,4.673809539704096,0,2.576666580306159,1.1716667016347249,1.8513333638509113,0.2116666634877523,1.872666629155477,5.709999990463257,1.4399999976158142,3.1927026864644645,1.9971428201312111,4.673809539704096,0,2.576666580306159,1.1716667016347249,1.8513333638509113,0.2116666634877523,1.872666629155477,20.004308319091795,19.616836071014404,20.549878842121846,21.32110632033575,16.709897177559988,14.253851890563965,16.81299220191108,16.045403162638348,14.294160079956054,12.271987994511923,12.209272321065267,27.011333465576172,24.40999937057495,29.126756925840635,28.894285656156995,27.549999872843426,23.530000686645508,25.218889236450195,29.723333676656086,27.700000127156574,24.891666730244953,18.843333371480306,21.224666817982992,19.31499969959259,23.53864873422159,22.547380924224854,21.893809386662074,19.300000190734863,19.618889066908096,23.457500219345093,21.26966667175293,19.16333345572154,11.553333360950152,15.438000170389811,14.22000002861023,17.95054054260254,16.20047619229271,16.237618900480726,15.06999969482422,14.018888897365994,17.1916667620341,14.839333216349283,13.43500018119812,4.263333350419998,11.224666817982992,9.31499969959259,7.828876701551088,9.515160330742214,11.460962749186159,9.300000190734862,9.88693482308454,13.171876234215498,11.456610968915223,10.108196777169903,2.9392415728760266,11.224666817982992,9.31499969959259,7.828876701551088,9.515160330742214,11.460962749186159,9.300000190734862,9.88693482308454,13.171876234215498,11.456610968915223,10.108196777169903,2.9392415728760266,0,0,289.6684379573902,489.4868049029768,730.1670226358859,739.4670228266208,828.4494362343817,907.4806936396748,1079.329858173403,1139.9790388364224,1139.9790388364224,0,0,0.9603243260770231,0.992785712650844,0.9841428529648554,0.9300000190734864,0.9027222262488471,1,0.9517666657765707,0.7228333353996277,0.037500003178914394,1,1,1,1,1,1,1,1,1,1,1,0.9699333413441976,0.8986249804496765,0.9603243260770231,0.992785712650844,0.9841428529648554,0.9300000190734864,0.9027222262488471,1,0.9517666657765707,0.7228333353996277,0.22146667043368023,1,1,1,0.9999999999999999,0.9999999999999999,1,1,1,1,1,1,2019-05-25T12:00:00Z,2019-06-09T12:00:00Z,2019-06-13T12:00:00Z,2019-07-20T12:00:00Z,2019-08-10T12:00:00Z,2019-08-31T12:00:00Z,2019-09-01T12:00:00Z,2019-09-10T12:00:00Z,2019-09-16T12:00:00Z,2019-10-01T12:00:00Z,2019-10-07T12:00:00Z,2019-06-08T12:00:00Z,2019-06-12T12:00:00Z,2019-07-19T12:00:00Z,2019-08-09T12:00:00Z,2019-08-30T12:00:00Z,2019-08-31T12:00:00Z,2019-09-09T12:00:00Z,2019-09-15T12:00:00Z,2019-09-30T12:00:00Z,2019-10-06T12:00:00Z,2019-10-21T12:00:00Z,145,160,164,201,222,243,244,253,259,274,280,14,3,36,20,20,0,8,5,14,5,14,159,163,200,221,242,243,252,258,273,279,294
59,wooster_oh,40.7565,-81.9004,3,2019-05-22,37,2019,early3,1310.688467134828,11,2019-05-08,2019-05-22,130,2019-09-29,2019-10-03,2019-10-17,Harvested at Maturity.,3.525999967257182,3.2833333810170493,5.234893575627753,7.445238102050055,4.11590914292769,0,1.95888884862264,1.5155555937025282,0.4168750084936619,9.247499942779541,1.9900000095367432,3.525999967257182,3.2833333810170493,5.234893575627753,7.445238102050055,4.11590914292769,0,1.95888884862264,1.5155555937025282,0.4168750084936619,9.247499942779541,1.9900000095367432,19.22053731282552,20.733371098836262,19.632204339859335,19.475264458429244,18.23769257285378,20.42101669311523,16.318728658888077,18.3870144950019,15.874112129211426,10.762669324874878,11.550003306070963,20.923999722798666,27.456666310628254,26.623191427677234,28.867142995198567,27.942727175625887,23.579999923706055,24.856666564941406,26.224444283379448,27.24250018596649,28.12750005722046,20.9439998626709,14.914333168665568,20.524999936421715,21.11723397640472,23.36571436836606,22.257727254520763,17.449999809265137,19.4622220993042,19.512222131093342,20.37968760728836,22.273750066757202,14.11766654253006,8.904666614532472,13.59333356221517,15.6112765251322,17.864285741533553,16.57272733341564,11.31999969482422,14.067777633666992,12.799999978807238,13.51687502861023,16.420000076293945,7.2913332223892215,5.474293964354396,10.524999936421713,6.359888526648055,9.063710687476108,11.000413949496679,7.449999809265136,9.673529387801224,9.871392790861924,10.802832627207414,12.217162683314086,4.1455276687955855,5.474293964354396,10.524999936421713,6.359888526648055,9.063710687476108,11.000413949496679,7.449999809265136,9.673529387801224,9.871392790861924,10.802832627207414,12.217162683314086,4.1455276687955855,0,0,298.91476075245856,489.2526851894568,731.2617920783837,738.7117918876488,825.7735563778599,914.6160914956172,1087.461413530936,1136.3300642641923,1136.3300642641923,0,0,0.9096170212360138,0.9931190468016124,0.9901818167079579,0.7449999809265138,0.9213888857099746,0.8757222175598145,0.9169375091791153,1,0.06666666666666667,1,1,1,1,1,1,1,1,1,1,1,0.4833999888102214,0.937666670481364,0.9096170212360138,0.9931190468016124,0.9901818167079579,0.7449999809265138,0.9213888857099746,0.8757222175598145,0.9169375091791153,1,0.37219998796780907,1,1,1,0.9999999999999999,1,1,1,1,0.9999999999999999,1,1,2019-05-08T12:00:00Z,2019-05-23T12:00:00Z,2019-05-26T12:00:00Z,2019-07-12T12:00:00Z,2019-08-02T12:00:00Z,2019-08-24T12:00:00Z,2019-08-25T12:00:00Z,2019-09-03T12:00:00Z,2019-09-12T12:00:00Z,2019-09-28T12:00:00Z,2019-10-02T12:00:00Z,2019-05-22T12:00:00Z,2019-05-25T12:00:00Z,2019-07-11T12:00:00Z,2019-08-01T12:00:00Z,2019-08-23T12:00:00Z,2019-08-24T12:00:00Z,2019-09-02T12:00:00Z,2019-09-11T12:00:00Z,2019-09-27T12:00:00Z,2019-10-01T12:00:00Z,2019-10-16T12:00:00Z,128,143,146,193,214,236,237,246,255,271,275,14,2,46,20,21,0,8,8,15,3,14,142,145,192,213,235,236,245,254,270,274,289
60,urbana_il,40.05325,-88.23485,4,2019-05-31,17,2019,early4,1489.843756340733,11,2019-05-17,2019-05-31,137,2019-10-15,2019-10-27,2019-11-10,Harvested at Maturity.,5.366666598121325,0,3.471666667610407,0.8679166610042254,2.598333326478799,0,0.6685714210782733,1.893749952316284,2.9290000170469286,1.118333324790001,6.76799996693929,5.366666598121325,0,3.471666667610407,0.8679166610042254,2.598333326478799,0,0.6685714210782733,1.893749952316284,2.9290000170469286,1.118333324790001,6.76799996693929,19.237343788146973,24.32040532430013,19.9007901151975,20.686265985171,16.504209717114765,15.332324028015137,16.793749400547572,14.74986720085144,13.03385968208313,10.197904706001282,7.983379761377971,25.973333422342936,26.423333485921223,29.15708327293396,28.745416561762493,26.74125011761983,23.809999465942383,29.830000468662806,29.03499984741211,24.40149974822998,16.694166739781696,9.370000076293945,20.588666756947834,20.09166685740153,23.666249980529148,22.544374982515972,21.323750118414562,19.24999952316284,23.344285896846227,22.931249797344208,17.636499851942062,10.61333336432775,4.4290000371634966,15.204000091552734,13.760000228881836,18.17541668812434,16.34333340326945,15.90625011920929,14.6899995803833,16.858571325029644,16.827499747276306,10.871499955654144,4.532499988873799,-0.5120000019669533,10.621573733170827,10.091666857401531,6.4770982244136635,8.996804586073063,10.835888403894556,9.249999523162842,13.138361190530233,12.880766008403153,9.263788166125417,5.471488243764639,0.2383499368101917,10.621573733170827,10.091666857401531,6.4770982244136635,8.996804586073063,10.835888403894556,9.249999523162842,13.138361190530233,12.880766008403153,9.263788166125417,5.471488243764639,0.2383499368101917,0,0,310.9007147718558,526.8240248376094,786.8853465310784,796.1353460542413,888.1038743879528,991.150002455178,1176.4257657776864,1242.0836247028622,1242.0836247028622,0,0,0.974010415871938,1,0.9731458365917206,0.9249999523162842,1,0.9971249997615814,0.666374985575676,0.10375000337759654,0,1,1,1,1,1,1,1,1,1,1,1,0.891366662979126,0.9233333269755046,0.974010415871938,1,0.9731458365917206,0.9249999523162842,1,0.9971249997615814,0.666374985575676,0.10375000337759654,0.007066669464111328,1,1,1,1,1,1,0.9999999999999999,1,0.9999999999999999,0.9999999999999999,1,2019-05-17T12:00:00Z,2019-06-01T12:00:00Z,2019-06-04T12:00:00Z,2019-07-22T12:00:00Z,2019-08-15T12:00:00Z,2019-09-08T12:00:00Z,2019-09-09T12:00:00Z,2019-09-16T12:00:00Z,2019-09-24T12:00:00Z,2019-10-14T12:00:00Z,2019-10-26T12:00:00Z,2019-05-31T12:00:00Z,2019-06-03T12:00:00Z,2019-07-21T12:00:00Z,2019-08-14T12:00:00Z,2019-09-07T12:00:00Z,2019-09-08T12:00:00Z,2019-09-15T12:00:00Z,2019-09-23T12:00:00Z,2019-10-13T12:00:00Z,2019-10-25T12:00:00Z,2019-11-09T12:00:00Z,137,152,155,203,227,251,252,259,267,287,299,14,2,47,23,23,0,6,7,19,11,14,151,154,202,226,250,251,258,266,286,298,313
61,romney_in,40.2364,-86.8889,4,2019-06-08,38,2019,early4,1348.2547057924935,11,2019-05-25,2019-06-08,144,2019-10-30,2019-11-13,2019-11-27,Harvested at Maturity.,5.709999990463257,1.4399999976158142,3.4057446515306515,1.5204545747150073,3.6620832880338035,0,2.3700000643730164,1.9800000190734863,2.265357111181532,2.835714374269758,1.825999971230825,5.709999990463257,1.4399999976158142,3.4057446515306515,1.5204545747150073,3.6620832880338035,0,2.3700000643730164,1.9800000190734863,2.265357111181532,2.835714374269758,1.825999971230825,20.004308319091795,19.616836071014404,20.420523318838566,19.874477343125776,16.366935690244038,18.797277450561523,15.256291270256042,13.074378848075867,11.247043013572693,7.513039026941572,7.3331605911254885,27.011333465576172,24.40999937057495,29.00787248002722,28.960908976468172,26.575000127156574,27.610000610351563,28.71000027656555,26.47000002861023,19.25785722051348,8.468571381909507,5.654666686058045,21.224666817982992,19.31499969959259,23.385531983477005,22.612954486500133,20.99770834048589,20.12500047683716,22.08750009536743,20.30999994277954,12.87464292932834,3.539285706954875,0.6589999971290428,15.438000170389811,14.22000002861023,17.76319148692679,16.264999996532094,15.420416553815206,12.640000343322754,15.464999914169312,14.149999856948853,6.491428638143199,-1.3899999679997563,-4.336666691799959,11.224666817982992,9.31499969959259,6.59882956475101,9.963275586487855,10.798331148386739,10.125000476837158,12.10591442938447,10.643967190118879,6.755620929308568,5,0.11580885159371736,11.224666817982992,9.31499969959259,6.59882956475101,9.963275586487855,10.798331148386739,10.125000476837158,12.10591442938447,10.643967190118879,6.755620929308568,5,0.11580885159371736,0,0,310.1449895432975,529.3370524460304,788.4970000073121,798.6220004841492,895.469315919225,980.621053440176,1169.778439460816,1239.778439460816,1239.778439460816,0,0,0.9655425538407996,1,0.946729165315628,1,1,0.90956249833107,0.287553576699325,0,0,1,1,1,1,1,1,1,1,1,1,1,0.9699333413441976,0.8986249804496765,0.9655425538407996,1,0.946729165315628,1,1,0.90956249833107,0.287553576699325,0,0,1,1,0.9999999999999999,0.9999999999999999,1,0.9999999999999996,1,1,0.9999999999999999,0.9999999999999999,1,2019-05-25T12:00:00Z,2019-06-09T12:00:00Z,2019-06-13T12:00:00Z,2019-07-30T12:00:00Z,2019-08-21T12:00:00Z,2019-09-14T12:00:00Z,2019-09-15T12:00:00Z,2019-09-23T12:00:00Z,2019-10-01T12:00:00Z,2019-10-29T12:00:00Z,2019-11-12T12:00:00Z,2019-06-08T12:00:00Z,2019-06-12T12:00:00Z,2019-07-29T12:00:00Z,2019-08-20T12:00:00Z,2019-09-13T12:00:00Z,2019-09-14T12:00:00Z,2019-09-22T12:00:00Z,2019-09-30T12:00:00Z,2019-10-28T12:00:00Z,2019-11-11T12:00:00Z,2019-11-26T12:00:00Z,145,160,164,211,233,257,258,266,274,302,316,14,3,46,21,23,0,7,7,27,13,14,159,163,210,232,256,257,265,273,301,315,330
62,columbia_mo,38.8894,-92.2081,4,2019-06-04,23,2019,early4,1344.1928068801064,11,2019-05-21,2019-06-04,119,2019-10-01,2019-10-07,2019-10-21,Harvested at Maturity.,2.6193333844343822,16.125,3.4247727285731924,1.913809549240839,8.442857027053833,0,5.990000043596541,0,3.236428584371294,0.24666666487852731,4.80533342162768,2.6193333844343822,16.125,3.4247727285731924,1.913809549240839,8.442857027053833,0,5.990000043596541,0,3.236428584371294,0.24666666487852731,4.80533342162768,20.010273106892903,19.85502052307129,20.104336413470183,20.235494840712775,15.124941803160167,14.810457229614258,17.456631115504674,16.396178926740376,13.309622475079127,12.636225700378418,12.59555034637451,27.26933339436849,30.619998931884766,29.47727281397039,30.091904685610817,28.586190541585285,24.239999771118164,28.918571199689595,30.79428563799177,29.299999918256486,26.325000445048016,18.479333241780598,21.62666670481364,24.609999656677246,24.36420452594757,24.348571368626185,23.875952448163716,20.399999618530273,22.91857133592878,25.03714268548148,23.803214243480138,21.172500133514404,11.844333283106486,15.98400001525879,18.600000381469727,19.25113623792475,18.605238051641557,19.165714354742143,16.559999465942383,16.91857147216797,19.27999973297119,18.306428568703787,16.019999821980793,5.209333324432373,11.625674906561375,13.92049397431612,7.152471134779155,10.069761510361625,12.4660231880989,10.399999618530272,12.774946115609577,14.26805314186556,13.066091198277473,11.38841079167227,2.958780829844773,11.625674906561375,13.92049397431612,7.152471134779155,10.069761510361625,12.4660231880989,10.399999618530272,12.774946115609577,14.26805314186556,13.066091198277473,11.38841079167227,2.958780829844773,0,0,314.70872993028286,526.1737216478771,787.9602085979541,798.3602082164844,887.7848310257514,987.6612030188104,1170.5864797946952,1238.916944544729,1238.916944544729,0,0,0.9833977276628668,1,0.9937142871675038,1,1,1,0.9861071382250105,0.8055833339691162,0.03129999796549479,1,1,1,1,1,1,1,1,1,1,1,0.9577000013987224,1,0.9833977276628668,1,0.9937142871675038,1,1,1,0.9861071382250105,0.8055833339691162,0.23679999907811483,1,1,1,1,0.9999999999999999,1,1,0.9999999999999999,1,1,1,2019-05-21T12:00:00Z,2019-06-05T12:00:00Z,2019-06-07T12:00:00Z,2019-07-21T12:00:00Z,2019-08-11T12:00:00Z,2019-09-01T12:00:00Z,2019-09-02T12:00:00Z,2019-09-09T12:00:00Z,2019-09-16T12:00:00Z,2019-09-30T12:00:00Z,2019-10-06T12:00:00Z,2019-06-04T12:00:00Z,2019-06-06T12:00:00Z,2019-07-20T12:00:00Z,2019-08-10T12:00:00Z,2019-08-31T12:00:00Z,2019-09-01T12:00:00Z,2019-09-08T12:00:00Z,2019-09-15T12:00:00Z,2019-09-29T12:00:00Z,2019-10-05T12:00:00Z,2019-10-20T12:00:00Z,141,156,158,202,223,244,245,252,259,273,279,14,1,43,20,20,0,6,6,13,5,14,155,157,201,222,243,244,251,258,272,278,293
63,crookston_mn,47.805,-96.61426667,-1,2018-05-23,1,2018,early00,891.3061145855911,11,2018-05-09,2018-05-23,113,2018-09-13,2018-09-17,2018-10-01,Harvested at Maturity.,0.7759999910990397,1.1400000254313152,4.569705840419321,2.4411764846128574,0.38130432885626087,NA,0,3.9488890171051025,1.9227777984407215,0.8374999761581421,2.9933333873748778,0.7759999910990397,1.1400000254313152,4.569705840419321,2.4411764846128574,0.38130432885626087,NA,0,3.9488890171051025,1.9227777984407215,0.8374999761581421,2.9933333873748778,22.779508527119955,21.676725387573242,19.87596113541547,20.577126110301297,21.370692916538403,NA,20.401504925319127,16.963363223605686,14.202861097123888,13.745436906814575,11.089644527435302,22.53733336130778,32.6533317565918,27.09382365731632,28.49647050745347,26.649565157683,NA,30.528571810041154,26.80555576748318,24.143333223130966,23.44000005722046,14.640666643778482,14.378333353996277,24.208332697550457,20.67735304551966,22.215882245232077,19.687608687773995,NA,22.477143117359706,19.255000114440918,17.543333252271015,16.65375018119812,9.383666642506917,6.219333346684774,15.763333638509115,14.260882433723001,15.935293983010686,12.72565221786499,NA,14.425714424678258,11.704444461398655,10.943333281411064,9.867500305175781,4.126666641235352,5.514474381776552,12.976483670632044,8.376444402858535,9.778940505979264,8.891482825510009,NA,11.882151562829863,9.900302954077059,8.65069094737288,8.000012669122219,1.137453786549469,5.514474381776552,12.976483670632044,8.376444402858535,9.778940505979264,8.891482825510009,NA,11.882151562829863,9.900302954077059,8.65069094737288,8.000012669122219,1.137453786549469,0,0,284.7991096971902,451.04109829883765,655.5452032855679,NA,738.72026422537715,827.8229908120705,983.5354278647824,1015.5354785412712,1015.5354785412712,0,0,0.923544119386112,0.9858823495752671,0.8954347848892212,NA,0.9343571424484253,0.9160000112321642,0.7369166599379646,0.665375018119812,0.06666666666666667,1,1,1,1,1,NA,1,1,1,1,1,0.46346666653951013,1,0.923544119386112,0.9858823495752671,0.8954347848892212,NA,0.9343571424484253,0.9160000112321642,0.7369166599379646,0.665375018119812,0.11203332742055258,1,1,1,0.9999999999999999,0.9999999999999999,NA,1,1,1,1,1,2018-05-09T12:00:00Z,2018-05-24T12:00:00Z,2018-05-27T12:00:00Z,2018-06-30T12:00:00Z,2018-07-17T12:00:00Z,NA,2018-08-09T12:00:00Z,2018-08-16T12:00:00Z,2018-08-25T12:00:00Z,2018-09-12T12:00:00Z,2018-09-16T12:00:00Z,2018-05-23T12:00:00Z,2018-05-26T12:00:00Z,2018-06-29T12:00:00Z,2018-07-16T12:00:00Z,2018-08-08T12:00:00Z,NA,2018-08-15T12:00:00Z,2018-08-24T12:00:00Z,2018-09-11T12:00:00Z,2018-09-15T12:00:00Z,2018-09-30T12:00:00Z,129,144,147,181,198,NA,221,228,237,255,259,14,2,33,16,22,NA,6,8,17,3,14,143,146,180,197,220,NA,227,236,254,258,273
64,shelly_mn,47.4264,-96.8317,-1,2018-05-24,31,2018,early00,901.0628149929536,11,2018-05-10,2018-05-24,111,2018-09-12,2018-09-16,2018-09-30,Harvested at Maturity.,0.5726666529973348,1.9233333269755046,3.1218181722091907,2.0624999925494194,0.9608695636624874,0,0,6.451249837875366,2.556666615936491,4.062500089406967,2.8140000144640607,0.5726666529973348,1.9233333269755046,3.1218181722091907,2.0624999925494194,0.9608695636624874,0,0,6.451249837875366,2.556666615936491,4.062500089406967,2.8140000144640607,23.08178342183431,21.379313151041668,19.86374499581077,21.141555964946747,21.434315639993418,22.141254425048828,20.45988396235875,17.191008269786835,14.332878112792969,14.176033020019531,11.58343022664388,23.79400005340576,31.950000127156574,27.324848290645715,28.889999985694885,26.50999989716903,31.329999923706055,30.40857151576451,26.50250005722046,24.026111072964138,25.454999923706055,16.335999711354575,15.49400001168251,23.64666684468587,20.928636276360713,22.633125007152557,19.649565168049023,23.24499988555908,22.577142919812882,18.981250047683716,17.557500018013847,18.35124981403351,10.890666521588962,7.193999969959259,15.34333356221517,14.532424262075713,16.37625002861023,12.78913043892902,15.15999984741211,14.74571432386126,11.460000038146973,11.088888963063559,11.247499704360962,5.445333331823349,6.395726349780212,12.429936537988981,8.641068166480938,10.167902102379536,8.851791064382725,12.873628012141095,12.052027309702124,9.690552310596406,8.611736613034871,9.187137726868688,2.181736179841161,6.395726349780212,12.429936537988981,8.641068166480938,10.167902102379536,8.851791064382725,12.873628012141095,12.052027309702124,9.690552310596406,8.611736613034871,9.187137726868688,2.181736179841161,0,0,285.155249493871,447.8416831319437,651.4328776127464,664.3065056248876,748.6706967928025,826.1951152775737,981.2063743122014,1017.954925219676,1017.954925219676,0,0,0.9388030341177276,0.9962500035762787,0.9047608655431997,1,0.9487142835344587,0.8910000026226044,0.7427500009536744,0.794249987602234,0.05830000241597493,1,1,1,1,1,1,1,1,1,1,1,0.5383666690190634,1,0.9388030341177276,0.9962500035762787,0.9047608655431997,1,0.9487142835344587,0.8910000026226044,0.7427500009536744,0.794249987602234,0.19223332564036053,1,1,1,0.9999999999999999,1,1,1,0.9999999999999999,1,0.9999999999999999,1,2018-05-10T12:00:00Z,2018-05-25T12:00:00Z,2018-05-28T12:00:00Z,2018-06-30T12:00:00Z,2018-07-16T12:00:00Z,2018-08-08T12:00:00Z,2018-08-09T12:00:00Z,2018-08-16T12:00:00Z,2018-08-24T12:00:00Z,2018-09-11T12:00:00Z,2018-09-15T12:00:00Z,2018-05-24T12:00:00Z,2018-05-27T12:00:00Z,2018-06-29T12:00:00Z,2018-07-15T12:00:00Z,2018-08-07T12:00:00Z,2018-08-08T12:00:00Z,2018-08-15T12:00:00Z,2018-08-23T12:00:00Z,2018-09-10T12:00:00Z,2018-09-14T12:00:00Z,2018-09-29T12:00:00Z,130,145,148,181,197,220,221,228,236,254,258,14,2,32,15,22,0,6,7,17,3,14,144,147,180,196,219,220,227,235,253,257,272
65,casselton_nd,46.8866,-97.2386,-1,2018-05-07,4,2018,early00,866.6014846394195,11,2018-04-23,2018-05-07,112,2018-08-27,2018-09-01,2018-09-15,Harvested at Maturity.,0.7733333269755046,0.11999999625342232,3.8538235706441544,2.51111110051473,2.529000014066696,0,0.456666671567493,0.17166666189829508,6.348666795094808,6.726000022888184,1.709333328406016,0.7733333269755046,0.11999999625342232,3.8538235706441544,2.51111110051473,2.529000014066696,0,0.456666671567493,0.17166666189829508,6.348666795094808,6.726000022888184,1.709333328406016,25.533968226114908,22.424075807843888,20.218125034781064,20.554758018917507,20.18809280395508,19.300296783447266,22.76251284281413,21.770413398742676,17.037672138214113,13.376730251312255,15.88012663523356,21.08733336130778,21.12142848968506,27.414117757011862,28.200000127156574,28.051000022888182,22.6299991607666,27.051110797458225,30,27.538000106811523,21.810000610351562,25.63666648864746,11.978333334128061,13.755714224917547,20.104411784340353,22.10583342446221,22.029500007629395,17.699999809265137,19.248333136240642,22.209999879201252,20.48500000635783,16.213000297546387,18.542666562398274,2.8693333069483438,6.389999960150038,12.794705811668845,16.01166672176785,16.007999992370607,12.770000457763672,11.445555475023058,14.419999758402506,13.431999905904133,10.615999984741212,11.448666636149088,4.11113484268407,4.9425205656214475,8.301839560294773,9.62841406505921,10.158765943050687,7.038637585190008,9.495652620281678,11.917867532471632,10.587453041674694,7.503724197664261,7.856250361161233,4.11113484268407,4.9425205656214475,8.301839560294773,9.62841406505921,10.158765943050687,7.038637585190008,9.495652620281678,11.917867532471632,10.587453041674694,7.503724197664261,7.856250361161233,0,0,282.2625450500223,455.5739982210882,658.7493170821018,665.7879546672918,751.2488282498267,822.7560334446564,981.567829069777,1019.0864500580984,1019.0864500580984,0,0,0.8574705965378705,0.9978888856040107,0.9921750020980835,0.7699999809265137,0.8466666486528185,1,0.9300333309173584,0.6213000297546387,0.06666666666666667,1,1,1,1,1,1,1,1,1,1,1,0.273100000222524,0.4274999993188041,0.8574705965378705,0.9978888856040107,0.9921750020980835,0.7699999809265137,0.8466666486528185,1,0.9300333309173584,0.6213000297546387,0.8244333267211914,1,1,1,1,0.9999999999999999,0.9999999999999996,1,0.9999999999999998,0.9999999999999999,1,1,2018-04-23T12:00:00Z,2018-05-08T12:00:00Z,2018-05-15T12:00:00Z,2018-06-18T12:00:00Z,2018-07-06T12:00:00Z,2018-07-26T12:00:00Z,2018-07-27T12:00:00Z,2018-08-05T12:00:00Z,2018-08-11T12:00:00Z,2018-08-26T12:00:00Z,2018-08-31T12:00:00Z,2018-05-07T12:00:00Z,2018-05-14T12:00:00Z,2018-06-17T12:00:00Z,2018-07-05T12:00:00Z,2018-07-25T12:00:00Z,2018-07-26T12:00:00Z,2018-08-04T12:00:00Z,2018-08-10T12:00:00Z,2018-08-25T12:00:00Z,2018-08-30T12:00:00Z,2018-09-14T12:00:00Z,113,128,135,169,187,207,208,217,223,238,243,14,6,33,17,19,0,8,5,14,4,14,127,134,168,186,206,207,216,222,237,242,257
66,ottawa_ont,45.3712,-75.72575,-1,2018-05-18,5,2018,early00,694.5523945306204,11,2018-05-04,2018-05-18,110,2018-09-05,2018-09-09,2018-09-23,Harvested at Maturity.,0.4206666628519694,3.15666663646698,2.5517948483809447,0.7223529535181382,9.017646971870871,NA,3.7557142802647183,0.3775000125169754,3.15000005705016,0.8224999792873859,3.0660000801086427,0.4206666628519694,3.15666663646698,2.5517948483809447,0.7223529535181382,9.017646971870871,NA,3.7557142802647183,0.3775000125169754,3.15000005705016,0.8224999792873859,3.0660000801086427,24.766964213053384,20.83176310857137,20.279709608126907,22.5865577248966,15.123620482052074,NA,16.871974536350795,18.281030535697937,15.812724454062325,15.421475887298584,13.89203732808431,20.54600009918213,22.056666374206543,24.967435910151554,29.958823260139017,28.284117642570944,NA,27.810000010899135,26.485000371932983,26.405714307512557,26.262500286102295,22.67533302307129,12.83400001724561,14.854999860127768,18.772051236568352,22.259411615483902,22.80147061628454,NA,22.302143096923828,20.99937528371811,20.90035711015974,20.177500128746033,16.87266648610433,5.121999935309092,7.653333346048991,12.576666562985151,14.559999970828786,17.318823589998132,NA,16.79428618294852,15.513750195503235,15.39499991280692,14.09249997138977,11.069999949137369,4.196470068174849,5.297351310510437,7.229037337834354,10.03571601238267,12.140346981881672,NA,12.221775647245135,11.074557318864017,11.114864327703629,10.421766908615828,6.9884886872714755,4.196470068174849,5.297351310510437,7.229037337834354,10.03571601238267,12.140346981881672,NA,12.221775647245135,11.074557318864017,11.114864327703629,10.421766908615828,6.9884886872714755,0,0,281.93245617553987,452.53962838604537,658.9255270780337,NA,744.4779566087497,833.0744151596617,988.6825157475124,1030.369583381976,1030.369583381976,0,0,0.7764615376790365,0.9650588288026698,1,NA,0.9927142824445452,0.9978125095367432,0.9175357137407576,0.8659999966621399,0.01496666431427002,1,1,1,1,1,NA,1,1,1,1,1,0.3147333363691966,0.4854999860127767,0.7764615376790365,0.9650588288026698,1,NA,0.9927142824445452,0.9978125095367432,0.9175357137407576,0.8659999966621399,0.6161333179473877,1,1,1,1,0.9999999999999999,NA,1,0.9999999999999999,1,0.9999999999999999,1,2018-05-04T12:00:00Z,2018-05-19T12:00:00Z,2018-05-25T12:00:00Z,2018-07-03T12:00:00Z,2018-07-20T12:00:00Z,NA,2018-08-06T12:00:00Z,2018-08-13T12:00:00Z,2018-08-21T12:00:00Z,2018-09-04T12:00:00Z,2018-09-08T12:00:00Z,2018-05-18T12:00:00Z,2018-05-24T12:00:00Z,2018-07-02T12:00:00Z,2018-07-19T12:00:00Z,2018-08-05T12:00:00Z,NA,2018-08-12T12:00:00Z,2018-08-20T12:00:00Z,2018-09-03T12:00:00Z,2018-09-07T12:00:00Z,2018-09-22T12:00:00Z,124,139,145,184,201,NA,218,225,233,247,251,14,5,38,16,16,NA,6,7,13,3,14,138,144,183,200,217,NA,224,232,246,250,265
67,lapocatiere_que,47.357,-70.023,-1,2018-05-28,6,2018,early00,659.7479354915829,11,2018-05-14,2018-05-28,146,2018-10-21,2018-10-29,2018-11-12,Harvested at Maturity.,0.8079999764760335,2.1200000411934323,1.560434794458358,2.937999987602234,2.5990476608276367,3.494999885559082,1.3349999785423279,1.131818178025159,3.1049999414632716,1.0100000202655792,5.270666694641114,0.8079999764760335,2.1200000411934323,1.560434794458358,2.937999987602234,2.5990476608276367,3.494999885559082,1.3349999785423279,1.131818178025159,3.1049999414632716,1.0100000202655792,5.270666694641114,25.49862855275472,19.942816734313965,21.093346689058386,16.630566215515138,17.56848403385707,13.85638427734375,15.211969757080078,12.479402195323598,8.69453767935435,7.107186317443848,4.169344441095988,17.766666603088378,19.434444639417862,23.617826130079187,26.75800018310547,24.976190476190478,24.804999351501465,22.167000198364256,20.091818029230293,12.186333322525025,4.792500048875809,4.691999971866608,10.755999946594239,13.378888938162062,17.365978251332823,21.84500001271566,19.46238090878441,19.78249979019165,16.401500129699706,14.754090829329057,7.905499988297621,0.9218750447034836,2.45633332952857,3.7453332901000977,7.323333236906263,11.114130372586457,16.931999842325848,13.948571341378347,14.760000228881836,10.636000061035157,9.416363629427822,3.6246666540702184,-2.9487499594688416,0.2206666871905327,2.8737917043573162,4.331789692738983,6.118558263473826,11.047265492646211,9.45498142514517,9.78249979019165,8.01236741753906,7.308891623069481,5.184042917778989,5,0,2.8737917043573162,4.331789692738983,6.118558263473826,11.047265492646211,9.45498142514517,9.78249979019165,8.01236741753906,7.308891623069481,5.184042917778989,5,0,0,0,281.453680119796,447.1626625094892,645.7172724375378,665.2822720179211,745.4059461933116,825.8037540470759,981.3250415804456,1021.3250415804456,1021.3250415804456,0,0,0.6804347857185032,0.9977333323160807,0.8882857163747152,0.8302499771118164,0.6242500162124633,0.4885909037156539,0.055083334048589075,0,0,1,1,1,1,1,1,1,1,1,1,1,0.17986666361490886,0.3836666716469659,0.6804347857185032,0.9977333323160807,0.8882857163747152,0.8302499771118164,0.6242500162124633,0.4885909037156539,0.055083334048589075,0,0,1,1,1,0.9999999999999999,0.9999999999999999,1,1,0.9999999999999999,0.9999999999999999,0.9999999999999998,1,2018-05-14T12:00:00Z,2018-05-29T12:00:00Z,2018-06-07T12:00:00Z,2018-07-23T12:00:00Z,2018-08-07T12:00:00Z,2018-08-28T12:00:00Z,2018-08-30T12:00:00Z,2018-09-09T12:00:00Z,2018-09-20T12:00:00Z,2018-10-20T12:00:00Z,2018-10-28T12:00:00Z,2018-05-28T12:00:00Z,2018-06-06T12:00:00Z,2018-07-22T12:00:00Z,2018-08-06T12:00:00Z,2018-08-27T12:00:00Z,2018-08-29T12:00:00Z,2018-09-08T12:00:00Z,2018-09-19T12:00:00Z,2018-10-19T12:00:00Z,2018-10-27T12:00:00Z,2018-11-11T12:00:00Z,134,149,158,204,219,240,242,252,263,293,301,14,8,45,14,20,1,9,10,29,7,14,148,157,203,218,239,241,251,262,292,300,315
68,stmathieudebeloeil_que,45.5834,-73.2422,-1,2018-05-24,7,2018,early00,649.1581882172385,11,2018-05-10,2018-05-24,103,2018-09-04,2018-09-07,2018-09-21,Harvested at Maturity.,1.290666651725769,4.740000128746033,2.7118919411221065,2.105000015348196,3.7718750834465027,5.53000020980835,2.64166667064031,1.335714272090367,3.3864285264696394,3.7800000508626304,1.4573333422342936,1.290666651725769,4.740000128746033,2.7118919411221065,2.105000015348196,3.7718750834465027,5.53000020980835,2.64166667064031,1.335714272090367,3.3864285264696394,3.7800000508626304,1.4573333422342936,23.62016626993815,14.563863515853882,20.582914739041716,21.23736011981964,16.085112869739532,14.20700740814209,17.352662086486816,16.897289412362234,15.926092011587961,13.984009424845377,14.693545595804851,20.96266663869222,23.332499504089355,25.43567554370777,28.78124988079071,28.459999918937683,32.34000015258789,27.72500006357829,26.810000010899135,26.789285932268417,29.21999994913737,22.98933334350586,14.016999981800716,18.34374976158142,19.426486408388293,22.193125009536743,23.539062559604645,26.574999809265137,22.317499955495197,21.654999937329972,21.308928625924246,23.838333129882813,17.17166665395101,7.07133332490921,13.355000019073486,13.417297273068815,15.605000138282776,18.618125200271606,20.809999465942383,16.90999984741211,16.499999863760813,15.828571319580078,18.456666310628254,11.35399996439616,4.978792927092016,8.343749761581421,7.640403230593748,10.307007649795363,12.838881924751162,15.33755260064602,12.320473109658558,11.667682193028076,11.480079676940612,13.67741739988327,6.762550612413685,4.978792927092016,8.343749761581421,7.640403230593748,10.307007649795363,12.838881924751162,15.33755260064602,12.320473109658558,11.667682193028076,11.480079676940612,13.67741739988327,6.762550612413685,0,0,282.6949195319687,447.60704192869446,653.0291527247131,668.3667053253591,742.2895439833105,823.963319334507,984.6844348116756,1025.7166870113251,1025.7166870113251,0,0,0.7904459405589749,0.9700937509536743,1,1,1,0.9783571447644915,0.9334285770143782,1,0.06649999936421712,1,1,1,1,1,1,1,1,1,1,1,0.4304999947547913,0.8052499890327454,0.7904459405589749,0.9700937509536743,1,1,1,0.9783571447644915,0.9334285770143782,1,0.6589333375295003,1,1,1,1,1,1,1,0.9999999999999999,1,1,1,2018-05-10T12:00:00Z,2018-05-25T12:00:00Z,2018-05-29T12:00:00Z,2018-07-05T12:00:00Z,2018-07-21T12:00:00Z,2018-08-06T12:00:00Z,2018-08-07T12:00:00Z,2018-08-13T12:00:00Z,2018-08-20T12:00:00Z,2018-09-03T12:00:00Z,2018-09-06T12:00:00Z,2018-05-24T12:00:00Z,2018-05-28T12:00:00Z,2018-07-04T12:00:00Z,2018-07-20T12:00:00Z,2018-08-05T12:00:00Z,2018-08-06T12:00:00Z,2018-08-12T12:00:00Z,2018-08-19T12:00:00Z,2018-09-02T12:00:00Z,2018-09-05T12:00:00Z,2018-09-20T12:00:00Z,130,145,149,186,202,218,219,225,232,246,249,14,3,36,15,15,0,5,6,13,2,14,144,148,185,201,217,218,224,231,245,248,263
69,ames_ia,42.0215,-93.7745,1,2018-05-25,15,2018,early1,872.2209798091716,11,2018-05-11,2018-05-25,100,2018-09-02,2018-09-06,2018-09-20,Harvested at Maturity.,1.3180000066757203,0,10.352903243034117,6.7306249886751175,1.1790476072402227,26.75,5.478333473205566,5.088333368301392,6.869285728250231,19.649999856948853,2.5746666272481282,1.3180000066757203,0,10.352903243034117,6.7306249886751175,1.1790476072402227,26.75,5.478333473205566,5.088333368301392,6.869285728250231,19.649999856948853,2.5746666272481282,18.919795417785643,25.22194480895996,17.899314849607407,21.31783217191696,21.670781180972146,14.544378280639648,18.77549918492635,15.978050231933594,15.091531140463692,9.612903952598572,15.41701078414917,24.580666732788085,35.71666717529297,28.541612932758948,30.603124856948853,27.995714278448197,29.649999618530273,29.229999860127766,28.80500030517578,26.419285774230957,27.33750009536743,26.807333501180015,18.718333307902018,27.03333346048991,22.891451712577574,24.763749957084656,21.870237986246746,24.039999961853027,23.115833282470703,23.300000190734863,21.10464290210179,23.461250066757202,20.996000003814697,12.85599988301595,18.349999745686848,17.2412904923962,18.92437505722046,15.744761694045295,18.43000030517578,17.00166670481364,17.795000076293945,15.79000002997262,19.585000038146973,15.184666506449382,8.705356514489651,12.857036112348238,9.321516402548488,10.790166946872148,10.239314289058214,13.347231465878224,12.780533312413331,13.218034116011859,11.275230673708235,13.461250066757202,9.998747099268835,8.705356514489651,12.857036112348238,9.321516402548488,10.790166946872148,10.239314289058214,13.347231465878224,12.780533312413331,13.218034116011859,11.275230673708235,13.461250066757202,9.998747099268835,0,0,288.96700847900314,461.6096796289576,676.6352796991804,689.9825111650587,766.6657110395386,845.9739157356097,1003.8271451675248,1057.6721454345538,1057.6721454345538,0,0,0.9912258086665984,1,0.9837142762683687,1,1,1,0.9310714312962124,1,0.06666666666666667,1,1,1,1,1,1,1,1,1,1,1,0.7715333302815756,1,0.9912258086665984,1,0.9837142762683687,1,1,1,0.9310714312962124,1,0.9124999968210856,1,1,1,1,0.9999999999999999,0.9999999999999998,1,1,1,0.9999999999999999,1,2018-05-11T12:00:00Z,2018-05-26T12:00:00Z,2018-05-29T12:00:00Z,2018-06-29T12:00:00Z,2018-07-15T12:00:00Z,2018-08-05T12:00:00Z,2018-08-06T12:00:00Z,2018-08-12T12:00:00Z,2018-08-18T12:00:00Z,2018-09-01T12:00:00Z,2018-09-05T12:00:00Z,2018-05-25T12:00:00Z,2018-05-28T12:00:00Z,2018-06-28T12:00:00Z,2018-07-14T12:00:00Z,2018-08-04T12:00:00Z,2018-08-05T12:00:00Z,2018-08-11T12:00:00Z,2018-08-17T12:00:00Z,2018-08-31T12:00:00Z,2018-09-04T12:00:00Z,2018-09-19T12:00:00Z,131,146,149,180,196,217,218,224,230,244,248,14,2,30,15,20,0,5,5,13,3,14,145,148,179,195,216,217,223,229,243,247,262
70,kanawha_ia,42.9333,-93.7924,1,2018-05-18,39,2018,early1,966.8147710896484,11,2018-05-04,2018-05-18,109,2018-09-04,2018-09-09,2018-09-23,Harvested at Maturity.,3.3840000152587892,8.176000070571899,7.699393835934726,4.198888934320874,2.988181775266474,41.97999954223633,1.1857142448425293,2.073333263397217,9.048666731516521,12.76800012588501,10.850666491190593,3.3840000152587892,8.176000070571899,7.699393835934726,4.198888934320874,2.988181775266474,41.97999954223633,1.1857142448425293,2.073333263397217,9.048666731516521,12.76800012588501,10.850666491190593,19.216463629404704,15.225924110412599,18.362632057883523,21.11946921878391,21.015067100524902,11.343668937683104,19.28887149265834,17.21974261601766,14.92838223775228,11.911727046966554,15.314271799723308,22.602000045776368,22.237999725341798,28.96909089521928,29.39388868543837,27.16272735595703,26.200000762939453,28.595714024135045,28.205000241597492,25.487333170572917,24.054000091552734,26.50933329264323,16.376999998092653,16.757999897003174,22.892121184955943,23.675833145777386,21.16704546321522,22.235000610351563,22.38642856052944,22.796666781107586,20.182999897003175,19.87100019454956,19.952333291371662,10.151999950408936,11.27800006866455,16.815151474692605,17.9577776061164,15.17136357047341,18.270000457763672,16.177143096923828,17.388333320617676,14.87866662343343,15.688000297546386,13.395333290100098,6.569187573706309,6.767760174310208,8.960417364453454,9.83807586338671,9.418734385951257,11.4562229544183,12.035404486982983,12.796623026339212,10.52482567065517,10.23132891342044,9.392540024576585,6.569187573706309,6.767760174310208,8.960417364453454,9.83807586338671,9.418734385951257,11.4562229544183,12.035404486982983,12.796623026339212,10.52482567065517,10.23132891342044,9.392540024576585,0,0,295.69377302696404,472.77913856792475,679.9912950588523,691.4475180132706,775.6953494221514,852.4750875801866,1010.3474726400142,1061.5041172071165,1061.5041172071165,0,0,0.9885151487408262,1,0.9639545397324996,1,1,1,0.9031666692097982,0.8716000080108642,0.04090000152587891,1,1,1,1,1,1,1,1,1,1,1,0.6415333350499471,0.6546999931335449,0.9885151487408262,1,0.9639545397324996,1,1,1,0.9031666692097982,0.8716000080108642,0.8248333295186361,1,1,1,1,0.9999999999999998,1,0.9999999999999999,1,0.9999999999999999,1,1,2018-05-04T12:00:00Z,2018-05-19T12:00:00Z,2018-05-24T12:00:00Z,2018-06-26T12:00:00Z,2018-07-14T12:00:00Z,2018-08-05T12:00:00Z,2018-08-06T12:00:00Z,2018-08-13T12:00:00Z,2018-08-19T12:00:00Z,2018-09-03T12:00:00Z,2018-09-08T12:00:00Z,2018-05-18T12:00:00Z,2018-05-23T12:00:00Z,2018-06-25T12:00:00Z,2018-07-13T12:00:00Z,2018-08-04T12:00:00Z,2018-08-05T12:00:00Z,2018-08-12T12:00:00Z,2018-08-18T12:00:00Z,2018-09-02T12:00:00Z,2018-09-07T12:00:00Z,2018-09-22T12:00:00Z,124,139,144,177,195,217,218,225,231,246,251,14,4,32,17,21,0,6,5,14,4,14,138,143,176,194,216,217,224,230,245,250,265
71,wanatah_in,41.4444,-86.9437,1,2018-05-25,20,2018,early1,781.6319942422431,11,2018-05-11,2018-05-25,100,2018-09-02,2018-09-05,2018-09-19,Harvested at Maturity.,3.625333348910014,0,3.2052940480849323,2.4343750402331352,1.9339999675750732,NA,9.538333455721537,1.1233333349227905,4.6957143885748724,3.1400000254313145,2.333333396911621,3.625333348910014,0,3.2052940480849323,2.4343750402331352,1.9339999675750732,NA,9.538333455721537,1.1233333349227905,4.6957143885748724,3.1400000254313145,2.333333396911621,18.813925361633302,23.037665367126465,19.122292364344876,21.572059154510498,19.707714080810547,NA,15.556335926055908,17.35814142227173,15.772753306797572,15.517246882120768,14.794680913289389,22.804666582743327,33.02500057220459,27.7167646744672,30.241249918937683,27.473000144958498,NA,29.19166660308838,28.951666831970215,27.56071444920131,31.123332977294922,26.51533342997233,16.875333309173584,25.90000009536743,22.329705827376422,24.211562484502792,21.955500078201293,NA,24.029166539510094,23.63333336512248,22.260714292526245,25.5016663869222,21.036666679382325,10.946000035603841,18.774999618530273,16.942646980285645,18.1818750500679,16.438000011444093,NA,18.866666475931805,18.31499989827474,16.96071413585118,19.87999979654948,15.557999928792318,6.86072002915899,14.03196044136882,9.007566511993542,10.813103940535846,10.489541222533862,NA,13.76353148564672,13.626709944138923,11.996275351331915,14.779133298309644,9.717036827097735,6.86072002915899,14.03196044136882,9.007566511993542,10.813103940535846,10.489541222533862,NA,13.76353148564672,13.626709944138923,11.996275351331915,14.779133298309644,9.717036827097735,0,0,306.2572614077804,479.266924456354,689.0577489070313,NA,771.6389378209117,853.3991974857453,1021.347052404392,1065.684452299321,1065.684452299321,0,0,0.9667352956884048,0.9975312530994416,0.9869250011444092,NA,1,1,0.9680714300700597,1,0.06666666666666667,1,1,1,1,1,NA,1,1,1,1,1,0.6554666646321615,1,0.9667352956884048,0.9975312530994416,0.9869250011444092,NA,1,1,0.9680714300700597,1,0.8986666742960612,1,1,1,0.9999999999999999,0.9999999999999999,NA,1,0.9999999999999999,0.9999999999999999,0.9999999999999999,1,2018-05-11T12:00:00Z,2018-05-26T12:00:00Z,2018-05-28T12:00:00Z,2018-07-01T12:00:00Z,2018-07-17T12:00:00Z,NA,2018-08-06T12:00:00Z,2018-08-12T12:00:00Z,2018-08-18T12:00:00Z,2018-09-01T12:00:00Z,2018-09-04T12:00:00Z,2018-05-25T12:00:00Z,2018-05-27T12:00:00Z,2018-06-30T12:00:00Z,2018-07-16T12:00:00Z,2018-08-05T12:00:00Z,NA,2018-08-11T12:00:00Z,2018-08-17T12:00:00Z,2018-08-31T12:00:00Z,2018-09-03T12:00:00Z,2018-09-18T12:00:00Z,131,146,148,182,198,NA,218,224,230,244,247,14,1,33,15,19,NA,5,5,13,2,14,145,147,181,197,217,NA,223,229,243,246,261
72,eastlansing_mi,42.6296,-84.4375,1,2018-06-07,16,2018,early1,752.4357793601631,11,2018-05-24,2018-06-07,105,2018-09-20,2018-09-25,2018-10-09,Harvested at Maturity.,1.8979999383290609,6.2749998569488525,1.2270588313832003,1.046111096938451,2.809411750120275,NA,2.857499971985817,5.276666800181071,1.2868749797344208,8.388000106811523,6.010000014305115,1.8979999383290609,6.2749998569488525,1.2270588313832003,1.046111096938451,2.809411750120275,NA,2.857499971985817,5.276666800181071,1.2868749797344208,8.388000106811523,6.010000014305115,20.991928164164225,16.135050535202026,21.61384447883157,19.3515026834276,18.08452552907607,NA,15.676325559616089,16.08778142929077,15.087376356124878,12.843029022216797,11.384018675486246,27.259999974568686,23.567500114440918,28.612058807821835,27.03444480895996,28.87176502452177,NA,26.53749990463257,27.709999720255535,25.71875011920929,23.67200050354004,19.52266699473063,20.776000006993613,18.96874988079071,22.355735273922193,21.215555747350056,23.125882513382855,NA,21.242499887943268,21.87916644414266,20.114687591791153,18.17700023651123,14.16400016148885,14.292000039418538,14.369999647140503,16.099411740022546,15.396666685740152,17.38000000224394,NA,15.947499871253967,16.048333168029785,14.510625064373016,12.68199996948242,8.80533332824707,10.47224811404427,8.968749880790712,8.754059478759917,9.517696662156194,12.64813733070867,NA,11.306244049054385,12.091644765657186,10.464731496641784,9.301500052030088,4.459900365452369,10.47224811404427,8.968749880790712,8.754059478759917,9.517696662156194,12.64813733070867,NA,11.306244049054385,12.091644765657186,10.464731496641784,9.301500052030088,4.459900365452369,0,0,297.63802227783714,468.9565621966486,683.9748968186958,NA,774.4248492111308,846.9747178050739,1014.4104217513424,1060.917922011493,1060.917922011493,0,0,0.9698676473954144,0.9898055579927233,1,NA,0.9574999988079071,0.946999994913737,0.8366562545299531,0.7404000091552735,0.022766669591267902,1,1,1,1,1,NA,1,1,1,1,1,0.8601000038782756,0.8789999961853028,0.9698676473954144,0.9898055579927233,1,NA,0.9574999988079071,0.946999994913737,0.8366562545299531,0.7404000091552735,0.42626667976379395,1,1,1,1,1,NA,1,0.9999999999999999,1,1,1,2018-05-24T12:00:00Z,2018-06-08T12:00:00Z,2018-06-12T12:00:00Z,2018-07-16T12:00:00Z,2018-08-03T12:00:00Z,NA,2018-08-20T12:00:00Z,2018-08-28T12:00:00Z,2018-09-03T12:00:00Z,2018-09-19T12:00:00Z,2018-09-24T12:00:00Z,2018-06-07T12:00:00Z,2018-06-11T12:00:00Z,2018-07-15T12:00:00Z,2018-08-02T12:00:00Z,2018-08-19T12:00:00Z,NA,2018-08-27T12:00:00Z,2018-09-02T12:00:00Z,2018-09-18T12:00:00Z,2018-09-23T12:00:00Z,2018-10-08T12:00:00Z,144,159,163,197,215,NA,232,240,246,262,267,14,3,33,17,16,NA,7,5,15,4,14,158,162,196,214,231,NA,239,245,261,266,281
73,saginaw_mi,43.4003,-83.8684,1,2018-05-21,32,2018,early1,957.656457415326,11,2018-05-07,2018-05-21,111,2018-09-09,2018-09-15,2018-09-29,Harvested at Maturity.,3.2420000076293944,0,2.2120513121287027,1.6447368283805095,2.866315847948978,0,1.631666660308838,4.718749940395355,9.673077069796049,0.475000003973643,0.9880000114440918,3.2420000076293944,0,2.2120513121287027,1.6447368283805095,2.866315847948978,0,1.631666660308838,4.718749940395355,9.673077069796049,0.475000003973643,0.9880000114440918,18.920849609375,24.782410144805908,20.298057140448154,21.21599669205515,18.055431541643646,22.141843795776367,17.906554222106934,14.789507150650024,13.54846947009747,15.810141404469809,13.518008104960124,20.561333433787027,26.25749969482422,27.07948723817483,29.125789541947213,28.32684205707751,29.479999542236328,28.69333330790202,26.18625020980835,27.33923075749324,21.938333829243977,23.444000244140625,14.047333375612894,18.242499828338623,20.97166670897068,22.43368427376998,22.376052630575078,22.334999561309814,22.97416655222575,20.838124990463257,22.1873077245859,16.485833565394085,17.761333481470743,7.533333317438761,10.227499961853027,14.863846179766533,15.741579005592747,16.42526320407265,15.1899995803833,17.25499979654948,15.489999771118164,17.035384691678562,11.03333330154419,12.078666718800863,4.861514079034329,8.244389707025887,7.644713445100943,9.11851149987582,11.020120635418223,12.119914491828638,12.91425590911032,10.937267902360112,12.257525935947436,7.532954330595334,7.310892508266568,4.861514079034329,8.244389707025887,7.644713445100943,9.11851149987582,11.020120635418223,12.119914491828638,12.91425590911032,10.937267902360112,12.257525935947436,7.532954330595334,7.310892508266568,0,0,298.14382435893674,471.3955428565774,680.7778349295238,692.8977494213525,770.3832848760144,857.8814280948952,1017.229265262212,1062.4269912457842,1062.4269912457842,0,0,0.8936666714839446,0.9906842106267025,0.9981052624551874,1,1,0.9821250081062317,0.9291153907775879,0.6485833565394084,0.06666666666666667,1,1,1,1,1,1,1,1,1,1,1,0.44103333870569866,0.7601249933242797,0.8936666714839446,0.9906842106267025,0.9981052624551874,1,1,0.9821250081062317,0.9291153907775879,0.6485833565394084,0.709633339246114,1,1,1,0.9999999999999999,0.9999999999999999,0.9999999999999996,1,1,1,0.9999999999999999,1,2018-05-07T12:00:00Z,2018-05-22T12:00:00Z,2018-05-26T12:00:00Z,2018-07-04T12:00:00Z,2018-07-23T12:00:00Z,2018-08-11T12:00:00Z,2018-08-12T12:00:00Z,2018-08-18T12:00:00Z,2018-08-26T12:00:00Z,2018-09-08T12:00:00Z,2018-09-14T12:00:00Z,2018-05-21T12:00:00Z,2018-05-25T12:00:00Z,2018-07-03T12:00:00Z,2018-07-22T12:00:00Z,2018-08-10T12:00:00Z,2018-08-11T12:00:00Z,2018-08-17T12:00:00Z,2018-08-25T12:00:00Z,2018-09-07T12:00:00Z,2018-09-13T12:00:00Z,2018-09-28T12:00:00Z,127,142,146,185,204,223,224,230,238,251,257,14,3,38,18,18,0,5,7,12,5,14,141,145,184,203,222,223,229,237,250,256,271
74,danvers_mn,45.2803,-95.7591,1,2018-05-21,33,2018,early1,1037.747069796459,11,2018-05-07,2018-05-21,116,2018-09-14,2018-09-17,2018-10-01,Harvested at Maturity.,1.8020000457763672,2.006666660308838,4.54263163554041,6.404736970600329,2.3645454374226658,NA,0,8.37374997138977,2.755882319282083,0,2.2886666933695476,1.8020000457763672,2.006666660308838,4.54263163554041,6.404736970600329,2.3645454374226658,NA,0,8.37374997138977,2.755882319282083,0,2.2886666933695476,21.182831891377766,20.2755708694458,18.878816893226222,19.74205167669999,20.321751724589955,NA,18.4354670388358,15.979402422904968,15.274611360886517,14.19014835357666,11.762898826599121,23.281999842325845,28.883333206176758,27.833684318944027,29.106842141402396,27.341363820162687,NA,28.574285779680526,25.926249980926514,24.891176223754883,29.839998881022137,18.511333211263022,16.039666604995727,21.761666456858315,22.01868428682026,23.357368419044896,21.09931820089167,NA,22.73714276722499,20.445625007152557,19.06941172655891,23.91833273569743,13.243333264191945,8.797333367665608,14.639999707539875,16.203684254696494,17.607894696687396,14.85727258162065,NA,16.89999975476946,14.965000033378601,13.247647229362936,17.996666590372723,7.97533331712087,6.525459268118342,11.183604185740153,7.765608121809696,9.347577351109518,9.562992645292919,NA,12.423512788967798,10.647206608094276,9.628286854538848,13.047364458839098,3.328918493139148,6.525459268118342,11.183604185740153,7.765608121809696,9.347577351109518,9.562992645292919,NA,12.423512788967798,10.647206608094276,9.628286854538848,13.047364458839098,3.328918493139148,0,0,295.0931086287685,472.6970782998493,683.0829164962935,NA,770.0475060190681,855.2251588838224,1018.9060354109828,1058.0481287875002,1058.0481287875002,0,0,0.975999997791491,1,0.9465227257121693,NA,1,0.9461875021457672,0.8472646993749282,1,0.06666666666666667,1,1,1,1,1,NA,1,1,1,1,1,0.5824666627248128,0.9838333447774252,0.975999997791491,1,0.9465227257121693,NA,1,0.9461875021457672,0.8472646993749282,1,0.3584999990463257,1,1,1,1,1,NA,1,1,0.9999999999999999,1,1,2018-05-07T12:00:00Z,2018-05-22T12:00:00Z,2018-05-25T12:00:00Z,2018-07-02T12:00:00Z,2018-07-21T12:00:00Z,NA,2018-08-12T12:00:00Z,2018-08-19T12:00:00Z,2018-08-27T12:00:00Z,2018-09-13T12:00:00Z,2018-09-16T12:00:00Z,2018-05-21T12:00:00Z,2018-05-24T12:00:00Z,2018-07-01T12:00:00Z,2018-07-20T12:00:00Z,2018-08-11T12:00:00Z,NA,2018-08-18T12:00:00Z,2018-08-26T12:00:00Z,2018-09-12T12:00:00Z,2018-09-15T12:00:00Z,2018-09-30T12:00:00Z,127,142,145,183,202,NA,224,231,239,256,259,14,2,37,18,21,NA,6,7,16,2,14,141,144,182,201,223,NA,230,238,255,258,273
75,rosemount_mn,44.707,-93.101,1,2018-05-19,9,2018,early1,1060.8408016056155,11,2018-05-05,2018-05-19,114,2018-09-10,2018-09-14,2018-09-28,Harvested at Maturity.,2.368666716416677,0,5.2786841149392885,5.292777700556649,2.5159090892835096,0,1.271666685740153,0.31857143129621235,6.036875069141388,0,6.563999986648559,2.368666716416677,0,5.2786841149392885,5.292777700556649,2.5159090892835096,0,1.271666685740153,0.31857143129621235,6.036875069141388,0,6.563999986648559,18.487783845265707,22.08661651611328,18.41033269229688,21.171191374460857,19.36875308643688,20.813631057739254,18.712420304616295,16.930014201572963,13.358459293842316,18.08951473236084,11.531178045272828,22.263333066304526,23.182499885559082,27.401052776135895,28.847777790493435,26.553636290810324,30.3799991607666,30.246666590372723,26.341428484235493,24.284375309944153,26.169999599456787,22.564000193277995,16.192666498819985,16.85749989748001,22.15973697210613,23.502222220102947,21.035454533316873,24.1299991607666,24.30666653315226,20.843571390424454,19.76156261563301,19.18749988079071,17.729666709899902,10.121999931335449,10.53249990940094,16.918421168076364,18.156666649712456,15.51727277582342,17.8799991607666,18.366666475931805,15.345714296613421,15.238749921321869,12.205000162124634,12.89533322652181,6.466933884188732,7.015434441324324,8.022924641391066,9.557136167176482,9.444025075983001,13.476969936482432,13.96401030889669,11.013783876342433,10.108256624922529,9.887313304154574,6.968745824637016,6.466933884188732,7.015434441324324,8.022924641391066,9.557136167176482,9.444025075983001,13.476969936482432,13.96401030889669,11.013783876342433,10.108256624922529,9.887313304154574,6.968745824637016,0,0,304.87113637286063,476.8995873820374,684.6681390536636,698.145108990146,781.9291708435261,859.0256579779231,1020.7577639766836,1060.3070171933018,1060.3070171933018,0,0,0.9725131574429964,1,0.9666363586078991,1,1,0.9613571439470564,0.8631875038146973,0.8566249966621399,0.06666666666666667,1,1,1,1,1,1,1,1,1,1,1,0.6181999890009562,0.6594999849796296,0.9725131574429964,1,0.9666363586078991,1,1,0.9613571439470564,0.8631875038146973,0.8566249966621399,0.6265666707356771,1,1,1,1,1,1,1,1,1,1,1,2018-05-05T12:00:00Z,2018-05-20T12:00:00Z,2018-05-24T12:00:00Z,2018-07-01T12:00:00Z,2018-07-19T12:00:00Z,2018-08-10T12:00:00Z,2018-08-11T12:00:00Z,2018-08-17T12:00:00Z,2018-08-24T12:00:00Z,2018-09-09T12:00:00Z,2018-09-13T12:00:00Z,2018-05-19T12:00:00Z,2018-05-23T12:00:00Z,2018-06-30T12:00:00Z,2018-07-18T12:00:00Z,2018-08-09T12:00:00Z,2018-08-10T12:00:00Z,2018-08-16T12:00:00Z,2018-08-23T12:00:00Z,2018-09-08T12:00:00Z,2018-09-12T12:00:00Z,2018-09-27T12:00:00Z,125,140,144,182,200,222,223,229,236,252,256,14,3,37,17,21,0,5,6,15,3,14,139,143,181,199,221,222,228,235,251,255,270
76,mead_ne,41.15785,-96.42075,1,2018-05-17,10,2018,early1,938.5327834338874,11,2018-05-03,2018-05-17,97,2018-08-22,2018-08-26,2018-09-09,Harvested at Maturity.,1.5833333174387614,2.4759999752044677,5.304642864636013,7.649411692338831,1.802777820163303,0,3.4237499237060547,3.3250000079472857,5.3808331688245135,1.2675000131130219,8.773333398501078,1.5833333174387614,2.4759999752044677,5.304642864636013,7.649411692338831,1.802777820163303,0,3.4237499237060547,3.3250000079472857,5.3808331688245135,1.2675000131130219,8.773333398501078,20.160080846150716,14.242370367050171,20.252794538225444,18.627152891720044,21.308266427781845,22.922496795654297,20.817620515823364,17.260784149169922,16.063965400060017,16.25761842727661,13.880077902475993,25.668000094095866,22.567999839782715,31.950357300894602,28.805294261259192,30.702777862548828,28.559999465942383,27.706249713897705,30.986666679382324,28.674999872843426,25.262499809265137,27.035999806722007,18.481333351135255,17.746000003814697,25.278392910957336,23.558235364801742,24.783055570390488,22.214999675750732,21.431874811649323,25.088333288828533,23.3125,20.16374981403351,22.174666595458984,11.294666608174643,12.924000167846678,18.60642852102007,18.311176468344296,18.86333327823215,15.869999885559082,15.15749990940094,19.18999989827474,17.950000127156574,15.06499981880188,17.313333384195964,8.492844215913614,7.7460000038146974,10.571186207103823,9.967016759869454,11.610704855108379,10.786444974843343,10.442817927939142,14.021328942126317,12.965696536116035,10.252738168522715,11.048087500958443,8.492844215913614,7.7460000038146974,10.571186207103823,9.967016759869454,11.610704855108379,10.786444974843343,10.442817927939142,14.021328942126317,12.965696536116035,10.252738168522715,11.048087500958443,0,0,295.99321379890694,465.4324987166875,674.4251861086384,685.2116310834817,768.7541745069949,852.8821481597529,1008.4705065931452,1049.481459267236,1049.481459267236,0,0,0.9984464304787772,0.9847941174226649,1,1,0.9973749995231629,1,1,0.9096249699592591,0.06666666666666667,1,1,1,1,1,1,1,1,1,1,1,0.8152333354949951,0.7394999980926513,0.9984464304787772,0.9847941174226649,1,1,0.9973749995231629,1,1,0.9096249699592591,0.962333329518636,1,1,1,1,0.9999999999999999,0.9999999999999998,0.9999999999999998,1,1,1,1,2018-05-03T12:00:00Z,2018-05-18T12:00:00Z,2018-05-23T12:00:00Z,2018-06-20T12:00:00Z,2018-07-07T12:00:00Z,2018-07-25T12:00:00Z,2018-07-26T12:00:00Z,2018-08-03T12:00:00Z,2018-08-09T12:00:00Z,2018-08-21T12:00:00Z,2018-08-25T12:00:00Z,2018-05-17T12:00:00Z,2018-05-22T12:00:00Z,2018-06-19T12:00:00Z,2018-07-06T12:00:00Z,2018-07-24T12:00:00Z,2018-07-25T12:00:00Z,2018-08-02T12:00:00Z,2018-08-08T12:00:00Z,2018-08-20T12:00:00Z,2018-08-24T12:00:00Z,2018-09-08T12:00:00Z,123,138,143,171,188,206,207,215,221,233,237,14,4,27,16,17,0,7,5,11,3,14,137,142,170,187,205,206,214,220,232,236,251
77,ridgetown_ont,42.4527,-81.8803,1,2018-05-31,40,2018,early1,762.0842648756679,11,2018-05-17,2018-05-31,107,2018-09-15,2018-09-19,2018-10-03,Harvested at Maturity.,0.8013333400090535,1.484000015258789,1.8767567679688737,4.017647077055538,3.135882384636823,22.200000762939453,2.8925000429153442,1.8516666889190674,2.429285705089569,0,5.968666593233745,0.8013333400090535,1.484000015258789,1.8767567679688737,4.017647077055538,3.135882384636823,22.200000762939453,2.8925000429153442,1.8516666889190674,2.429285705089569,0,5.968666593233745,20.546619987487794,17.663002014160156,21.354310319230365,17.783417533425723,17.605960902045755,7.3390960693359375,16.079867124557495,13.323775450388592,14.045572144644602,15.215556144714355,12.909185123443603,24.86533342997233,21.83199996948242,26.446216222402214,27.160000184003046,27.564705904792337,24.989999771118164,25.492500066757202,27.549999872843426,24.598571368626185,26.797500610351563,21.023333231608074,19.142000039418537,17.65200004577637,21.044999998969,22.007058900945328,22.600294141208426,22.760000228881836,20.9787500500679,23.724999745686848,20.546785627092635,22.18125033378601,16.12233328819275,13.418666648864747,13.472000122070313,15.64378377553579,16.85411761788761,17.63588237762451,20.530000686645508,16.4650000333786,19.899999618530273,16.494999885559082,17.56500005722046,11.221333344777426,9.199907871253092,7.652000045776368,8.050625582174659,9.920660453124704,12.062776951532705,12.760000228881836,11.086448666673899,13.690809949668248,10.694817152893117,12.18125033378601,5.539128349749446,9.199907871253092,7.652000045776368,8.050625582174659,9.920660453124704,12.062776951532705,12.760000228881836,11.086448666673899,13.690809949668248,10.694817152893117,12.18125033378601,5.539128349749446,0,0,297.8731465404624,466.52437424358226,671.5915824196384,684.3515826485202,773.0431719819113,855.1880316799208,1004.9154718204244,1053.6404731555683,1053.6404731555683,0,0,0.9210135099050161,0.9784117670620189,1,1,0.9560000002384186,0.9869166692097981,0.8495357104710171,1,0.06666666666666667,1,1,1,1,1,1,1,1,1,1,1,0.7860333410898844,0.7257999992370606,0.9210135099050161,0.9784117670620189,1,1,0.9560000002384186,0.9869166692097981,0.8495357104710171,1,0.5792666641871135,1,1,1,0.9999999999999999,1,1,0.9999999999999999,0.9999999999999999,1,1,1,2018-05-17T12:00:00Z,2018-06-01T12:00:00Z,2018-06-06T12:00:00Z,2018-07-13T12:00:00Z,2018-07-30T12:00:00Z,2018-08-16T12:00:00Z,2018-08-17T12:00:00Z,2018-08-25T12:00:00Z,2018-08-31T12:00:00Z,2018-09-14T12:00:00Z,2018-09-18T12:00:00Z,2018-05-31T12:00:00Z,2018-06-05T12:00:00Z,2018-07-12T12:00:00Z,2018-07-29T12:00:00Z,2018-08-15T12:00:00Z,2018-08-16T12:00:00Z,2018-08-24T12:00:00Z,2018-08-30T12:00:00Z,2018-09-13T12:00:00Z,2018-09-17T12:00:00Z,2018-10-02T12:00:00Z,137,152,157,194,211,228,229,237,243,257,261,14,4,36,16,16,0,7,5,13,3,14,151,156,193,210,227,228,236,242,256,260,275
78,stpauls_ont,43.32515,-81.1402,1,2018-05-23,13,2018,early1,855.4588077162239,11,2018-05-09,2018-05-23,120,2018-09-20,2018-09-26,2018-10-10,Harvested at Maturity.,1.9926666736602783,0,2.0283720853716827,3.4076190903073265,3.3421053102141935,NA,6.835555606418186,0.9085714306150164,1.6462499797344208,2.484999974568685,4.413999978701273,1.9926666736602783,0,2.0283720853716827,3.4076190903073265,3.3421053102141935,NA,6.835555606418186,0.9085714306150164,1.6462499797344208,2.484999974568685,4.413999978701273,20.250433985392252,25.056279500325523,21.204069869462835,19.13801806313651,17.672456088819,NA,14.216892931196424,15.482716015407018,14.40693712234497,14.12317180633545,10.012533140182494,19.76733341217041,27.843333562215168,25.64255803130394,26.43238113040016,27.11578951383892,NA,24.40888892279731,26.514285768781388,24.149999976158142,20.97499990463257,18.42133331298828,13.450666689872742,19.855000098546345,19.701744201571444,20.582619099389937,21.63999999196906,NA,19.961666848924423,21.56428575515747,19.164062470197678,15.114999949932098,13.566666650772095,7.133999967575074,11.866666634877523,13.760930371838947,14.73285706837972,16.1642104700992,NA,15.51444477505154,16.614285741533553,14.178124964237213,9.254999995231628,8.711999988555908,4.218074334232608,9.912814237588643,6.955314265629253,8.46237241289918,11.080781477641565,NA,10.10595953164763,11.76665816728643,9.850965155304596,7.225693937593947,3.6702632226403553,4.218074334232608,9.912814237588643,6.955314265629253,8.46237241289918,11.080781477641565,NA,10.10595953164763,11.76665816728643,9.850965155304596,7.225693937593947,3.6702632226403553,0,0,299.0785134220579,476.7883340929408,687.3231821681305,NA,778.2768179529592,860.6434251239641,1018.2588676088378,1061.6130312344017,1061.6130312344017,0,0,0.831627902319265,0.9338571389516195,0.9947894698695132,NA,0.929000006781684,0.9145000049046108,0.7832812458276749,0.49341666897137965,0.05609999974568685,1,1,1,1,1,NA,1,1,1,1,1,0.3724666698773702,0.9178333361943563,0.831627902319265,0.9338571389516195,0.9947894698695132,NA,0.929000006781684,0.9145000049046108,0.7832812458276749,0.49341666897137965,0.3757666635513306,1,1,1,1,1,NA,0.9999999999999999,0.9999999999999999,1,1,1,2018-05-09T12:00:00Z,2018-05-24T12:00:00Z,2018-05-27T12:00:00Z,2018-07-09T12:00:00Z,2018-07-30T12:00:00Z,NA,2018-08-18T12:00:00Z,2018-08-27T12:00:00Z,2018-09-03T12:00:00Z,2018-09-19T12:00:00Z,2018-09-25T12:00:00Z,2018-05-23T12:00:00Z,2018-05-26T12:00:00Z,2018-07-08T12:00:00Z,2018-07-29T12:00:00Z,2018-08-17T12:00:00Z,NA,2018-08-26T12:00:00Z,2018-09-02T12:00:00Z,2018-09-18T12:00:00Z,2018-09-24T12:00:00Z,2018-10-09T12:00:00Z,129,144,147,190,211,NA,230,239,246,262,268,14,2,42,20,18,NA,8,6,15,5,14,143,146,189,210,229,NA,238,245,261,267,282
79,woodstock_ont,43.14542,-80.78348,1,2018-05-25,8,2018,early1,854.4428858647876,11,2018-05-11,2018-05-25,117,2018-09-19,2018-09-24,2018-10-08,Harvested at Maturity.,2.8266666889190675,0.7100000381469727,2.9183333090373447,4.879499971866608,3.343888911936018,10.4399995803833,6.433750033378601,1.1457142574446542,1.6825000029057264,0,5.294666719436646,2.8266666889190675,0.7100000381469727,2.9183333090373447,4.879499971866608,3.343888911936018,10.4399995803833,6.433750033378601,1.1457142574446542,1.6825000029057264,0,5.294666719436646,20.7968807220459,20.968940099080402,20.78228696187337,18.677495193481445,18.425847636328804,8.587360382080078,15.077992796897888,16.096661022731237,14.416861295700073,15.406978988647461,10.3928071975708,21.28466682434082,29.239999771118164,25.83761891864595,26.862000274658204,27.595555517408584,26.81999969482422,24.638749599456787,26.71714292253767,24.72187489271164,23.101999664306643,18.21066640218099,14.610666759808858,22.198333104451496,19.84226183664231,20.898750162124635,21.790833261277943,23.76499938964844,19.804999709129333,21.537142753601074,19.82593747973442,17.376999855041504,13.15733319123586,7.936666695276896,15.15666643778483,13.846904754638672,14.935500049591065,15.986111005147299,20.709999084472656,14.97124981880188,16.357142584664484,14.930000066757202,11.652000045776367,8.10399998029073,5.16649887418429,12.061555027254423,7.07554434335511,8.771702211885415,11.212942156226871,13.764999389648436,9.989201417008786,11.792575196310453,10.356995591404289,8.506173702766896,3.6049641263935968,5.16649887418429,12.061555027254423,7.07554434335511,8.771702211885415,11.212942156226871,13.764999389648436,9.989201417008786,11.792575196310453,10.356995591404289,8.506173702766896,3.6049641263935968,0,0,297.1728624209147,472.606906658623,674.4398654707068,688.2048648603552,768.1184761964255,850.6665025705986,1016.3784320330674,1058.909300546902,1058.909300546902,0,0,0.8405714239392962,0.94597501039505,0.9957222223281861,1,0.9296249866485596,0.9167142868041992,0.8123437464237213,0.7031999969482422,0.010333332220713299,1,1,1,1,1,1,1,1,1,1,1,0.48110000610351566,1,0.8405714239392962,0.94597501039505,0.9957222223281861,1,0.9296249866485596,0.9167142868041992,0.8123437464237213,0.7031999969482422,0.3325999855995178,1,1,1,0.9999999999999999,1,0.9999999999999998,1,0.9999999999999999,1,1,1,2018-05-11T12:00:00Z,2018-05-26T12:00:00Z,2018-05-29T12:00:00Z,2018-07-10T12:00:00Z,2018-07-30T12:00:00Z,2018-08-17T12:00:00Z,2018-08-18T12:00:00Z,2018-08-26T12:00:00Z,2018-09-02T12:00:00Z,2018-09-18T12:00:00Z,2018-09-23T12:00:00Z,2018-05-25T12:00:00Z,2018-05-28T12:00:00Z,2018-07-09T12:00:00Z,2018-07-29T12:00:00Z,2018-08-16T12:00:00Z,2018-08-17T12:00:00Z,2018-08-25T12:00:00Z,2018-09-01T12:00:00Z,2018-09-17T12:00:00Z,2018-09-22T12:00:00Z,2018-10-07T12:00:00Z,131,146,149,191,211,229,230,238,245,261,266,14,2,41,19,17,0,7,6,15,4,14,145,148,190,210,228,229,237,244,260,265,280
80,ames_ia,42.0215,-93.7745,2,2018-05-25,15,2018,early2,1040.975306724834,11,2018-05-11,2018-05-25,111,2018-09-13,2018-09-17,2018-10-01,Harvested at Maturity.,1.3180000066757203,0,10.345714296613421,3.570526311272069,3.775909120386297,NA,8.052857194628034,4.108749940991402,8.817999935150146,0,5.350000075499216,1.3180000066757203,0,10.345714296613421,3.570526311272069,3.775909120386297,NA,8.052857194628034,4.108749940991402,8.817999935150146,0,5.350000075499216,18.919795417785643,25.22194480895996,18.189813205174037,21.53430331380744,20.642205455086447,NA,15.042583601815359,15.455547094345093,13.576800537109374,17.747169494628906,12.402026653289795,24.580666732788085,35.71666717529297,28.75057144165039,29.942105042307002,28.317272793162953,NA,28.254286084856307,26.40625,25.20933329264323,29.880000114440918,21.974000040690104,18.718333307902018,27.03333346048991,23.113714354378835,24.222631454467773,21.925681807778098,NA,23.01714311327253,21.208750009536743,20.215333302815754,22.977499961853027,16.52699998219808,12.85599988301595,18.349999745686848,17.47685726710728,18.503157866628545,15.534090822393244,NA,17.780000141688756,16.011250019073486,15.221333312988282,16.074999809265137,11.079999923706055,8.705356514489651,12.857036112348238,8.18452256616512,9.60376674930867,10.146460645579044,NA,12.79298582618807,11.32744110255912,10.593147129701773,12.647996772775056,5.900178377924362,8.705356514489651,12.857036112348238,8.18452256616512,9.60376674930867,10.146460645579044,NA,12.79298582618807,11.32744110255912,10.593147129701773,12.647996772775056,5.900178377924362,0,0,286.45828981577915,468.9298580526439,692.1519922553827,NA,781.7028930386991,872.3224218591721,1031.2196288046987,1081.811615895799,1081.811615895799,0,0,0.9922285733904157,1,0.9844545364379883,NA,1,0.9412500083446502,0.879499994913737,1,0.06666666666666667,1,1,1,1,1,NA,1,1,1,1,1,0.7715333302815756,1,0.9922285733904157,1,0.9844545364379883,NA,1,0.9412500083446502,0.879499994913737,1,0.552766669591268,1,1,1,0.9999999999999999,0.9999999999999999,NA,0.9999999999999999,0.9999999999999999,0.9999999999999999,1,1,2018-05-11T12:00:00Z,2018-05-26T12:00:00Z,2018-05-29T12:00:00Z,2018-07-03T12:00:00Z,2018-07-22T12:00:00Z,NA,2018-08-13T12:00:00Z,2018-08-20T12:00:00Z,2018-08-28T12:00:00Z,2018-09-12T12:00:00Z,2018-09-16T12:00:00Z,2018-05-25T12:00:00Z,2018-05-28T12:00:00Z,2018-07-02T12:00:00Z,2018-07-21T12:00:00Z,2018-08-12T12:00:00Z,NA,2018-08-19T12:00:00Z,2018-08-27T12:00:00Z,2018-09-11T12:00:00Z,2018-09-15T12:00:00Z,2018-09-30T12:00:00Z,131,146,149,184,203,NA,225,232,240,255,259,14,2,34,18,21,NA,6,7,14,3,14,145,148,183,202,224,NA,231,239,254,258,273
81,pontiac_il,40.82216667,-88.62016667,2,2018-05-08,35,2018,early2,1180.887395392961,11,2018-04-24,2018-05-08,111,2018-08-27,2018-08-30,2018-09-13,Harvested at Maturity.,0.8859999895095826,2.3075000047683716,5.341176565955667,4.48250013589859,1.1434782795284106,0,0.36625000834465027,0.07166666785875957,2.2884615384615383,13.626667022705078,3.462000020345052,0.8859999895095826,2.3075000047683716,5.341176565955667,4.48250013589859,1.1434782795284106,0,0.36625000834465027,0.07166666785875957,2.2884615384615383,13.626667022705078,3.462000020345052,22.879222361246743,18.912126302719116,19.252311369952032,18.872536444664,21.251495941825535,19.486682891845703,20.80580163002014,20.16091839472453,17.441797990065353,15.002202351888021,14.728435611724853,23.39066645304362,26.172500133514404,28.608235359191895,29.853999900817872,28.570869694585387,23.65999984741211,29.162500143051147,29.958333015441895,28.123077245859,32.576666514078774,27.284000142415366,15.26366657714049,19.22125017642975,21.999705959768857,24.749999856948854,22.7147826526476,18.84499979019165,22.973125100135803,23.952500025431316,22.40038482959454,27.119999885559082,21.86000010172526,7.136666701237361,12.270000219345093,15.391176560345817,19.645999813079833,16.858695610709812,14.029999732971191,16.78375005722046,17.946667035420734,16.677692413330078,21.663333257039387,16.436000061035156,6.3921543410049875,9.221250176429749,8.430451134578952,9.389000855336167,9.565924605924357,7.44749882777084,11.106398009802305,13.091730156355991,12.405430647423648,15.603537825489044,10.60375562930425,6.3921543410049875,9.221250176429749,8.430451134578952,9.389000855336167,9.565924605924357,7.44749882777084,11.106398009802305,13.091730156355991,12.405430647423648,15.603537825489044,10.60375562930425,0,0,286.6353385756844,474.4153556824077,694.431621618668,701.8791204464388,790.7303045248573,869.2806854629932,1030.5512838795007,1077.3618973559678,1077.3618973559678,0,0,0.9707647085189819,0.9956749963760376,0.9959130411562712,0.8844999790191651,1,1,0.9765769224900466,1,0.06666666666666667,1,1,1,1,1,1,1,1,1,1,1,0.5368666627009709,0.8975000023841858,0.9707647085189819,0.9956749963760376,0.9959130411562712,0.8844999790191651,1,1,0.9765769224900466,1,0.9399000040690104,1,1,1,1,1,1,0.9999999999999999,1,1,0.9999999999999999,1,2018-04-24T12:00:00Z,2018-05-09T12:00:00Z,2018-05-13T12:00:00Z,2018-06-16T12:00:00Z,2018-07-06T12:00:00Z,2018-07-29T12:00:00Z,2018-07-30T12:00:00Z,2018-08-07T12:00:00Z,2018-08-13T12:00:00Z,2018-08-26T12:00:00Z,2018-08-29T12:00:00Z,2018-05-08T12:00:00Z,2018-05-12T12:00:00Z,2018-06-15T12:00:00Z,2018-07-05T12:00:00Z,2018-07-28T12:00:00Z,2018-07-29T12:00:00Z,2018-08-06T12:00:00Z,2018-08-12T12:00:00Z,2018-08-25T12:00:00Z,2018-08-28T12:00:00Z,2018-09-12T12:00:00Z,114,129,133,167,187,210,211,219,225,238,241,14,3,33,19,22,0,7,5,12,2,14,128,132,166,186,209,210,218,224,237,240,255
82,urbana_il,40.05325,-88.23485,2,2018-05-07,17,2018,early2,1127.863950851313,11,2018-04-23,2018-05-07,106,2018-08-21,2018-08-25,2018-09-08,Harvested at Maturity.,1.2693333228429158,11.206666310628256,4.148064617187746,6.9031579368992855,3.4740908416834744,10.399999618530272,2.056666625870599,0.09285713945116315,4.609166632095973,8.134999796748161,7.084666772683462,1.2693333228429158,11.206666310628256,4.148064617187746,6.9031579368992855,3.4740908416834744,10.399999618530272,2.056666625870599,0.09285713945116315,4.609166632095973,8.134999796748161,7.084666772683462,22.22492961883545,21.764448801676433,19.704659215865597,17.480928069666813,20.940312255512584,12.394432067871094,19.7944950527615,21.150508608136857,18.56061816215515,16.528199911117554,15.763375822703043,22.44933312733968,27.760000228881836,29.389677416893743,28.910526175247995,29.909090995788574,26.280000686645508,25.915555742051865,29.86857169015067,29.276666800181072,26.179999828338623,29.92666702270508,14.979333166281382,19.800000031789146,22.974193557616204,23.986052638606022,24.373636397448454,22.550000190734863,20.88222228156196,23.990000043596538,23.74958332379659,21.263749957084656,24.577000363667807,7.509333205223084,11.839999834696451,16.558709698338664,19.061579101964046,18.838181799108334,18.81999969482422,15.848888821072048,18.11142839704241,18.22249984741211,16.34750008583069,19.227333704630535,5.976867260297537,9.800000031789144,9.568581454401217,9.322304191649694,10.288788253142064,10.096554967578852,9.146456555241274,12.420182320593762,13.498666928396908,11.361806176167729,13.162472894473076,5.976867260297537,9.800000031789144,9.568581454401217,9.322304191649694,10.288788253142064,10.096554967578852,9.146456555241274,12.420182320593762,13.498666928396908,11.361806176167729,13.162472894473076,0,0,296.6260250864376,473.7498047277818,700.1031462969074,710.1997012644863,792.5178102616578,879.459086505814,1041.443089646577,1086.8903143512478,1086.8903143512478,0,0,0.9971935502944455,1,1,1,0.9755555523766412,1,1,0.9791249990463257,0.057266667683919276,1,1,1,1,1,1,1,1,1,1,1,0.49963332533836363,0.9433333237965902,0.9971935502944455,1,1,1,0.9755555523766412,1,1,0.9791249990463257,0.9906000010172527,1,1,1,1,0.9999999999999999,1,1,0.9999999999999999,1,0.9999999999999999,1,2018-04-23T12:00:00Z,2018-05-08T12:00:00Z,2018-05-11T12:00:00Z,2018-06-11T12:00:00Z,2018-06-30T12:00:00Z,2018-07-22T12:00:00Z,2018-07-23T12:00:00Z,2018-08-01T12:00:00Z,2018-08-08T12:00:00Z,2018-08-20T12:00:00Z,2018-08-24T12:00:00Z,2018-05-07T12:00:00Z,2018-05-10T12:00:00Z,2018-06-10T12:00:00Z,2018-06-29T12:00:00Z,2018-07-21T12:00:00Z,2018-07-22T12:00:00Z,2018-07-31T12:00:00Z,2018-08-07T12:00:00Z,2018-08-19T12:00:00Z,2018-08-23T12:00:00Z,2018-09-07T12:00:00Z,113,128,131,162,181,203,204,213,220,232,236,14,2,30,18,21,0,8,6,11,3,14,127,130,161,180,202,203,212,219,231,235,250
83,wanatah_in,41.4444,-86.9437,2,2018-05-25,20,2018,early2,977.3094761506848,11,2018-05-11,2018-05-25,108,2018-09-10,2018-09-16,2018-09-30,Harvested at Maturity.,3.625333348910014,0,3.0732431798367887,3.016500014066696,3.4900000214576723,NA,0.9628571442195347,8.210000191416059,4.053077010008005,0,2.3853333115577695,3.625333348910014,0,3.0732431798367887,3.016500014066696,3.4900000214576723,NA,0.9628571442195347,8.210000191416059,4.053077010008005,0,2.3853333115577695,18.813925361633302,23.037665367126465,19.255219859045905,20.419190883636475,19.136026620864868,NA,17.242850576128276,15.202607427324567,13.33814158806434,17.722120761871338,14.732347742716472,22.804666582743327,33.02500057220459,28.015675622063714,28.810000038146974,28.35850009918213,NA,28.69285719735282,26.371428898402623,28.361538373506985,24.606666882832844,25.230666605631512,16.875333309173584,25.90000009536743,22.587837760512894,23.17900004386902,22.68850004673004,NA,23.47642844063895,21.277143001556396,23.449230634249172,18.41083351771037,19.050999959309895,10.946000035603841,18.774999618530273,17.159999898962074,17.548000049591064,17.018499994277953,NA,18.259999683925084,16.18285710471017,18.53692289499136,12.21500015258789,12.87133331298828,6.86072002915899,14.03196044136882,7.978249352794777,9.329936320131994,10.92695678405114,NA,13.357274427538371,11.16501959869521,12.752438219900315,8.963353067258002,8.170107479741375,6.86072002915899,14.03196044136882,7.978249352794777,9.329936320131994,10.92695678405114,NA,13.357274427538371,11.16501959869521,12.752438219900315,8.963353067258002,8.170107479741375,0,0,295.19522605340677,481.7939524560466,700.3330881370694,NA,793.8340091298379,871.9891463207044,1037.7708431794088,1091.5509615829567,1091.5509615829567,0,0,0.9694324338758314,0.9980250024795532,0.9869250011444092,NA,1,0.9605000087193081,0.9554230726682222,0.8148333549499512,0.06666666666666667,1,1,1,1,1,NA,1,1,1,1,1,0.6554666646321615,1,0.9694324338758314,0.9980250024795532,0.9869250011444092,NA,1,0.9605000087193081,0.9554230726682222,0.8148333549499512,0.7381666723887126,1,1,1,1,0.9999999999999999,NA,1,1,1,1,1,2018-05-11T12:00:00Z,2018-05-26T12:00:00Z,2018-05-28T12:00:00Z,2018-07-04T12:00:00Z,2018-07-24T12:00:00Z,NA,2018-08-13T12:00:00Z,2018-08-20T12:00:00Z,2018-08-27T12:00:00Z,2018-09-09T12:00:00Z,2018-09-15T12:00:00Z,2018-05-25T12:00:00Z,2018-05-27T12:00:00Z,2018-07-03T12:00:00Z,2018-07-23T12:00:00Z,2018-08-12T12:00:00Z,NA,2018-08-19T12:00:00Z,2018-08-26T12:00:00Z,2018-09-08T12:00:00Z,2018-09-14T12:00:00Z,2018-09-29T12:00:00Z,131,146,148,185,205,NA,225,232,239,252,258,14,1,36,19,19,NA,6,6,12,5,14,145,147,184,204,224,NA,231,238,251,257,272
84,eastlansing_mi,42.6296,-84.4375,2,2018-06-07,16,2018,early2,938.506336775197,11,2018-05-24,2018-06-07,117,2018-10-02,2018-10-09,2018-10-23,Harvested at Maturity.,1.8979999383290609,6.2749998569488525,1.097894743869179,3.3105262863008598,1.3973684122687893,0,5.276666800181071,2.0589999675750734,4.52666672733095,7.229999950953892,1.837333345413208,1.8979999383290609,6.2749998569488525,1.097894743869179,3.3105262863008598,1.3973684122687893,0,5.276666800181071,2.0589999675750734,4.52666672733095,7.229999950953892,1.837333345413208,20.991928164164225,16.135050535202026,21.83538697895251,17.933872649544163,17.31998388390792,16.477319717407227,16.08778142929077,13.755026054382324,14.088083320193821,10.16431256702968,9.996239185333252,27.259999974568686,23.567500114440918,28.632894716764753,27.49894784626208,27.404210642764443,31.34000015258789,27.709999720255535,24.075,23.049444887373184,19.742857251848495,14.728666591644288,20.776000006993613,18.96874988079071,22.303157869138214,21.859473931161983,21.91000004818565,25.914999961853027,21.87916644414266,19.29300003051758,17.201666898197598,14.603571449007307,9.506999970475833,14.292000039418538,14.369999647140503,15.97342102151168,16.220000016061885,16.415789453606855,20.489999771118164,16.048333168029785,14.511000061035157,11.353888909022013,9.46428564616612,4.285333349307378,10.47224811404427,8.968749880790712,7.623273101764929,9.488674735036163,11.555110003121088,15.397029239535332,12.091644765657186,9.7750243614012,8.829787828662495,6.663916083479354,2.015095289173387,10.47224811404427,8.968749880790712,7.623273101764929,9.488674735036163,11.555110003121088,15.397029239535332,12.091644765657186,9.7750243614012,8.829787828662495,6.663916083479354,2.015095289173387,0,0,289.68437786706727,469.9691978327545,689.5162878920552,704.9133171315905,777.4631857255335,875.2134293395457,1034.1496102554704,1080.7970228398258,1080.7970228398258,0,0,0.971539474788465,0.9933421059658653,0.9821052626559609,1,0.946999994913737,0.7575500011444092,0.6491389049424066,0.4603571449007307,0.06666666666666667,1,1,1,1,1,1,1,1,1,1,1,0.8601000038782756,0.8789999961853028,0.971539474788465,0.9933421059658653,0.9821052626559609,1,0.946999994913737,0.7575500011444092,0.6491389049424066,0.4603571449007307,0.2122333304087321,1,1,1,1,0.9999999999999999,1,1,1,1,0.9999999999999999,1,2018-05-24T12:00:00Z,2018-06-08T12:00:00Z,2018-06-12T12:00:00Z,2018-07-20T12:00:00Z,2018-08-08T12:00:00Z,2018-08-27T12:00:00Z,2018-08-28T12:00:00Z,2018-09-03T12:00:00Z,2018-09-13T12:00:00Z,2018-10-01T12:00:00Z,2018-10-08T12:00:00Z,2018-06-07T12:00:00Z,2018-06-11T12:00:00Z,2018-07-19T12:00:00Z,2018-08-07T12:00:00Z,2018-08-26T12:00:00Z,2018-08-27T12:00:00Z,2018-09-02T12:00:00Z,2018-09-12T12:00:00Z,2018-09-30T12:00:00Z,2018-10-07T12:00:00Z,2018-10-22T12:00:00Z,144,159,163,201,220,239,240,246,256,274,281,14,3,37,18,18,0,5,9,17,6,14,158,162,200,219,238,239,245,255,273,280,295
85,lenawee_mi,41.9,-84.07,2,2018-05-29,41,2018,early2,1010.6399286919154,11,2018-05-15,2018-05-29,113,2018-09-19,2018-09-24,2018-10-08,Harvested at Maturity.,2.733333365122477,5.100000023841858,1.7617499828338623,2.9642857824053084,3.1711111532317267,0,4.545714378356934,1.3214285714285714,1.8693333705266317,2.11200008392334,6.826666673024495,2.733333365122477,5.100000023841858,1.7617499828338623,2.9642857824053084,3.1711111532317267,0,4.545714378356934,1.3214285714285714,1.8693333705266317,2.11200008392334,6.826666673024495,21.103632418314618,16.40185260772705,20.95917809009552,20.42870076497396,17.21724886364407,17.379697799682617,16.908883094787598,16.344673020499094,14.421915022532145,14.345026016235352,12.599444675445557,26.733333079020184,31.295000076293945,27.95325016975403,28.796666735694522,29.318888876173233,27.239999771118164,26.74571418762207,29.540000098092214,25.87199993133545,26.799999237060547,21.972666803995768,19.49233325322469,25.68250036239624,21.748750108480454,21.962857178279332,23.14194435543484,21.99499988555908,20.544285569872176,23.555714470999582,20.40166664123535,20.469999599456788,15.558666737874349,12.251333427429199,20.070000648498535,15.544250047206878,15.129047620864142,16.964999834696453,16.75,14.34285695212228,17.571428843906947,14.931333351135255,14.139999961853027,9.14466667175293,9.007113804730574,15.215112466990945,7.2864421336152505,8.795930379971365,12.06457646330863,11.994999885559082,10.815643664847101,13.343146922775679,10.540978828466734,10.831976053731442,5.637309096892277,9.007113804730574,15.215112466990945,7.2864421336152505,8.795930379971365,12.06457646330863,11.994999885559082,10.815643664847101,13.343146922775679,10.540978828466734,10.831976053731442,5.637309096892277,0,0,291.45768534461007,476.1722233240088,693.334599663564,705.329599549123,781.0391052030527,874.4411336624826,1032.5558160894834,1086.7156963581406,1086.7156963581406,0,0,0.9442875057458878,0.992785712650844,1,1,0.9405714307512556,0.9923571450369699,0.8396333376566569,0.8571999931335449,0.02670000235239665,1,1,1,1,1,1,1,1,1,1,1,0.8197999922434489,1,0.9442875057458878,0.992785712650844,1,1,0.9405714307512556,0.9923571450369699,0.8396333376566569,0.8571999931335449,0.5495666758219401,1,1,1,0.9999999999999999,1,1,1,1,1,1,1,2018-05-15T12:00:00Z,2018-05-30T12:00:00Z,2018-06-01T12:00:00Z,2018-07-11T12:00:00Z,2018-08-01T12:00:00Z,2018-08-19T12:00:00Z,2018-08-20T12:00:00Z,2018-08-27T12:00:00Z,2018-09-03T12:00:00Z,2018-09-18T12:00:00Z,2018-09-23T12:00:00Z,2018-05-29T12:00:00Z,2018-05-31T12:00:00Z,2018-07-10T12:00:00Z,2018-07-31T12:00:00Z,2018-08-18T12:00:00Z,2018-08-19T12:00:00Z,2018-08-26T12:00:00Z,2018-09-02T12:00:00Z,2018-09-17T12:00:00Z,2018-09-22T12:00:00Z,2018-10-07T12:00:00Z,135,150,152,192,213,231,232,239,246,261,266,14,1,39,20,17,0,6,6,14,4,14,149,151,191,212,230,231,238,245,260,265,280
86,lamberton_mn,44.24095,-95.3115,2,2018-05-16,42,2018,early2,1215.4657342358205,11,2018-05-02,2018-05-16,124,2018-09-17,2018-09-23,2018-10-07,Harvested at Maturity.,1.7846667130788167,4.336000061035156,7.875952353080113,4.298095260347639,2.0872727767987684,2.5799999237060547,1.841249968856573,1.6874999850988388,1.9039999802907308,23.798333009084065,1.1126666863759358,1.7846667130788167,4.336000061035156,7.875952353080113,4.298095260347639,2.0872727767987684,2.5799999237060547,1.841249968856573,1.6874999850988388,1.9039999802907308,23.798333009084065,1.1126666863759358,20.752431869506836,18.78827838897705,17.632091783341906,20.969644864400227,20.092605937610973,12.725261688232422,16.770960330963135,15.892105400562286,15.233203983306884,9.081914027531942,12.09269609451294,21.796666463216145,22.96799964904785,27.887142862592423,28.926190421694802,27.802272883328524,27.75,25.704999923706055,25.448750019073486,26.56933339436849,21.666666666666668,15.946666526794434,15.28466658592224,16.96799988746643,22.42166666757493,23.553809415726434,21.72045462781733,22.90499973297119,20.47124981880188,20.0587500333786,20.88033326466878,17.856666564941406,10.507999939719836,8.772666708628336,10.968000125885009,16.95619047255743,18.18142840975807,15.63863637230613,18.059999465942383,15.237499713897705,14.668750047683716,15.191333134969076,14.046666463216146,5.069333352645239,5.779938223255674,7.0983389073097705,7.008804542139273,8.565891426020874,9.701720338912988,12.256089897604712,10.506359121767291,10.401001808179169,11.06353414578716,8.323062301213541,2.301774460402628,5.779938223255674,7.0983389073097705,7.008804542139273,8.565891426020874,9.701720338912988,12.256089897604712,10.506359121767291,10.401001808179169,11.06353414578716,8.323062301213541,2.301774460402628,0,0,294.36979076984943,474.2535107162878,687.6913581723736,699.9474480699783,783.9983210441167,867.2063355095501,1033.1593476963574,1083.0977215036387,1083.0977215036387,0,0,0.9796071404502505,1,0.9568409117785367,1,0.9431249916553497,0.8746875047683715,0.9045333353678385,0.6818333307902018,0.02063333034515381,1,1,1,1,1,1,1,1,1,1,1,0.5358666610717774,0.6105999994277954,0.9796071404502505,1,0.9568409117785367,1,0.9431249916553497,0.8746875047683715,0.9045333353678385,0.6818333307902018,0.21756665865580244,1,1,1,1,1,1,1,0.9999999999999999,0.9999999999999999,0.9999999999999999,1,2018-05-02T12:00:00Z,2018-05-17T12:00:00Z,2018-05-22T12:00:00Z,2018-07-03T12:00:00Z,2018-07-24T12:00:00Z,2018-08-15T12:00:00Z,2018-08-16T12:00:00Z,2018-08-24T12:00:00Z,2018-09-01T12:00:00Z,2018-09-16T12:00:00Z,2018-09-22T12:00:00Z,2018-05-16T12:00:00Z,2018-05-21T12:00:00Z,2018-07-02T12:00:00Z,2018-07-23T12:00:00Z,2018-08-14T12:00:00Z,2018-08-15T12:00:00Z,2018-08-23T12:00:00Z,2018-08-31T12:00:00Z,2018-09-15T12:00:00Z,2018-09-21T12:00:00Z,2018-10-06T12:00:00Z,122,137,142,184,205,227,228,236,244,259,265,14,4,41,20,21,0,7,7,14,5,14,136,141,183,204,226,227,235,243,258,264,279
87,waseca_mn,44.07345,-93.53225,2,2018-05-17,43,2018,early2,1157.0833682176024,11,2018-05-03,2018-05-17,125,2018-09-19,2018-09-25,2018-10-09,Harvested at Maturity.,4.887333273887634,0.678000020980835,5.450476192292713,4.023181816393679,2.7445455220612613,0,1.2162500023841858,6.730000019073486,10.404666646321614,12.656666914621988,3.1366666793823246,4.887333273887634,0.678000020980835,5.450476192292713,4.023181816393679,2.7445455220612613,0,1.2162500023841858,6.730000019073486,10.404666646321614,12.656666914621988,3.1366666793823246,18.974684524536134,18.762599182128906,17.559900624411448,20.965149489316072,19.79519020427357,16.96513557434082,16.314549803733826,12.533250868320465,14.851395829518635,10.469594955444336,9.694600613911946,21.58199996948242,21.729999923706053,27.642142886207218,27.957272616299715,27.172727238048207,26.690000534057617,25.0625,25.362499713897705,26.200000127156574,20.798333485921226,14.188000043233236,15.609333292643228,16.21299991607666,22.398214272090367,22.629999962720003,21.352727261456575,21.975000381469727,19.771875023841858,20.531249940395355,20.66200002034505,16.136666735013325,9.839333380262056,9.636666615804037,10.695999908447266,17.154285657973517,17.30272730914029,15.532727284864947,17.260000228881836,14.481250047683716,15.700000166893005,15.12399991353353,11.474999984105427,5.490666717290878,5.920275414384008,6.293546942870616,7.083156766219335,8.192835610379767,9.76303707037325,11.67763460753352,10.04307339472344,10.89051418258697,10.994337654380798,7.665388821261625,1.3881216423405458,5.920275414384008,6.293546942870616,7.083156766219335,8.192835610379767,9.76303707037325,11.67763460753352,10.04307339472344,10.89051418258697,10.994337654380798,7.665388821261625,1.3881216423405458,0,0,297.49258418121195,477.73496760956687,692.5217831577786,704.1994177653121,784.5440049230996,871.6681183837953,1036.5831831995074,1082.5755161270772,1082.5755161270772,0,0,0.9791547604969569,0.9978636394847523,0.9517727201635188,1,0.9133750021457673,0.8943125069141388,0.8820333353678386,0.6049999992052714,0.05126667022705078,1,1,1,1,1,1,1,1,1,1,1,0.569133324623108,0.601599988937378,0.9791547604969569,0.9978636394847523,0.9517727201635188,1,0.9133750021457673,0.8943125069141388,0.8820333353678386,0.6049999992052714,0.1622333335876465,1,1,1,0.9999999999999999,1,1,1,1,1,0.9999999999999998,1,2018-05-03T12:00:00Z,2018-05-18T12:00:00Z,2018-05-23T12:00:00Z,2018-07-04T12:00:00Z,2018-07-26T12:00:00Z,2018-08-17T12:00:00Z,2018-08-18T12:00:00Z,2018-08-26T12:00:00Z,2018-09-03T12:00:00Z,2018-09-18T12:00:00Z,2018-09-24T12:00:00Z,2018-05-17T12:00:00Z,2018-05-22T12:00:00Z,2018-07-03T12:00:00Z,2018-07-25T12:00:00Z,2018-08-16T12:00:00Z,2018-08-17T12:00:00Z,2018-08-25T12:00:00Z,2018-09-02T12:00:00Z,2018-09-17T12:00:00Z,2018-09-23T12:00:00Z,2018-10-08T12:00:00Z,123,138,143,185,207,229,230,238,246,261,267,14,4,41,21,21,0,7,7,14,5,14,137,142,184,206,228,229,237,245,260,266,281
88,mead_ne,41.15785,-96.42075,2,2018-05-17,10,2018,early2,1006.35447316705,11,2018-05-03,2018-05-17,107,2018-09-01,2018-09-05,2018-09-19,Harvested at Maturity.,1.5833333174387614,2.4759999752044677,5.716562487185001,5.03368417840255,3.1600000208074395,NA,1.4671428203582764,1.8316666682561238,4.527856997081211,21.397500157356262,3.618666712443034,1.5833333174387614,2.4759999752044677,5.716562487185001,5.03368417840255,3.1600000208074395,NA,1.4671428203582764,1.8316666682561238,4.527856997081211,21.397500157356262,3.618666712443034,20.160080846150716,14.242370367050171,19.397568583488464,21.317694162067614,20.37957442890514,NA,18.49749592372349,16.13182504971822,15.874680348805018,11.32585072517395,15.351318709055583,25.668000094095866,22.567999839782715,30.973750174045563,31.14263173153526,28.985909028486773,NA,30.951428277151926,29.178332964579266,27.112857001168386,28.350000381469727,27.608666229248048,18.481333351135255,17.746000003814697,24.6154688000679,25.229736880252236,23.036818157542836,NA,24.993571281433105,23.63833316167196,21.802499975476945,23.62625026702881,22.098999722798666,11.294666608174643,12.924000167846678,18.25718742609024,19.316842028969212,17.0877272865989,NA,19.035714285714285,18.09833335876465,16.492142949785507,18.90250015258789,16.589333216349285,8.492844215913614,7.7460000038146974,8.935824084437957,9.605551918554317,10.191600802856735,NA,13.230579372353452,13.00645910164361,11.686206795957684,13.544740586984158,10.881811935237248,8.492844215913614,7.7460000038146974,8.935824084437957,9.605551918554317,10.191600802856735,NA,13.230579372353452,13.00645910164361,11.686206795957684,13.544740586984158,10.881811935237248,0,0,285.94637070201463,468.45185715454664,692.6670748173947,NA,785.281130423869,863.3198850337307,1026.9267801771382,1081.105742525075,1081.105742525075,0,0,0.9905625015497208,1,0.9990454543720593,NA,1,1,0.9562142780848912,1,0.06666666666666667,1,1,1,1,1,NA,1,1,1,1,1,0.8152333354949951,0.7394999980926513,0.9905625015497208,1,0.9990454543720593,NA,1,1,0.9562142780848912,1,0.9567999903361003,1,1,1,0.9999999999999999,1,NA,0.9999999999999999,1,1,1,1,2018-05-03T12:00:00Z,2018-05-18T12:00:00Z,2018-05-23T12:00:00Z,2018-06-24T12:00:00Z,2018-07-13T12:00:00Z,NA,2018-08-04T12:00:00Z,2018-08-11T12:00:00Z,2018-08-17T12:00:00Z,2018-08-31T12:00:00Z,2018-09-04T12:00:00Z,2018-05-17T12:00:00Z,2018-05-22T12:00:00Z,2018-06-23T12:00:00Z,2018-07-12T12:00:00Z,2018-08-03T12:00:00Z,NA,2018-08-10T12:00:00Z,2018-08-16T12:00:00Z,2018-08-30T12:00:00Z,2018-09-03T12:00:00Z,2018-09-18T12:00:00Z,123,138,143,175,194,NA,216,223,229,243,247,14,4,31,18,21,NA,6,5,13,3,14,137,142,174,193,215,NA,222,228,242,246,261
89,hoytville_oh,41.2126,-83.7578,2,2018-05-30,44,2018,early2,924.3804925696146,11,2018-05-16,2018-05-30,104,2018-09-11,2018-09-16,2018-09-30,Harvested at Maturity.,1.3913333098093668,4.566666603088379,4.729999950953893,0.9977777666515775,3.2973684009752775,0,10.34666665395101,4.064285687037876,2.2915384586040792,0.6380000114440918,1.543333371480306,1.3913333098093668,4.566666603088379,4.729999950953893,0.9977777666515775,3.2973684009752775,0,10.34666665395101,4.064285687037876,2.2915384586040792,0.6380000114440918,1.543333371480306,20.489294052124023,14.717572848002115,19.168685368129186,21.197447882758247,18.658083463969984,21.571714401245117,14.019929885864258,16.303026744297572,13.701686198894794,14.87063808441162,14.964808305104574,27.704666519165038,27.650000254313152,28.169142804827008,29.258888880411785,28.46894695884303,30.190000534057617,27.676666577657066,27.410000119890487,27.92923061664288,24.046000289916993,25.340000025431316,21.342666657765708,23.15000009536743,23.02928567613874,23.401388857099747,23.033420863904453,23.760000228881836,23.236666679382324,22.447857175554546,23.57115364074707,19.444000244140625,19.683333333333334,14.980666796366373,18.649999936421715,17.889428547450475,17.543888833787705,17.597894768965872,17.329999923706055,18.796666781107586,17.485714231218612,19.21307666485126,14.842000198364257,14.026666641235352,10.820623265050251,12.964406764316559,8.329709488684315,9.701834427290551,11.480573170683991,13.53380115488977,13.221605749162485,12.400324993365151,12.93084490975279,9.620049750523567,8.731007260646026,10.820623265050251,12.964406764316559,8.329709488684315,9.701834427290551,11.480573170683991,13.53380115488977,13.221605749162485,12.400324993365151,12.93084490975279,9.620049750523567,8.731007260646026,0,0,291.5398321039511,466.17285179518103,684.3037420381768,697.8375431930665,777.1671776880414,863.9694526415974,1032.0704364683838,1080.1706852210018,1080.1706852210018,0,0,0.9855999973842076,1,0.9995526313781739,1,1,0.9722142900739398,0.9416538458604079,0.8438000106811524,0.06666666666666667,1,1,1,1,1,1,1,1,1,1,1,0.9150999927520752,0.9856666723887125,0.9855999973842076,1,0.9995526313781739,1,1,0.9722142900739398,0.9416538458604079,0.8438000106811524,0.7713666598002116,1,1,1,0.9999999999999999,0.9999999999999999,1,1,1,0.9999999999999999,1,1,2018-05-16T12:00:00Z,2018-05-31T12:00:00Z,2018-06-03T12:00:00Z,2018-07-08T12:00:00Z,2018-07-26T12:00:00Z,2018-08-14T12:00:00Z,2018-08-15T12:00:00Z,2018-08-21T12:00:00Z,2018-08-28T12:00:00Z,2018-09-10T12:00:00Z,2018-09-15T12:00:00Z,2018-05-30T12:00:00Z,2018-06-02T12:00:00Z,2018-07-07T12:00:00Z,2018-07-25T12:00:00Z,2018-08-13T12:00:00Z,2018-08-14T12:00:00Z,2018-08-20T12:00:00Z,2018-08-27T12:00:00Z,2018-09-09T12:00:00Z,2018-09-14T12:00:00Z,2018-09-29T12:00:00Z,136,151,154,189,207,226,227,233,240,253,258,14,2,34,17,18,0,5,6,12,4,14,150,153,188,206,225,226,232,239,252,257,272
90,chatham_ont,42.38,-82.2524,2,2018-07-07,18,2018,early2,628.8578867647951,11,2018-06-23,2018-07-07,113,2018-10-28,2018-11-07,2018-11-21,Harvested at Maturity.,2.0260000228881836,0,3.9675862193107605,2.7700000554323196,1.9027777521146667,0,0,7.738333359360695,2.5104000186920166,8.096000051498413,1.7566666722297668,2.0260000228881836,0,3.9675862193107605,2.7700000554323196,1.9027777521146667,0,0,7.738333359360695,2.5104000186920166,8.096000051498413,1.7566666722297668,20.530489222208658,26.05342165629069,18.098205155339734,17.08312487602234,13.311280250549316,18.683170318603516,15.707786015101842,13.12955379486084,10.12875051498413,5.423438978195191,5.318537998199463,28.070666376749674,29.27333386739095,27.761034538005962,26.876874923706055,26.194999800788032,23.049999237060547,26.41285732814244,20.68083318074544,16.07519992828369,10.465000009536745,4.27533339659373,22.934666474660236,22.1850004196167,22.681206884055303,22.107187420129776,22.352499829398262,17.299999713897705,21.51642860685076,15.648333311080933,11.365799986124038,7.216999988351017,1.6186666837582986,17.798666572570802,15.096666971842447,17.601379230104644,17.337499916553497,18.50999985800849,11.550000190734863,16.619999885559082,10.615833441416422,6.656400043964386,3.9689999671652916,-1.0380000290771325,12.523761481242975,12.152645763605832,9.88626857091723,11.797355092968786,12.194916133923,7.299999713897705,11.536580693917616,7.325357381350547,6.5158566868493555,5,0,12.523761481242975,12.152645763605832,9.88626857091723,11.797355092968786,12.194916133923,7.299999713897705,11.536580693917616,7.325357381350547,6.5158566868493555,5,0,0,0,286.7017885565997,475.4594700441002,694.9679604547142,702.2679601686119,783.0240250260352,870.9283136022418,1033.8247307734755,1083.8247307734755,1083.8247307734755,0,0,0.9943793099502037,0.9870312452316284,0.9137499941719903,0.7299999713897706,0.9742857183728899,0.5416666587193807,0.28935999584197997,0.0030499982833862302,0.0026666673024495443,1,1,1,1,1,1,1,1,1,1,1,0.9533666642506917,1,0.9943793099502037,0.9870312452316284,0.9137499941719903,0.7299999713897706,0.9742857183728899,0.5416666587193807,0.28935999584197997,0.0030499982833862302,0.0026666673024495443,1,1,1,1,0.9999999999999999,1,0.9999999999999999,0.9999999999999999,1,1,1,2018-06-23T12:00:00Z,2018-07-08T12:00:00Z,2018-07-11T12:00:00Z,2018-08-09T12:00:00Z,2018-08-25T12:00:00Z,2018-09-12T12:00:00Z,2018-09-13T12:00:00Z,2018-09-20T12:00:00Z,2018-10-02T12:00:00Z,2018-10-27T12:00:00Z,2018-11-06T12:00:00Z,2018-07-07T12:00:00Z,2018-07-10T12:00:00Z,2018-08-08T12:00:00Z,2018-08-24T12:00:00Z,2018-09-11T12:00:00Z,2018-09-12T12:00:00Z,2018-09-19T12:00:00Z,2018-10-01T12:00:00Z,2018-10-26T12:00:00Z,2018-11-05T12:00:00Z,2018-11-20T12:00:00Z,174,189,192,221,237,255,256,263,275,300,310,14,2,28,15,17,0,6,11,24,9,14,188,191,220,236,254,255,262,274,299,309,324
91,ivesdale_il,39.9481,-88.44975,4,2018-05-14,26,2018,early4,1567.4133208712417,11,2018-04-30,2018-05-14,135,2018-09-26,2018-10-04,2018-10-18,Harvested at Maturity.,2.1006666819254556,0.5833333333333334,4.5295745147035475,3.758666674296061,2.7386956707290984,0,1.2416666547457378,12.62125027179718,0.7453333377838135,2.2950000315904617,1.6540000200271607,2.1006666819254556,0.5833333333333334,4.5295745147035475,3.758666674296061,2.7386956707290984,0,1.2416666547457378,12.62125027179718,0.7453333377838135,2.2950000315904617,1.6540000200271607,21.393454869588215,20.780452728271484,18.770384788513184,20.205333360036214,18.376959178758703,16.689517974853516,16.263652483622234,13.210489332675934,16.694972928365072,14.038751244544983,10.695965003967284,27.332000096638996,27.816666920979817,29.705106451156293,28.210000038146973,28.75130429475204,32.45000076293945,29.81666628519694,28.053749799728394,29.32399991353353,24.612499713897705,20.59133332570394,19.938000082969666,21.34833351771037,24.051063862252743,22.848833258946737,23.458478243454643,27.445000648498535,24.610833009084068,23.523124933242798,22.197333272298177,18.103749811649323,14.859666701157888,12.544000069300333,14.880000114440918,18.397021273349193,17.4876664797465,18.165652192157246,22.440000534057617,19.40499973297119,18.992500066757202,15.070666631062826,11.59499990940094,9.128000076611837,10.01906334060381,11.348333517710369,6.638652559608567,7.274611704014881,11.218750065759677,15.947512785056102,14.125836133833726,12.433138466972112,11.732477811572553,9.227627449603379,5.694584656383519,10.01906334060381,11.348333517710369,6.638652559608567,7.274611704014881,11.218750065759677,15.947512785056102,14.125836133833726,12.433138466972112,11.732477811572553,9.227627449603379,5.694584656383519,0,0,312.0166703016027,530.2550214220493,788.2862729345217,804.2337857195778,888.9888025225802,988.453910258357,1164.4410774319451,1238.262097028772,1238.262097028772,0,0,0.9983617021682415,0.9913500006993612,0.9881521743276845,1,1,0.934499990940094,0.9394333362579346,0.7418749988079071,0.06666666666666667,1,1,1,1,1,1,1,1,1,1,1,0.8888333360354106,1,0.9983617021682415,0.9913500006993612,0.9881521743276845,1,1,0.934499990940094,0.9394333362579346,0.7418749988079071,0.5246000035603842,1,1,1,1,1,1,1,1,1,1,1,2018-04-30T12:00:00Z,2018-05-15T12:00:00Z,2018-05-18T12:00:00Z,2018-07-04T12:00:00Z,2018-08-03T12:00:00Z,2018-08-26T12:00:00Z,2018-08-27T12:00:00Z,2018-09-02T12:00:00Z,2018-09-10T12:00:00Z,2018-09-25T12:00:00Z,2018-10-03T12:00:00Z,2018-05-14T12:00:00Z,2018-05-17T12:00:00Z,2018-07-03T12:00:00Z,2018-08-02T12:00:00Z,2018-08-25T12:00:00Z,2018-08-26T12:00:00Z,2018-09-01T12:00:00Z,2018-09-09T12:00:00Z,2018-09-24T12:00:00Z,2018-10-02T12:00:00Z,2018-10-17T12:00:00Z,120,135,138,185,215,238,239,245,253,268,276,14,2,46,29,22,0,5,7,14,7,14,134,137,184,214,237,238,244,252,267,275,290
92,neoga_il,39.323,-88.452,4,2018-05-11,45,2018,early4,1593.9530036976107,11,2018-04-27,2018-05-11,131,2018-09-19,2018-09-24,2018-10-08,Harvested at Maturity.,1.5833333333333333,0,5.9213636097582905,2.2692856958934238,5.7383999919891355,14.880000114440918,5.021249875426292,1.899999936421712,3.497333272298177,0.6239999771118164,4.968666744232178,1.5833333333333333,0,5.9213636097582905,2.2692856958934238,5.7383999919891355,14.880000114440918,5.021249875426292,1.899999936421712,3.497333272298177,0.6239999771118164,4.968666744232178,21.764883740743002,20.31150722503662,18.60418193990534,20.654787370136805,18.140016937255858,14.23180103302002,15.689130187034607,15.993584473927816,16.155895805358888,13.833949279785156,13.27657699584961,25.032000033060708,30.52999973297119,30.015908934853293,30.864285605294363,28.878800048828126,29.600000381469727,27.991250038146973,30.304999987284344,29.14933344523112,29.979999542236328,26.7766663869222,17.469000001748405,24.22249984741211,24.18590901114724,25.14589282444545,23.48959997177124,24.25500011444092,22.944374978542328,25.137500127156574,23.23966671625773,24.192999744415282,20.363666502634683,9.905999970436095,17.914999961853027,18.355909087441184,19.42750004359654,18.100399894714357,18.90999984741211,17.897499918937683,19.97000026702881,17.329999987284342,18.40599994659424,13.950666618347169,8.107720800635914,13.845973608899115,7.166343241036918,7.7825682028985925,10.294505777533152,13.069161492632574,12.222372914286284,14.51025333369573,12.416145591106414,12.917830760301351,9.726962602052689,8.107720800635914,13.845973608899115,7.166343241036918,7.7825682028985925,10.294505777533152,13.069161492632574,12.222372914286284,14.51025333369573,12.416145591106414,12.917830760301351,9.726962602052689,0,0,315.3191026056244,533.2310122867849,790.5936567251139,803.6628182177465,901.4418015320368,988.5033215342112,1174.7455054008071,1239.334659202314,1239.334659202314,0,0,0.999193181774833,1,0.9933399982452392,1,0.967125004529953,1,0.9668999989827474,0.9391000080108642,0.05736666361490886,1,1,1,1,1,1,1,1,1,1,1,0.7085333434740703,1,0.999193181774833,1,0.9933399982452392,1,0.967125004529953,1,0.9668999989827474,0.9391000080108642,0.8663999875386557,1,1,1,0.9999999999999999,1,1,0.9999999999999999,0.9999999999999999,1,1,1,2018-04-27T12:00:00Z,2018-05-12T12:00:00Z,2018-05-14T12:00:00Z,2018-06-27T12:00:00Z,2018-07-25T12:00:00Z,2018-08-19T12:00:00Z,2018-08-20T12:00:00Z,2018-08-28T12:00:00Z,2018-09-03T12:00:00Z,2018-09-18T12:00:00Z,2018-09-23T12:00:00Z,2018-05-11T12:00:00Z,2018-05-13T12:00:00Z,2018-06-26T12:00:00Z,2018-07-24T12:00:00Z,2018-08-18T12:00:00Z,2018-08-19T12:00:00Z,2018-08-27T12:00:00Z,2018-09-02T12:00:00Z,2018-09-17T12:00:00Z,2018-09-22T12:00:00Z,2018-10-07T12:00:00Z,117,132,134,178,206,231,232,240,246,261,266,14,1,43,27,24,0,7,5,14,4,14,131,133,177,205,230,231,239,245,260,265,280
93,urbana_il,40.05325,-88.23485,4,2018-05-08,17,2018,early4,1685.7568781962425,11,2018-04-24,2018-05-08,138,2018-09-23,2018-10-01,2018-10-15,Harvested at Maturity.,0.9673333088556925,11.206666310628256,5.41145841528972,2.8943332711855567,4.280399935245514,0,2.2085714595658437,0,6.613125115633011,4.419999957084656,1.8779999295870464,0.9673333088556925,11.206666310628256,5.41145841528972,2.8943332711855567,4.280399935245514,0,2.2085714595658437,0,6.613125115633011,4.419999957084656,1.8779999295870464,22.8994140625,20.779858907063804,18.701702396074932,21.027850437164307,18.338409576416016,21.89634132385254,15.683963094438825,18.640143076578777,15.144902020692825,13.92363691329956,11.458758958180745,23.044666481018066,28.490000406901043,29.14270826180776,29.358666801452635,28.336400146484376,25.829999923706055,29.007143020629883,32.451667149861656,28.719375014305115,22.837499856948853,23.69266678492228,15.348999838034311,21.011666774749756,23.328541666269302,23.81266670227051,23.09500003814697,19.164999961853027,24.019286019461497,25.86583375930786,22.513125032186508,16.639374881982803,17.680000100533167,7.653333195050558,13.533333142598469,17.514375070730846,18.266666603088378,17.85359992980957,12.5,19.031429018293107,19.28000036875407,16.3068750500679,10.441249907016754,11.667333416144054,6.314693618109226,11.011666774749756,6.561784714384702,7.2339334524956955,10.430289531867796,8.772536389747263,13.415566573856161,14.38203718597293,11.919467873461544,8.027700438954309,8.080992938117186,6.314693618109226,11.011666774749756,6.561784714384702,7.2339334524956955,10.430289531867796,8.772536389747263,13.415566573856161,14.38203718597293,11.919467873461544,8.027700438954309,8.080992938117186,0,0,314.9656662904656,531.9836698653365,792.7409081620311,801.5134445517784,895.4224105687715,981.714633684609,1172.4261196599934,1236.6477231716278,1236.6477231716278,0,0,0.9981875012318293,0.9997166665395101,0.9915399990081787,0.9164999961853028,0.9798571450369699,1,0.9593437492847443,0.6406249910593034,0.057599999109903974,1,1,1,1,1,1,1,1,1,1,1,0.5365999925136566,1,0.9981875012318293,0.9997166665395101,0.9915399990081787,0.9164999961853028,0.9798571450369699,1,0.9593437492847443,0.6406249910593034,0.7210666688283285,1,1,1,1,1,0.9999999999999998,1,0.9999999999999999,1,1,1,2018-04-24T12:00:00Z,2018-05-09T12:00:00Z,2018-05-12T12:00:00Z,2018-06-29T12:00:00Z,2018-07-29T12:00:00Z,2018-08-23T12:00:00Z,2018-08-24T12:00:00Z,2018-08-31T12:00:00Z,2018-09-06T12:00:00Z,2018-09-22T12:00:00Z,2018-09-30T12:00:00Z,2018-05-08T12:00:00Z,2018-05-11T12:00:00Z,2018-06-28T12:00:00Z,2018-07-28T12:00:00Z,2018-08-22T12:00:00Z,2018-08-23T12:00:00Z,2018-08-30T12:00:00Z,2018-09-05T12:00:00Z,2018-09-21T12:00:00Z,2018-09-29T12:00:00Z,2018-10-14T12:00:00Z,114,129,132,180,210,235,236,243,249,265,273,14,2,47,29,24,0,6,5,15,7,14,128,131,179,209,234,235,242,248,264,272,287
94,manhattan_ks,38.1326,-96.62,4,2018-05-18,27,2018,early4,1421.5876619441915,11,2018-05-04,2018-05-18,125,2018-09-20,2018-09-26,2018-10-10,Harvested at Maturity.,4.330666796366374,0.6274999976158142,4.887560926559495,2.2315999698638915,7.159130417782327,0,6.471428462437221,6.408571515764509,5.060666640599568,3.056666692097982,11.593333053588868,4.330666796366374,0.6274999976158142,4.887560926559495,2.2315999698638915,7.159130417782327,0,6.471428462437221,6.408571515764509,5.060666640599568,3.056666692097982,11.593333053588868,20.699779510498047,17.90108811855316,20.224059407303972,20.9222021484375,17.628705522288445,11.270193099975586,14.799952915736608,14.961888585771833,14.611170387268066,14.998685598373413,13.209488328297933,29.52399991353353,24.90500020980835,31.571707423140364,33.338399734497074,30.736521762350332,24.010000228881836,29.740000316074916,30.370000294276647,26.96866683959961,26.331666628519695,23.346000099182127,22.349666659037272,19.600000262260437,25.341585391905248,26.724999866485597,24.65391318694405,20.98499965667725,24.739286014011928,25.132857458932058,22.267666848500568,20.55999994277954,17.356666723887127,15.175333404541016,14.295000314712524,19.111463360670136,20.111599998474123,18.571304611537766,17.959999084472656,19.73857171194894,19.895714623587473,17.56666685740153,14.788333257039389,11.367333348592123,12.240696146223943,9.600000262260437,7.562347021260239,8.634374735596074,11.1354294111055,10.387115306852266,13.380857817793217,13.990565221006529,12.14605220040242,10.762927291671435,6.762885169659456,12.240696146223943,9.600000262260437,7.562347021260239,8.634374735596074,11.1354294111055,10.387115306852266,13.380857817793217,13.990565221006529,12.14605220040242,10.762927291671435,6.762885169659456,0,0,310.05622787166993,525.9155962615717,782.0304727169982,792.4175880238505,886.0835927484029,984.0175492954486,1166.208332301485,1230.7858960515134,1230.7858960515134,0,0,1,1,1,1,1,1,0.9668999989827474,0.8291666666666667,0.06666666666666667,1,1,1,1,1,1,1,1,1,1,1,0.9825333340962727,0.884125006198883,1,1,1,1,1,1,0.9668999989827474,0.8291666666666667,0.6665333398183187,1,1,1,1,1,1,1,0.9999999999999999,1,0.9999999999999999,1,2018-05-04T12:00:00Z,2018-05-19T12:00:00Z,2018-05-23T12:00:00Z,2018-07-03T12:00:00Z,2018-07-28T12:00:00Z,2018-08-20T12:00:00Z,2018-08-21T12:00:00Z,2018-08-28T12:00:00Z,2018-09-04T12:00:00Z,2018-09-19T12:00:00Z,2018-09-25T12:00:00Z,2018-05-18T12:00:00Z,2018-05-22T12:00:00Z,2018-07-02T12:00:00Z,2018-07-27T12:00:00Z,2018-08-19T12:00:00Z,2018-08-20T12:00:00Z,2018-08-27T12:00:00Z,2018-09-03T12:00:00Z,2018-09-18T12:00:00Z,2018-09-24T12:00:00Z,2018-10-09T12:00:00Z,124,139,143,184,209,232,233,240,247,262,268,14,3,40,24,22,0,6,6,14,5,14,138,142,183,208,231,232,239,246,261,267,282
95,onaga_ks,39.4889,-96.17,4,2018-05-11,46,2018,early4,1473.8838130586123,11,2018-04-27,2018-05-11,135,2018-09-23,2018-10-02,2018-10-16,Harvested at Maturity.,5.047999890645345,0,2.9953191939820636,1.6021428789411272,3.7737499674161277,3.130000114440918,2.577142826148442,20.21714268411909,0.9787500053644179,0.45666665501064724,11.585333426793417,5.047999890645345,0,2.9953191939820636,1.6021428789411272,3.7737499674161277,3.130000114440918,2.577142826148442,20.21714268411909,0.9787500053644179,0.45666665501064724,11.585333426793417,21.434519004821777,22.84866269429525,19.83245695398209,21.153817619596207,18.48234047492345,11.844871520996094,15.723205702645439,12.550678866250175,15.061155319213867,14.981266392601862,9.630868975321452,27.58066660563151,30.78333346048991,31.253404333236368,32.78142854145595,31.08583339055379,24.950000762939453,31.000000272478378,29.451428277151926,28.054375052452087,20.97999996609158,17.258666865030925,19.62633334795634,23.02333354949951,24.790106408139494,25.969821453094482,24.522083421548206,20.14000034332275,25.06000014713832,24.545714173998153,22.427812546491623,14.628333303663466,12.193333411216736,11.672000090281168,15.263333638509115,18.326808483042615,19.158214364733016,17.95833345254262,15.329999923706056,19.12000002179827,19.640000070844376,16.80125004053116,8.276666641235352,7.127999957402547,9.883729868254465,12.806856310534478,6.632090518109617,7.834865369922949,10.535648766250187,9.651397500154914,13.360905315197527,13.831540423844542,11.773322280179709,7.001491740663846,3.2494752704453473,9.883729868254465,12.806856310534478,6.632090518109617,7.834865369922949,10.535648766250187,9.651397500154914,13.360905315197527,13.831540423844542,11.773322280179709,7.001491740663846,3.2494752704453473,0,0,311.708254351152,531.0844847089946,783.9400550989992,793.5914525991541,887.1177898055369,983.9385727724488,1172.311729255324,1235.3251549212985,1235.3251549212985,0,0,0.9843829794132963,0.9987142869404384,1,1,0.997142859867641,1,0.9560000002384186,0.4628333303663466,0.05023333549499512,1,1,1,1,1,1,1,1,1,1,1,0.8556666707992554,1,0.9843829794132963,0.9987142869404384,1,1,0.997142859867641,1,0.9560000002384186,0.4628333303663466,0.3303666718800863,1,1,1,1,0.9296462589583857,1,0.9999999999999999,0.9999999999999999,0.9999999999999999,1,1,2018-04-27T12:00:00Z,2018-05-12T12:00:00Z,2018-05-15T12:00:00Z,2018-07-01T12:00:00Z,2018-07-29T12:00:00Z,2018-08-22T12:00:00Z,2018-08-23T12:00:00Z,2018-08-30T12:00:00Z,2018-09-06T12:00:00Z,2018-09-22T12:00:00Z,2018-10-01T12:00:00Z,2018-05-11T12:00:00Z,2018-05-14T12:00:00Z,2018-06-30T12:00:00Z,2018-07-28T12:00:00Z,2018-08-21T12:00:00Z,2018-08-22T12:00:00Z,2018-08-29T12:00:00Z,2018-09-05T12:00:00Z,2018-09-21T12:00:00Z,2018-09-30T12:00:00Z,2018-10-15T12:00:00Z,117,132,135,182,210,234,235,242,249,265,274,14,2,46,27,23,0,6,6,15,8,14,131,134,181,209,233,234,241,248,264,273,288
96,ottawa_ks,38.5404,-95.2477,4,2018-05-15,21,2018,early4,1459.671011807003,11,2018-05-01,2018-05-15,127,2018-09-19,2018-09-24,2018-10-08,Harvested at Maturity.,1.4073333501815797,4.786666631698608,3.1945238212744393,0.6596296275103534,4.034347814062367,31.360000610351563,7.5771428655300825,7.364286014011928,5.164666612943013,2.6,10.93799991607666,1.4073333501815797,4.786666631698608,3.1945238212744393,0.6596296275103534,4.034347814062367,31.360000610351563,7.5771428655300825,7.364286014011928,5.164666612943013,2.6,10.93799991607666,19.670836194356283,19.2776362101237,19.434834798177082,21.832453974971063,18.623640557994012,7.5686845779418945,14.51427057811192,14.07243265424456,14.338211870193481,13.943752193450928,14.217437998453777,28.82466646830241,28.359999974568684,30.946666853768484,33.34962979069463,31.69434812794561,25.200000762939453,28.39142826625279,30.407142911638534,27.288000106811523,28.83200035095215,23.74799982706706,22.38733326594035,21.31500005722046,24.972262030556088,26.909814869915998,25.20347841926243,22.329999923706055,23.65428556714739,25.440714291163854,22.560333347320558,23.428000259399415,17.51966659228007,15.950000063578287,14.270000139872232,18.997857207343692,20.46999994913737,18.71260871057925,19.459999084472656,18.917142868041992,20.474285670689174,17.83266658782959,18.02400016784668,11.291333357493082,12.306221173792283,11.315000057220459,7.3253005139305305,8.361557409412304,11.115008004922654,11.442659378025862,12.573207056447306,14.197385260939598,12.377500406959852,12.50646248048544,7.173844178998669,12.306221173792283,11.315000057220459,7.3253005139305305,8.361557409412304,11.115008004922654,11.442659378025862,12.573207056447306,14.197385260939598,12.377500406959852,12.50646248048544,7.173844178998669,0,0,307.6626215850824,533.4246716392146,789.0698557524356,800.5125151304615,888.5249645255926,987.9066613521696,1173.5691674565671,1236.1014798589945,1236.1014798589945,0,0,0.9983095225833711,0.9998148105762623,1,1,0.9975714274815151,1,0.9770000044504802,0.9259000015258789,0.05049999872843425,1,1,1,1,1,1,1,1,1,1,1,0.9935333283742269,1,0.9983095225833711,0.9998148105762623,1,1,0.9975714274815151,1,0.9770000044504802,0.9259000015258789,0.6888333304723104,1,1,0.9999999999999999,1,0.9999205754291315,1,0.9999999999999999,0.9999999999999999,1,1,1,2018-05-01T12:00:00Z,2018-05-16T12:00:00Z,2018-05-19T12:00:00Z,2018-06-30T12:00:00Z,2018-07-27T12:00:00Z,2018-08-19T12:00:00Z,2018-08-20T12:00:00Z,2018-08-27T12:00:00Z,2018-09-03T12:00:00Z,2018-09-18T12:00:00Z,2018-09-23T12:00:00Z,2018-05-15T12:00:00Z,2018-05-18T12:00:00Z,2018-06-29T12:00:00Z,2018-07-26T12:00:00Z,2018-08-18T12:00:00Z,2018-08-19T12:00:00Z,2018-08-26T12:00:00Z,2018-09-02T12:00:00Z,2018-09-17T12:00:00Z,2018-09-22T12:00:00Z,2018-10-07T12:00:00Z,121,136,139,181,208,231,232,239,246,261,266,14,2,41,26,22,0,6,6,14,4,14,135,138,180,207,230,231,238,245,260,265,280
97,novelty_mo,39.9428,-92.0534,4,2018-05-16,47,2018,early4,1416.497283455744,11,2018-05-02,2018-05-16,134,2018-09-27,2018-10-05,2018-10-19,Harvested at Maturity.,3.9953333854675295,0.7666666507720947,1.880425567322589,2.514999968664987,5.97173900189607,NA,11.200000149863106,11.398749977350235,0.6274999976158142,0.6400000154972076,8.706666711966196,3.9953333854675295,0.7666666507720947,1.880425567322589,2.514999968664987,5.97173900189607,NA,11.200000149863106,11.398749977350235,0.6274999976158142,0.6400000154972076,8.706666711966196,19.33083413441976,15.878867149353027,19.865558441649092,21.853162697383336,17.81846166693646,NA,13.232413428170341,10.864974290132523,16.88247925043106,14.058261752128601,9.118365907669068,27.677999877929686,25.106666564941406,30.650638215085294,30.364999975476945,30.495217530623727,NA,29.872856957571848,26.640000343322754,28.573750138282776,23.576250314712524,16.65266647338867,20.922666676839192,20.230000019073486,24.829787173169724,23.994642870766775,24.308260979859725,NA,25.08499997002738,22.92500013113022,21.66781258583069,17.03500011563301,11.913333253065746,14.167333475748698,15.353333473205566,19.008936131254156,17.624285766056605,18.121304429095723,NA,20.29714298248291,19.209999918937683,14.761875033378601,10.493749916553497,7.174000032742818,10.922666676839192,10.230000019073486,6.677933067718734,7.6957933084742285,11.375316831347376,NA,13.639580379945203,12.65612580872178,11.634915496522561,8.704126276877895,3.7772456588701715,10.922666676839192,10.230000019073486,6.677933067718734,7.6957933084742285,11.375316831347376,NA,13.639580379945203,12.65612580872178,11.634915496522561,8.704126276877895,3.7772456588701715,0,0,313.8628541827805,529.345066820059,790.9773539410485,NA,886.4544166006648,987.7034230704388,1173.8620710147998,1243.4950812298232,1243.4950812298232,0,0,0.9949255324424582,0.9925357137407576,0.997586957268093,NA,1,0.9174375116825104,0.9150937557220459,0.6058125108480453,0.022933330535888675,1,1,1,1,1,NA,1,1,1,1,1,0.9814666684468587,0.9646666685740154,0.9949255324424582,0.9925357137407576,0.997586957268093,NA,1,0.9174375116825104,0.9150937557220459,0.6058125108480453,0.33573333104451497,1,1,1,1,0.9931720534290519,NA,0.9999999999999999,1,0.9999999999999999,0.9999999999999999,1,2018-05-02T12:00:00Z,2018-05-17T12:00:00Z,2018-05-20T12:00:00Z,2018-07-06T12:00:00Z,2018-08-03T12:00:00Z,NA,2018-08-26T12:00:00Z,2018-09-02T12:00:00Z,2018-09-10T12:00:00Z,2018-09-26T12:00:00Z,2018-10-04T12:00:00Z,2018-05-16T12:00:00Z,2018-05-19T12:00:00Z,2018-07-05T12:00:00Z,2018-08-02T12:00:00Z,2018-08-25T12:00:00Z,NA,2018-09-01T12:00:00Z,2018-09-09T12:00:00Z,2018-09-25T12:00:00Z,2018-10-03T12:00:00Z,2018-10-18T12:00:00Z,122,137,140,187,215,NA,238,245,253,269,277,14,2,46,27,22,NA,6,7,15,7,14,136,139,186,214,237,NA,244,252,268,276,291
98,portagevilleclay_mo,36.3987,-88.6051,4,2018-05-28,29,2018,early4,1273.1348577716649,11,2018-05-14,2018-05-28,111,2018-09-16,2018-09-20,2018-10-04,Harvested at Maturity.,6.08066660563151,24.219999313354492,3.9191666973961725,2.3813636086203838,2.037142887001946,0,3.025714329310826,1.3649999698003132,4.427857160568237,0,8.819333267211913,6.08066660563151,24.219999313354492,3.9191666973961725,2.3813636086203838,2.037142887001946,0,3.025714329310826,1.3649999698003132,4.427857160568237,0,8.819333267211913,17.597416750590007,14.47948408126831,19.870643430285984,19.559793298894707,18.854824156988236,15.232606887817385,17.32268728528704,15.824250062306723,15.541876179831368,17.27200937271118,12.478057607014973,30.26666679382324,29.414999961853027,32.10638904571533,32.05727273767645,31.369999749319895,29.829999923706055,29.017142704554967,32.90333334604899,30.004999569484166,33.03999996185303,27.561333465576173,24.605666732788087,25.27750015258789,26.52902787261539,26.64545453678478,25.550952275594074,25.65499973297119,23.76285696029663,27.444166819254555,24.551428420203074,26.43499994277954,22.153666655222576,18.94466667175293,21.140000343322754,20.95166669951545,21.23363633589311,19.731904801868257,21.479999542236328,18.508571216038295,21.985000292460125,19.09785727092198,19.829999923706055,16.74599984486898,14.276025254192353,15.110394636106488,8.628224741158578,9.984756994189267,12.257632939562859,14.817750292100994,13.281406004192657,15.473486175094047,13.42368991566045,14.674983302268386,10.541885019856293,14.276025254192353,15.110394636106488,8.628224741158578,9.984756994189267,12.257632939562859,14.817750292100994,13.281406004192657,15.473486175094047,13.42368991566045,14.674983302268386,10.541885019856293,0,0,310.6160906817088,530.2807445538726,787.6910362846927,802.5087865767937,895.4786286061424,988.3195456567066,1176.2512044759528,1234.9511376850264,1234.9511376850264,0,0,1,1,1,1,1,1,0.9832857029778617,1,0.06666666666666667,1,1,1,1,1,1,1,1,1,1,1,1,1,1,1,1,1,1,1,0.9832857029778617,1,0.9350666618347168,1,1,1,0.9999999999999999,1,0.9999999999999998,0.9999999999999999,1,0.9999999999999999,1,1,2018-05-14T12:00:00Z,2018-05-29T12:00:00Z,2018-05-31T12:00:00Z,2018-07-06T12:00:00Z,2018-07-28T12:00:00Z,2018-08-18T12:00:00Z,2018-08-19T12:00:00Z,2018-08-26T12:00:00Z,2018-09-01T12:00:00Z,2018-09-15T12:00:00Z,2018-09-19T12:00:00Z,2018-05-28T12:00:00Z,2018-05-30T12:00:00Z,2018-07-05T12:00:00Z,2018-07-27T12:00:00Z,2018-08-17T12:00:00Z,2018-08-18T12:00:00Z,2018-08-25T12:00:00Z,2018-08-31T12:00:00Z,2018-09-14T12:00:00Z,2018-09-18T12:00:00Z,2018-10-03T12:00:00Z,134,149,151,187,209,230,231,238,244,258,262,14,1,35,21,20,0,6,5,13,3,14,148,150,186,208,229,230,237,243,257,261,276
99,portagevilleloam_mo,36.39516667,-89.6102,4,2018-05-01,30,2018,early4,1643.2557862789188,11,2018-04-17,2018-05-01,119,2018-08-28,2018-09-01,2018-09-15,Harvested at Maturity.,4.7106665452321375,8.899999618530273,5.4624999314546585,2.5323076981764574,1.135384623820965,0,0.6937500238418579,4.196250021457672,5.177692229931171,5.492500066757202,3.727999973297119,4.7106665452321375,8.899999618530273,5.4624999314546585,2.5323076981764574,1.135384623820965,0,0.6937500238418579,4.196250021457672,5.177692229931171,5.492500066757202,3.727999973297119,19.99431756337484,14.582074483235678,18.680848687887192,19.963393724881687,20.088449184711163,21.23957061767578,20.844319701194763,17.259222865104675,16.113440146813026,14.650786399841309,15.555258305867513,20.87399984995524,27.359999974568684,30.262499928474426,32.738077237055855,33.0669229214008,30.239999771118164,30.85249972343445,32.15249991416931,29.83692301236666,32.202499866485596,29.972666676839193,14.073333235581716,22.383333206176758,24.50874997675419,27.14211555627676,27.535576857053318,24.60999965667725,24.733749747276306,26.63124990463257,24.862307658562294,27.146249771118164,24.768333435058594,7.272666621208191,17.406666437784832,18.75500002503395,21.546153875497673,22.00423079270583,18.979999542236328,18.614999771118164,21.109999895095825,19.887692304757927,22.089999675750732,19.564000193277995,4.742135325036049,12.383333206176758,9.562447877001004,8.6731812160584,9.862499252467757,10.802361576798337,10.873001500154972,13.001912816050373,13.869237416427616,15.765022291609647,12.854867583564918,4.742135325036049,12.383333206176758,9.562447877001004,8.6731812160584,9.862499252467757,10.802361576798337,10.873001500154972,13.001912816050373,13.869237416427616,15.765022291609647,12.854867583564918,0,0,305.9983320640322,531.5010436815505,787.9260242457121,798.7283858225105,885.7123978237503,989.7277003521532,1170.0277867657123,1233.0878759321508,1233.0878759321508,0,0,1,1,1,1,1,1,1,1,0.06666666666666667,1,1,1,1,1,1,1,1,1,1,1,0.4098333219687144,1,1,1,1,1,1,1,1,1,0.9954666646321615,1,1,0.9999999999999999,0.9999999999999999,1,1,0.9645298423404403,0.9850896150055612,0.9999999999999999,1,1,2018-04-17T12:00:00Z,2018-05-02T12:00:00Z,2018-05-05T12:00:00Z,2018-06-06T12:00:00Z,2018-07-02T12:00:00Z,2018-07-28T12:00:00Z,2018-07-29T12:00:00Z,2018-08-06T12:00:00Z,2018-08-14T12:00:00Z,2018-08-27T12:00:00Z,2018-08-31T12:00:00Z,2018-05-01T12:00:00Z,2018-05-04T12:00:00Z,2018-06-05T12:00:00Z,2018-07-01T12:00:00Z,2018-07-27T12:00:00Z,2018-07-28T12:00:00Z,2018-08-05T12:00:00Z,2018-08-13T12:00:00Z,2018-08-26T12:00:00Z,2018-08-30T12:00:00Z,2018-09-14T12:00:00Z,107,122,125,157,183,209,210,218,226,239,243,14,2,31,25,25,0,7,7,12,3,14,121,124,156,182,208,209,217,225,238,242,257
100,rockport_mo,40.273,-95.4743,4,2018-05-22,48,2018,early4,1447.9099231190144,11,2018-05-08,2018-05-22,140,2018-10-09,2018-10-20,2018-11-03,Harvested at Maturity.,1.5453333655993144,0,3.0455102044708875,2.5765384894150953,7.140434866366179,6.099999904632568,17.699999843324935,0,4.78136373649944,6.121818325736306,0.7466666618982951,1.5453333655993144,0,3.0455102044708875,2.5765384894150953,7.140434866366179,6.099999904632568,17.699999843324935,0,4.78136373649944,6.121818325736306,0.7466666618982951,19.072447268168133,22.283448219299316,20.43399027415684,19.98923607972952,16.009922649549402,10.605483055114746,8.445233004433769,18.574562788009644,13.092455755580556,9.520319765264338,10.767823282877604,27.63799997965495,32.59000015258789,31.713877269199916,30.474615317124588,29.079130255657695,27.559999465942383,26.19571440560477,28.09125018119812,23.32454538345337,14.91727248105136,17.16266657511393,20.93499994277954,25.34249973297119,25.276428436746404,24.14615372511057,23.394999960194465,23.144999504089355,23.011428696768625,21.389375030994415,17.332954493435945,9.547727171754973,10.231999945640563,14.231999905904134,18.094999313354492,18.838979604292888,17.81769213309655,17.710869664731234,18.729999542236328,19.82714298793248,14.68749988079071,11.341363603418523,4.178181862458587,3.3013333161671956,10.905648750395775,14.05064396870136,6.368738969326447,8.313713980612517,11.538323225489929,13.144999504089355,12.792362173412528,11.264109997078776,8.662813062446633,5.70502656726017,2.0203894460303586,10.905648750395775,14.05064396870136,6.368738969326447,8.313713980612517,11.538323225489929,13.144999504089355,12.792362173412528,11.264109997078776,8.662813062446633,5.70502656726017,2.0203894460303586,0,0,312.06820949699585,528.2247729929212,793.6062071791896,806.751206683279,896.2977418971666,986.4106218737968,1176.9925092476224,1239.747801487484,1239.747801487484,0,0,0.9927142863370935,1,0.9849130423172661,1,0.9819999967302595,0.9468124985694886,0.5742272712967613,0.1354545365680348,0.029300003051757815,1,1,1,1,1,1,1,1,1,1,1,0.9784666601816814,1,0.9927142863370935,1,0.9849130423172661,1,0.9819999967302595,0.9468124985694886,0.5742272712967613,0.1354545365680348,0.09139999628067016,1,1,1,1,1,1,0.9999999999999999,1,0.9999999999999999,0.9999999999999999,1,2018-05-08T12:00:00Z,2018-05-23T12:00:00Z,2018-05-25T12:00:00Z,2018-07-13T12:00:00Z,2018-08-08T12:00:00Z,2018-08-31T12:00:00Z,2018-09-01T12:00:00Z,2018-09-08T12:00:00Z,2018-09-16T12:00:00Z,2018-10-08T12:00:00Z,2018-10-19T12:00:00Z,2018-05-22T12:00:00Z,2018-05-24T12:00:00Z,2018-07-12T12:00:00Z,2018-08-07T12:00:00Z,2018-08-30T12:00:00Z,2018-08-31T12:00:00Z,2018-09-07T12:00:00Z,2018-09-15T12:00:00Z,2018-10-07T12:00:00Z,2018-10-18T12:00:00Z,2018-11-02T12:00:00Z,128,143,145,194,220,243,244,251,259,281,292,14,1,48,25,22,0,6,7,21,10,14,142,144,193,219,242,243,250,258,280,291,306
101,thiefriverfalls_mn,48.1283,-96.2427,-1,2018-06-16,3,2018,early00,559.9274076618044,11,2018-06-02,2018-06-16,141,2018-11-04,2018-11-12,2018-11-26,Harvested at Maturity.,4.419333330790201,0.5350000262260437,2.1390624940395355,0,2.196399974822998,4.454999923706055,0.625,2.7593750953674316,2.570322594335002,1.0999999791383743,0.3300000021855036,4.419333330790201,0.5350000262260437,2.1390624940395355,0,2.196399974822998,4.454999923706055,0.625,2.7593750953674316,2.570322594335002,1.0999999791383743,0.3300000021855036,19.970596504211425,23.197158575057983,21.243657767772675,22.358821366962633,16.441725883483887,15.844911098480225,13.590812397003173,10.48449918627739,7.054175453801309,4.8253656923770905,5.173818635940552,24.566666666666666,26.570000171661377,27.541249930858612,26.463158155742445,25.689599990844727,21.15499973297119,24.37899990081787,12.46124991774559,7.055161235793944,-1.2487500682473183,-5.012666658808787,17.986999988555908,19.34000015258789,21.12328127771616,18.923421157033818,18.44479998588562,12.319999873638153,17.62049994468689,7.344374963082373,2.678064502415157,-4.5862499959766865,-9.224333312238256,11.40733331044515,12.110000133514404,14.705312624573708,11.383684158325195,11.199999980926513,3.4850000143051147,10.861999988555908,2.227500008419156,-1.69903223096363,-7.923749923706055,-13.435999965667724,8.077660113327504,9.34000015258789,8.90228490347774,8.4700515533012,8.38420276509762,3.976038460746407,8.556855492119192,5.096049128731992,5.051220817315362,5,0,8.077660113327504,9.34000015258789,8.90228490347774,8.4700515533012,8.38420276509762,3.976038460746407,8.556855492119192,5.096049128731992,5.051220817315362,5,0,0,0,284.8731169112877,445.8040964240106,655.409165551451,663.3612424729439,748.9297973941358,830.4665834538476,987.054428790624,1027.054428790624,1027.054428790624,0,0,0.9668906204402447,0.8294473748458059,0.7889599962234497,0.23199998736381533,0.7378000020980835,0.013624999672174454,9.193549233098184e-4,0,0,1,1,1,1,1,1,1,1,1,1,1,0.7551333395640055,0.9223750114440918,0.9668906204402447,0.8294473748458059,0.7889599962234497,0.23199998736381533,0.7378000020980835,0.013624999672174454,9.193549233098184e-4,0,0,1,1,1,1,1,0.9999999999999999,1,1,1,0.9999999999999999,1,2018-06-02T12:00:00Z,2018-06-17T12:00:00Z,2018-06-21T12:00:00Z,2018-07-23T12:00:00Z,2018-08-11T12:00:00Z,2018-09-05T12:00:00Z,2018-09-07T12:00:00Z,2018-09-17T12:00:00Z,2018-10-03T12:00:00Z,2018-11-03T12:00:00Z,2018-11-11T12:00:00Z,2018-06-16T12:00:00Z,2018-06-20T12:00:00Z,2018-07-22T12:00:00Z,2018-08-10T12:00:00Z,2018-09-04T12:00:00Z,2018-09-06T12:00:00Z,2018-09-16T12:00:00Z,2018-10-02T12:00:00Z,2018-11-02T12:00:00Z,2018-11-10T12:00:00Z,2018-11-25T12:00:00Z,153,168,172,204,223,248,250,260,276,307,315,14,3,31,18,24,1,9,15,30,7,14,167,171,203,222,247,249,259,275,306,314,329
102,crookston_mn,47.805,-96.61426667,0,2018-05-23,1,2018,early0,961.9143714181134,11,2018-05-09,2018-05-23,115,2018-09-15,2018-09-20,2018-10-04,Harvested at Maturity.,0.7759999910990397,1.1400000254313152,4.3248648289087654,2.079444451464547,0.3899999800182524,0,3.827142987932478,2.1677778561909995,1.5417646941016703,0.19800000190734862,4.28666672706604,0.7759999910990397,1.1400000254313152,4.3248648289087654,2.079444451464547,0.3899999800182524,0,3.827142987932478,2.1677778561909995,1.5417646941016703,0.19800000190734862,4.28666672706604,22.779508527119955,21.676725387573242,19.873539254472064,20.68875789642334,21.60707292102632,22.36730194091797,19.37425300053188,14.283935652838812,14.484616728389964,14.44060573577881,9.937057209014892,22.53733336130778,32.6533317565918,27.101892058913773,28.135555373297798,27.277619043986004,33.630001068115234,29.160000119890487,24.754444546169704,24.21176461612477,23.226000022888183,12.589333343505858,14.378333353996277,24.208332697550457,20.71959471058201,21.81722206539578,20.015238137472245,24.27500057220459,20.971428632736206,18.612222247653538,17.306176452075736,16.01900005340576,7.825333319107691,6.219333346684774,15.763333638509115,14.33729736225025,15.498888757493761,12.752857230958485,14.920000076293944,12.782857145581927,12.46999994913737,10.400588288026697,8.81200008392334,3.0613332947095233,5.514474381776552,12.976483670632044,7.524646312182436,8.710229912296283,8.792424825947286,12.045466817993727,11.0831815076535,9.19404964607358,8.557939821075166,7.905145605200528,0.6804867634020746,5.514474381776552,12.976483670632044,7.524646312182436,8.710229912296283,8.792424825947286,12.045466817993727,11.0831815076535,9.19404964607358,8.557939821075166,7.905145605200528,0.6804867634020746,0,0,278.4119135507501,435.1960519720832,619.8369733169761,631.8824401349699,709.4647106885444,792.2111575032066,937.6961344614843,977.2218624874872,977.2218624874872,0,0,0.9297432448412921,0.9727777719497681,0.897380957149324,1,0.9261428526469639,0.8463333447774252,0.7176764670540305,0.5372999954223633,0.013099999427795411,1,1,1,1,1,1,1,1,1,1,1,0.46346666653951013,1,0.9297432448412921,0.9727777719497681,0.897380957149324,1,0.9261428526469639,0.8463333447774252,0.7176764670540305,0.5372999954223633,0.02693333148956299,1,1,1,1,1,1,1,1,1,1,1,2018-05-09T12:00:00Z,2018-05-24T12:00:00Z,2018-05-27T12:00:00Z,2018-07-03T12:00:00Z,2018-07-21T12:00:00Z,2018-08-11T12:00:00Z,2018-08-12T12:00:00Z,2018-08-19T12:00:00Z,2018-08-28T12:00:00Z,2018-09-14T12:00:00Z,2018-09-19T12:00:00Z,2018-05-23T12:00:00Z,2018-05-26T12:00:00Z,2018-07-02T12:00:00Z,2018-07-20T12:00:00Z,2018-08-10T12:00:00Z,2018-08-11T12:00:00Z,2018-08-18T12:00:00Z,2018-08-27T12:00:00Z,2018-09-13T12:00:00Z,2018-09-18T12:00:00Z,2018-10-03T12:00:00Z,129,144,147,184,202,223,224,231,240,257,262,14,2,36,17,20,0,6,8,16,4,14,143,146,183,201,222,223,230,239,256,261,276
103,shelly_mn,47.4264,-96.8317,0,2018-05-24,31,2018,early0,873.7932010125404,11,2018-05-10,2018-05-24,113,2018-09-14,2018-09-17,2018-10-01,Harvested at Maturity.,0.5726666529973348,1.9233333269755046,2.8616666578584247,2.2017646887723137,0.8031818243590267,NA,0,7.823749840259552,1.9816666146119435,5.206666787465414,2.8140000144640607,0.5726666529973348,1.9233333269755046,2.8616666578584247,2.2017646887723137,0.8031818243590267,NA,0,7.823749840259552,1.9816666146119435,5.206666787465414,2.8140000144640607,23.08178342183431,21.379313151041668,20.02437710762024,21.091493213877957,21.55852361158891,NA,20.500179154532297,14.295131623744965,14.925466749403212,13.035892804463705,11.243957138061523,23.79400005340576,31.950000127156574,27.332222037845188,28.49529400993796,27.269545468417082,NA,29.69285719735282,25.788749933242798,24.16111108991835,24.253333409627277,15.200666332244873,15.49400001168251,23.64666684468587,20.974861039055718,22.092058798846075,20.16022724455053,NA,21.553571496691024,19.253124952316284,17.4350000222524,17.706666628519695,9.937999825676282,7.193999969959259,15.34333356221517,14.617500040266249,15.688823587754193,13.050909020683982,NA,13.414285796029228,12.71749997138977,10.708888954586453,11.15999984741211,4.675333319107692,6.395726349780212,12.429936537988981,7.787691030683043,8.968040731914883,8.949986991839072,NA,11.411197852856995,9.701651444125176,8.568873415109515,8.559512508809567,1.3682124050440392,6.395726349780212,12.429936537988981,7.787691030683043,8.968040731914883,8.949986991839072,NA,11.411197852856995,9.701651444125176,8.568873415109515,8.559512508809567,1.3682124050440392,0,0,280.3568771045895,432.81356954714255,629.7132833676025,NA,709.5916683376014,787.2048798906028,941.444601362574,967.1231388890028,967.1231388890028,0,0,0.9439027812745836,0.9797352959127987,0.913363633372567,NA,0.9352857181004116,0.9027499973773957,0.7282777786254883,0.7706666628519695,0.06666666666666667,1,1,1,1,1,NA,1,1,1,1,1,0.5383666690190634,1,0.9439027812745836,0.9797352959127987,0.913363633372567,NA,0.9352857181004116,0.9027499973773957,0.7282777786254883,0.7706666628519695,0.1339333232243856,1,1,1,0.9999999999999999,0.9999999999999999,NA,0.9999999999999999,1,1,1,1,2018-05-10T12:00:00Z,2018-05-25T12:00:00Z,2018-05-28T12:00:00Z,2018-07-03T12:00:00Z,2018-07-20T12:00:00Z,NA,2018-08-11T12:00:00Z,2018-08-18T12:00:00Z,2018-08-26T12:00:00Z,2018-09-13T12:00:00Z,2018-09-16T12:00:00Z,2018-05-24T12:00:00Z,2018-05-27T12:00:00Z,2018-07-02T12:00:00Z,2018-07-19T12:00:00Z,2018-08-10T12:00:00Z,NA,2018-08-17T12:00:00Z,2018-08-25T12:00:00Z,2018-09-12T12:00:00Z,2018-09-15T12:00:00Z,2018-09-30T12:00:00Z,130,145,148,184,201,NA,223,230,238,256,259,14,2,35,16,21,NA,6,7,17,2,14,144,147,183,200,222,NA,229,237,255,258,273
104,casselton_nd,46.8866,-97.2386,0,2018-05-07,4,2018,early0,945.0102037372257,11,2018-04-23,2018-05-07,116,2018-08-31,2018-09-04,2018-09-18,Harvested at Maturity.,0.7733333269755046,0.11999999625342232,3.541351389240574,2.658823518192067,2.2990909218788147,0,0.642500001937151,2.696666717529297,7.0425001084804535,5.789999961853027,0.16533333857854207,0.7733333269755046,0.11999999625342232,3.541351389240574,2.658823518192067,2.2990909218788147,0,0.642500001937151,2.696666717529297,7.0425001084804535,5.789999961853027,0.16533333857854207,25.533968226114908,22.424075807843888,20.3564094595007,20.840431045083438,20.39417873729359,25.29604721069336,20.931567907333374,20.52363920211792,15.481282114982605,15.687460660934448,15.844540723164876,21.08733336130778,21.12142848968506,27.41081088298076,28.511764862958124,27.44454539905895,28.969999313354492,27.508749961853027,32.240000089009605,24.85687518119812,25.697500228881836,25.73066635131836,11.978333334128061,13.755714224917547,20.182702708888698,22.307058923384723,21.319545420733366,20.19499969482422,20.1618749499321,24.110833247502644,18.44687506556511,18.87625002861023,18.504999860127768,2.8693333069483438,6.389999960150038,12.954594534796637,16.102352983811322,15.194545442407781,11.420000076293944,12.81499993801117,15.981666405995687,12.036874949932098,12.054999828338623,11.279333368937174,4.11113484268407,4.9425205656214475,7.579621641902655,8.798887526604952,8.984397646557728,9.013123338743076,9.788210164746701,12.886270183276674,9.144950753348693,9.49264537807554,7.976559528986217,4.11113484268407,4.9425205656214475,7.579621641902655,8.798887526604952,8.984397646557728,9.013123338743076,9.788210164746701,12.886270183276674,9.144950753348693,9.49264537807554,7.976559528986217,0,0,280.4460007503983,430.0270887026825,627.6838369269526,636.6969602656957,715.0026415836693,792.3202626833292,938.6394747369084,976.6100562492106,976.6100562492106,0,0,0.8685405473451356,0.9980588211732753,0.961499996618791,1,0.8866874933242798,1,0.8269062548875808,0.8642500042915344,0.047066664695739745,1,1,1,1,1,1,1,1,1,1,1,0.273100000222524,0.4274999993188041,0.8685405473451356,0.9980588211732753,0.961499996618791,1,0.8866874933242798,1,0.8269062548875808,0.8642500042915344,0.8005333264668782,1,1,1,0.9999999999999999,0.9999999999999999,1,0.9999999999999999,1,1,1,1,2018-04-23T12:00:00Z,2018-05-08T12:00:00Z,2018-05-15T12:00:00Z,2018-06-21T12:00:00Z,2018-07-08T12:00:00Z,2018-07-30T12:00:00Z,2018-07-31T12:00:00Z,2018-08-08T12:00:00Z,2018-08-14T12:00:00Z,2018-08-30T12:00:00Z,2018-09-03T12:00:00Z,2018-05-07T12:00:00Z,2018-05-14T12:00:00Z,2018-06-20T12:00:00Z,2018-07-07T12:00:00Z,2018-07-29T12:00:00Z,2018-07-30T12:00:00Z,2018-08-07T12:00:00Z,2018-08-13T12:00:00Z,2018-08-29T12:00:00Z,2018-09-02T12:00:00Z,2018-09-17T12:00:00Z,113,128,135,172,189,211,212,220,226,242,246,14,6,36,16,21,0,7,5,15,3,14,127,134,171,188,210,211,219,225,241,245,260
105,morris_mn,45.3552,-95.5436,1,2018-05-13,34,2018,early1,1165.6003498605337,11,2018-04-29,2018-05-13,121,2018-09-11,2018-09-15,2018-09-29,Harvested at Maturity.,1.33733336130778,1.972499966621399,3.8163414731985186,4.722105277212043,5.096956577637921,0,0,6.346666600969103,4.623124957084656,0,2.028000005086263,1.33733336130778,1.972499966621399,3.8163414731985186,4.722105277212043,5.096956577637921,0,0,6.346666600969103,4.623124957084656,0,2.028000005086263,22.81901766459147,22.996975421905518,18.934089369890167,20.0773475044652,19.57977357118026,20.869935989379883,18.920477231343586,17.112541834513348,14.590306133031845,15.993874788284302,12.116271368662517,22.195333162943523,27.450000286102295,26.887561007243832,29.6263158697831,26.640869472337805,29.5,29.393333117167156,25.887777752346462,24.58437490463257,28.049999713897705,21.04133326212565,14.399666539827983,19.046249985694885,20.880609768192944,23.811052723934775,20.718478244283926,22.98499965667725,23.359166542689007,20.15277772479587,19.097187474370003,21.698750138282776,15.65133332014084,6.603999916712443,10.642499685287476,14.873658529142054,17.995789578086452,14.796087016230045,16.469999313354492,17.324999968210857,14.41777769724528,13.610000044107437,15.347500562667847,10.261333378156026,5.311555969558557,9.003895341005922,7.216376335936989,9.312348326921025,8.883939596075233,12.129745473006729,12.74340560526057,10.357658340247472,9.661624406288192,11.805724297505618,5.149404550590168,5.311555969558557,9.003895341005922,7.216376335936989,9.312348326921025,8.883939596075233,12.129745473006729,12.74340560526057,10.357658340247472,9.661624406288192,11.805724297505618,5.149404550590168,0,0,295.8714297734164,472.8060479849159,677.1366586946463,689.266404167653,765.7268377992165,858.9457628614438,1013.5317533620548,1060.7546505520772,1060.7546505520772,0,0,0.9254634147737084,1,0.9470000018244205,1,1,0.9445000065697564,0.8366875007748604,0.9890000104904175,0.06666666666666667,1,1,1,1,1,1,1,1,1,1,1,0.44476665337880456,0.8572499871253968,0.9254634147737084,1,0.9470000018244205,1,1,0.9445000065697564,0.8366875007748604,0.9890000104904175,0.47803333282470706,1,1,1,1,0.9999999999999999,1,0.9999999999999999,0.9999999999999999,0.9999999999999999,0.9999999999999999,1,2018-04-29T12:00:00Z,2018-05-14T12:00:00Z,2018-05-18T12:00:00Z,2018-06-28T12:00:00Z,2018-07-17T12:00:00Z,2018-08-09T12:00:00Z,2018-08-10T12:00:00Z,2018-08-16T12:00:00Z,2018-08-25T12:00:00Z,2018-09-10T12:00:00Z,2018-09-14T12:00:00Z,2018-05-13T12:00:00Z,2018-05-17T12:00:00Z,2018-06-27T12:00:00Z,2018-07-16T12:00:00Z,2018-08-08T12:00:00Z,2018-08-09T12:00:00Z,2018-08-15T12:00:00Z,2018-08-24T12:00:00Z,2018-09-09T12:00:00Z,2018-09-13T12:00:00Z,2018-09-28T12:00:00Z,119,134,138,179,198,221,222,228,237,253,257,14,3,40,18,22,0,5,8,15,3,14,133,137,178,197,220,221,227,236,252,256,271
106,arthur_il,39.70646667,-88.47023333,3,2018-05-07,19,2018,early3,1386.8967447771197,11,2018-04-23,2018-05-07,117,2018-09-01,2018-09-05,2018-09-19,Harvested at Maturity.,1.3106666723887126,3.6566667556762695,4.037999960354396,4.230434821999592,4.298461611454304,0,1.3214285714285714,2.5057142802647183,3.010000068407792,0,4.761333274841308,1.3106666723887126,3.6566667556762695,4.037999960354396,4.230434821999592,4.298461611454304,0,1.3214285714285714,2.5057142802647183,3.010000068407792,0,4.761333274841308,21.270795567830405,21.883925755818684,19.554812949044365,18.337133490520976,20.13355200107281,22.53215217590332,18.63938672201974,17.350262233189174,15.67951488494873,18.431636333465576,15.983555889129638,22.169333267211915,28.03000005086263,29.605714198521206,30.303912867670473,28.28461566338172,31.229999542236328,30.46285683768136,29.13857105800084,28.1484615619366,31.75,29.020666758219402,15.114666624863942,20.118333339691162,23.47757136481149,25.277391267859418,22.8669232405149,24.774999618530273,25.15785707746233,23.8771424974714,23.362307695242073,25.703750133514404,22.92133331298828,8.05999998251597,12.206666628519693,17.349428531101772,20.25086966804836,17.44923081764808,18.31999969482422,19.852857317243302,18.615713936941965,18.57615382854755,19.65750026702881,16.82199986775716,6.010314983443767,10.118333339691162,8.58537129681221,8.513941064261035,8.92753853814634,11.826359521503347,12.650420385260928,12.95289044700806,13.010425364684785,14.735150523376465,11.09563006688277,6.010314983443767,10.118333339691162,8.58537129681221,8.513941064261035,8.92753853814634,11.826359521503347,12.650420385260928,12.95289044700806,13.010425364684785,14.735150523376465,11.09563006688277,0,0,300.4879953884274,496.3086398664312,728.424641858236,740.2510013797394,828.803944076566,919.4741772056228,1088.609706946525,1147.550309040031,1147.550309040031,0,0,0.9982142843518939,1,0.9909615388283363,1,1,1,0.9781153788933387,1,0.06666666666666667,1,1,1,1,1,1,1,1,1,1,1,0.5112666630744934,0.9359999974568685,0.9982142843518939,1,0.9909615388283363,1,1,1,0.9781153788933387,1,0.9651333363850911,1,1,1,1,0.9999999999999999,1,0.9999999999999999,1,1,1,1,2018-04-23T12:00:00Z,2018-05-08T12:00:00Z,2018-05-11T12:00:00Z,2018-06-15T12:00:00Z,2018-07-08T12:00:00Z,2018-08-03T12:00:00Z,2018-08-04T12:00:00Z,2018-08-11T12:00:00Z,2018-08-18T12:00:00Z,2018-08-31T12:00:00Z,2018-09-04T12:00:00Z,2018-05-07T12:00:00Z,2018-05-10T12:00:00Z,2018-06-14T12:00:00Z,2018-07-07T12:00:00Z,2018-08-02T12:00:00Z,2018-08-03T12:00:00Z,2018-08-10T12:00:00Z,2018-08-17T12:00:00Z,2018-08-30T12:00:00Z,2018-09-03T12:00:00Z,2018-09-18T12:00:00Z,113,128,131,166,189,215,216,223,230,243,247,14,2,34,22,25,0,6,6,12,3,14,127,130,165,188,214,215,222,229,242,246,261
107,urbana_il,40.05325,-88.23485,3,2018-05-07,17,2018,early3,1449.4782173364913,11,2018-04-23,2018-05-07,120,2018-09-04,2018-09-08,2018-09-22,Harvested at Maturity.,1.2693333228429158,11.206666310628256,4.562432524320242,5.146666660904884,2.7984614784900956,0.6499999761581421,0.12571428503308976,12.294285535812378,1.2592307879374576,6.362500190734863,5.357333405812581,1.2693333228429158,11.206666310628256,4.562432524320242,5.146666660904884,2.7984614784900956,0.6499999761581421,0.12571428503308976,12.294285535812378,1.2592307879374576,6.362500190734863,5.357333405812581,22.22492961883545,21.764448801676433,19.38908881110114,19.273857474327087,20.244889699495754,19.652359008789063,20.641591208321707,15.3281888961792,16.941107676579403,16.09018611907959,15.512178325653077,22.44933312733968,27.760000228881836,29.299729682303763,29.84500002861023,27.95653856717623,32.060001373291016,29.641428538731166,28.591428756713867,28.66230788597694,32.39750051498413,28.743999989827476,14.979333166281382,19.800000031789146,23.062972970910973,24.667291740576427,22.579999997065617,26.51500034332275,23.803571156093053,23.707857404436382,23.319615620833176,26.426250457763672,22.385666688283283,7.509333205223084,11.839999834696451,16.826216259518183,19.48958345254262,17.203461426955002,20.969999313354492,17.96571377345494,18.8242860521589,17.976923355689415,20.455000400543213,16.027333386739095,5.976867260297537,9.800000031789144,8.144383531272993,8.225500691316538,9.017219414305679,13.03307683211708,12.18120525786176,13.182901521257339,12.955806537706119,14.56084061317146,10.905703544537227,5.976867260297537,9.800000031789144,8.144383531272993,8.225500691316538,9.017219414305679,13.03307683211708,12.18120525786176,13.182901521257339,12.955806537706119,14.56084061317146,10.905703544537227,0,0,301.3421906571008,498.754207248698,733.2019120206456,746.2349888527627,831.503425657795,923.7837363065964,1092.209221296776,1150.452583749462,1150.452583749462,0,0,0.9976486502466975,1,0.9915384604380681,1,1,1,0.982730770111084,1,0.06666666666666667,1,1,1,1,1,1,1,1,1,1,1,0.49963332533836363,0.9433333237965902,0.9976486502466975,1,0.9915384604380681,1,1,1,0.982730770111084,1,0.9566333325703938,1,1,1,0.9999999999999999,1,1,1,1,1,1,1,2018-04-23T12:00:00Z,2018-05-08T12:00:00Z,2018-05-11T12:00:00Z,2018-06-17T12:00:00Z,2018-07-11T12:00:00Z,2018-08-06T12:00:00Z,2018-08-07T12:00:00Z,2018-08-14T12:00:00Z,2018-08-21T12:00:00Z,2018-09-03T12:00:00Z,2018-09-07T12:00:00Z,2018-05-07T12:00:00Z,2018-05-10T12:00:00Z,2018-06-16T12:00:00Z,2018-07-10T12:00:00Z,2018-08-05T12:00:00Z,2018-08-06T12:00:00Z,2018-08-13T12:00:00Z,2018-08-20T12:00:00Z,2018-09-02T12:00:00Z,2018-09-06T12:00:00Z,2018-09-21T12:00:00Z,113,128,131,168,192,218,219,226,233,246,250,14,2,36,23,25,0,6,6,12,3,14,127,130,167,191,217,218,225,232,245,249,264
108,wanatah_in,41.4444,-86.9437,3,2018-05-25,20,2018,early3,1111.721987733776,11,2018-05-11,2018-05-25,124,2018-09-26,2018-10-03,2018-10-17,Harvested at Maturity.,3.625333348910014,0,3.1649999591437252,1.9729166428248088,5.467142956597464,NA,2.1285714421953474,6.345714432852609,0.9917647137361413,2.7028570771217346,5.641333436965942,3.625333348910014,0,3.1649999591437252,1.9729166428248088,5.467142956597464,NA,2.1285714421953474,6.345714432852609,0.9917647137361413,2.7028570771217346,5.641333436965942,18.813925361633302,23.037665367126465,19.838676593520425,19.657570838928223,16.87846483503069,NA,15.519906725202288,12.597589765276227,15.795197991763844,14.081239700317383,10.165151468912761,22.804666582743327,33.02500057220459,28.248409097844903,27.760416746139526,28.43238094874791,NA,29.16285732814244,29.264285496303014,25.942352968103744,22.317143031529017,19.591333421071372,16.875333309173584,25.90000009536743,22.689204508608036,22.309791723887127,23.08047612508138,NA,23.554285798754012,24.447142601013184,19.86058825605056,15.930000066757202,14.263333413998286,10.946000035603841,18.774999618530273,17.129999919371173,16.859166701634724,17.728571301414853,NA,17.945714269365585,19.629999705723353,13.778823543997373,9.542857101985387,8.935333406925201,6.86072002915899,14.03196044136882,6.696944285420105,8.252715425737414,11.574177238375977,NA,12.917722814602511,13.567332871263368,10.15142130053359,7.697992009519254,5.22851510468334,6.86072002915899,14.03196044136882,6.696944285420105,8.252715425737414,11.574177238375977,NA,12.917722814602511,13.567332871263368,10.15142130053359,7.697992009519254,5.22851510468334,0,0,294.66554855848455,492.7307187761824,735.7884407820779,NA,826.2125004842954,921.1838305831392,1093.75799269221,1147.643936758845,1147.643936758845,0,0,0.9733977296135642,0.989104167620341,0.9868333362397693,NA,0.9756428514208112,0.9879285676138742,0.8346764802932739,0.5804285832813808,0.04486666997273763,1,1,1,1,1,NA,1,1,1,1,1,0.6554666646321615,1,0.9733977296135642,0.989104167620341,0.9868333362397693,NA,0.9756428514208112,0.9879285676138742,0.8346764802932739,0.5804285832813808,0.4869000021616618,1,1,1,0.9999999999999999,1,NA,1,1,0.9999999999999999,0.9999999999999999,1,2018-05-11T12:00:00Z,2018-05-26T12:00:00Z,2018-05-28T12:00:00Z,2018-07-11T12:00:00Z,2018-08-04T12:00:00Z,NA,2018-08-25T12:00:00Z,2018-09-01T12:00:00Z,2018-09-08T12:00:00Z,2018-09-25T12:00:00Z,2018-10-02T12:00:00Z,2018-05-25T12:00:00Z,2018-05-27T12:00:00Z,2018-07-10T12:00:00Z,2018-08-03T12:00:00Z,2018-08-24T12:00:00Z,NA,2018-08-31T12:00:00Z,2018-09-07T12:00:00Z,2018-09-24T12:00:00Z,2018-10-01T12:00:00Z,2018-10-16T12:00:00Z,131,146,148,192,216,NA,237,244,251,268,275,14,1,43,23,20,NA,6,6,16,6,14,145,147,191,215,236,NA,243,250,267,274,289
109,novelty_mo,39.9428,-92.0534,3,2018-05-15,47,2018,early3,1377.3124818333256,11,2018-05-01,2018-05-15,114,2018-09-06,2018-09-12,2018-09-26,Harvested at Maturity.,4.47466672261556,0.7666666507720947,1.519722259706921,2.1443478231844693,3.0178260492241904,0,3.167142936161586,14.362856694630214,6.533333420753479,15.198333303133646,0.6693333307902019,4.47466672261556,0.7666666507720947,1.519722259706921,2.1443478231844693,3.0178260492241904,0,3.167142936161586,14.362856694630214,6.533333420753479,15.198333303133646,0.6693333307902019,19.23251946767171,15.328041394551596,19.941073815027874,21.782313471255094,19.799406756525453,23.42487335205078,17.919889177594865,15.745279039655413,14.897465070088705,10.598543206850687,16.638466453552248,27.724666595458984,25.646666208902996,30.341388914320206,31.966086843739387,29.71043470631475,33.470001220703125,30.931428364345006,27.76285743713379,30.5625,23.986666997273762,28.773333485921224,20.821333344777425,20.859999974568684,24.34999997085995,25.90195653749549,23.645217418670654,25.395000457763672,24.612142699105398,22.356428623199463,25.287500103314716,20.18583337465922,21.909333419799804,13.918000094095866,16.073333740234375,18.3586110273997,19.837826231251594,17.58000013102656,17.31999969482422,18.292857033865793,16.949999809265137,20.012500206629436,16.384999752044678,15.045333353678386,10.821333344777425,10.859999974568685,8.11671139534694,8.723254014604079,10.045903442476728,11.836068157611445,12.777032616296522,12.26173239829567,14.102979677108925,10.376618677691619,10.79647693674167,10.821333344777425,10.859999974568685,8.11671139534694,8.723254014604079,10.045903442476728,11.836068157611445,12.777032616296522,12.26173239829567,14.102979677108925,10.376618677691619,10.79647693674167,0,0,292.20161023248977,492.8364525683835,723.8922317453482,735.7282999029596,825.167528217035,910.9996550051048,1080.235411130412,1142.4951231965615,1142.4951231965615,0,0,0.9932222233878242,1,0.9909130428148353,1,1,0.992071431023734,1,0.8573333501815796,0.06150000254313152,1,1,1,1,1,1,1,1,1,1,1,0.9814666684468587,0.9664999961853028,0.9932222233878242,1,0.9909130428148353,1,1,0.992071431023734,1,0.8573333501815796,0.922466672261556,1,1,1,1,0.9999999999999999,0.9999999999999998,0.9844328249289979,0.9999999999999999,0.9999999999999999,0.9999999999999999,1,2018-05-01T12:00:00Z,2018-05-16T12:00:00Z,2018-05-19T12:00:00Z,2018-06-24T12:00:00Z,2018-07-17T12:00:00Z,2018-08-09T12:00:00Z,2018-08-10T12:00:00Z,2018-08-17T12:00:00Z,2018-08-24T12:00:00Z,2018-09-05T12:00:00Z,2018-09-11T12:00:00Z,2018-05-15T12:00:00Z,2018-05-18T12:00:00Z,2018-06-23T12:00:00Z,2018-07-16T12:00:00Z,2018-08-08T12:00:00Z,2018-08-09T12:00:00Z,2018-08-16T12:00:00Z,2018-08-23T12:00:00Z,2018-09-04T12:00:00Z,2018-09-10T12:00:00Z,2018-09-25T12:00:00Z,121,136,139,175,198,221,222,229,236,248,254,14,2,35,22,22,0,6,6,11,5,14,135,138,174,197,220,221,228,235,247,253,268
110,rockport_mo,40.273,-95.4743,3,2018-05-23,48,2018,early3,1219.3533485576786,11,2018-05-09,2018-05-23,116,2018-09-16,2018-09-20,2018-10-04,Harvested at Maturity.,1.5453333655993144,0,3.9271052636598287,1.2240909012881191,5.596818230368874,0,6.672500133514404,4.630000114440918,8.666666587193808,0,2.0466667016347246,1.5453333655993144,0,3.9271052636598287,1.2240909012881191,5.596818230368874,0,6.672500133514404,4.630000114440918,8.666666587193808,0,2.0466667016347246,19.137523206075034,22.10373306274414,19.469280682112043,21.615049513903532,19.319418907165527,17.170804977416992,14.243468165397644,15.7490390141805,13.360885461171469,17.59220790863037,13.679044564565023,27.77533327738444,33.084999084472656,31.28263137215062,31.675454226407137,30.598181637850676,29.88999938964844,26.30750012397766,30.31000010172526,26.82199999491374,33.61750030517578,23.567999903361002,21.083333237965903,25.91249942779541,25.028026179263467,25.370227163488217,23.881818056106567,24.449999809265137,21.54562509059906,24.430833339691162,21.957333342234293,26.1875,17.254999939600626,14.391333198547363,18.739999771118164,18.773420986376312,19.065000100569293,17.16545447436246,19.010000228881836,16.78375005722046,18.551666577657063,17.09266668955485,18.75749969482422,10.94199997584025,10.958186216429075,14.119197470921275,7.774326666446822,8.998006824253967,10.718580514325737,13.679392669886196,11.336081995682084,13.553646817785502,11.910804613475005,13.964026955336331,6.082832261072199,10.958186216429075,14.119197470921275,7.774326666446822,8.998006824253967,10.718580514325737,13.679392669886196,11.336081995682084,13.553646817785502,11.910804613475005,13.964026955336331,6.082832261072199,0,0,295.4244133249792,493.3805634585664,729.1893347737326,742.8687274436188,833.5573834090753,914.8792643157884,1093.5413335179137,1149.3974413392589,1149.3974413392589,0,0,0.9906052639609889,1,1,1,0.9680624961853027,0.9847500006357829,0.963233331044515,1,0.06666666666666667,1,1,1,1,1,1,1,1,1,1,1,0.9784666601816814,1,0.9906052639609889,1,1,1,0.9680624961853027,0.9847500006357829,0.963233331044515,1,0.6102333307266236,1,1,1,1,0.9999999999999999,1,1,0.9999999999999999,1,1,1,2018-05-09T12:00:00Z,2018-05-24T12:00:00Z,2018-05-26T12:00:00Z,2018-07-03T12:00:00Z,2018-07-25T12:00:00Z,2018-08-16T12:00:00Z,2018-08-17T12:00:00Z,2018-08-25T12:00:00Z,2018-08-31T12:00:00Z,2018-09-15T12:00:00Z,2018-09-19T12:00:00Z,2018-05-23T12:00:00Z,2018-05-25T12:00:00Z,2018-07-02T12:00:00Z,2018-07-24T12:00:00Z,2018-08-15T12:00:00Z,2018-08-16T12:00:00Z,2018-08-24T12:00:00Z,2018-08-30T12:00:00Z,2018-09-14T12:00:00Z,2018-09-18T12:00:00Z,2018-10-03T12:00:00Z,129,144,146,184,206,228,229,237,243,258,262,14,1,37,21,21,0,7,5,14,3,14,143,145,183,205,227,228,236,242,257,261,276
111,urbana_il,40.05325,-88.23485,4,2018-05-07,17,2018,early4,1768.2521653814124,11,2018-04-23,2018-05-07,138,2018-09-22,2018-10-01,2018-10-15,Harvested at Maturity.,1.2693333228429158,11.206666310628256,5.41145841528972,2.8943332711855567,4.280399935245514,0,2.2085714595658437,0,7.054000123341878,3.928888850741916,1.8779999295870464,1.2693333228429158,11.206666310628256,5.41145841528972,2.8943332711855567,4.280399935245514,0,2.2085714595658437,0,7.054000123341878,3.928888850741916,1.8779999295870464,22.22492961883545,21.764448801676433,18.681840697924297,21.02060702641805,18.51643745422363,18.95376205444336,16.37122358594622,18.418053763253347,15.313568592071533,13.77822208404541,11.458758958180745,22.44933312733968,27.760000228881836,29.126458247502644,29.487333488464355,28.369600143432617,25.260000228881836,28.875714438302175,31.637143271309988,28.756000010172528,23.42999988132053,23.69266678492228,14.979333166281382,19.800000031789146,23.283437490463257,23.952166716257732,23.088600025177,20.075000286102295,23.649285997663224,25.278571810041157,22.460000006357827,17.38055549727546,17.680000100533167,7.509333205223084,11.839999834696451,17.44041673342387,18.416999944051106,17.807599906921386,14.890000343322754,18.422857557024276,18.920000348772323,16.16400000254313,11.331111113230387,11.667333416144054,5.976867260297537,9.800000031789144,6.592049182708564,7.234093528797123,10.309774555819313,9.51379304333207,13.04313304534074,14.00674617575407,11.826765703717868,8.614622659027907,8.080992938117186,5.976867260297537,9.800000031789144,6.592049182708564,7.234093528797123,10.309774555819313,9.51379304333207,13.04313304534074,14.00674617575407,11.826765703717868,8.614622659027907,8.080992938117186,0,0,316.4183607700111,533.4411666339248,791.1855305294074,800.6993235727394,892.0012548901245,990.0484781204028,1167.449963676171,1244.9815676074218,1244.9815676074218,0,0,0.9981875012318293,1,0.9911999988555908,1,0.9679285730634417,1,0.9566333325703938,0.6805555476082696,0.057599999109903974,1,1,1,1,1,1,1,1,1,1,1,0.49963332533836363,0.9433333237965902,0.9981875012318293,1,0.9911999988555908,1,0.9679285730634417,1,0.9566333325703938,0.6805555476082696,0.7210666688283285,1,1,1,1,1,1,1,1,0.9999999999999999,1,1,2018-04-23T12:00:00Z,2018-05-08T12:00:00Z,2018-05-11T12:00:00Z,2018-06-28T12:00:00Z,2018-07-28T12:00:00Z,2018-08-22T12:00:00Z,2018-08-23T12:00:00Z,2018-08-30T12:00:00Z,2018-09-06T12:00:00Z,2018-09-21T12:00:00Z,2018-09-30T12:00:00Z,2018-05-07T12:00:00Z,2018-05-10T12:00:00Z,2018-06-27T12:00:00Z,2018-07-27T12:00:00Z,2018-08-21T12:00:00Z,2018-08-22T12:00:00Z,2018-08-29T12:00:00Z,2018-09-05T12:00:00Z,2018-09-20T12:00:00Z,2018-09-29T12:00:00Z,2018-10-14T12:00:00Z,113,128,131,179,209,234,235,242,249,264,273,14,2,47,29,24,0,6,6,14,8,14,127,130,178,208,233,234,241,248,263,272,287
112,novelty_mo,39.9428,-92.0534,4,2018-05-15,47,2018,early4,1430.084498125026,11,2018-05-01,2018-05-15,134,2018-09-26,2018-10-04,2018-10-18,Harvested at Maturity.,4.47466672261556,0.7666666507720947,1.5697872613338715,2.9317241208306677,6.2431816838004375,0,11.200000149863106,13.027142831257411,0.6274999976158142,0.3412500023841858,8.866000052293142,4.47466672261556,0.7666666507720947,1.5697872613338715,2.9317241208306677,6.2431816838004375,0,11.200000149863106,13.027142831257411,0.6274999976158142,0.3412500023841858,8.866000052293142,19.23251946767171,15.328041394551596,19.966413031233117,21.633266317433325,17.69285180351951,20.581878662109375,13.232413428170341,9.916304486138479,16.958807289600372,14.83777630329132,8.832418171564738,27.724666595458984,25.646666208902996,30.48191484491876,30.482758554919013,30.362727425315164,33.40999984741211,29.872856957571848,27.048571722848074,28.296250224113464,23.175000190734863,17.594666544596354,20.821333344777425,20.859999974568684,24.648723368949078,24.14844825350005,24.242727388035167,25.75,25.08499997002738,23.564285823277064,21.49531263113022,16.588125079870224,12.970333268245062,13.918000094095866,16.073333740234375,18.815531892979397,17.81413795208109,18.12272735075517,18.09000015258789,20.29714298248291,20.079999923706055,14.694375038146973,10.001249969005585,8.345999991893768,10.821333344777425,10.859999974568685,6.641600784485782,7.693547029489198,11.27125716915659,13.664629399544712,13.639580379945203,13.216450917007242,11.479103408249468,8.318849892936274,3.8685402515131546,10.821333344777425,10.859999974568685,6.641600784485782,7.693547029489198,11.27125716915659,13.664629399544712,13.639580379945203,13.216450917007242,11.479103408249468,8.318849892936274,3.8685402515131546,0,0,312.1552368708318,535.2681007260186,783.2357584474635,796.9003878470082,892.3774505066245,984.8926069256752,1168.5582614576665,1235.109060601157,1235.109060601157,0,0,0.9948085115310994,0.9927931029221108,0.9974772735075517,1,1,0.9277857235499791,0.9054062575101852,0.6058125108480453,0.06666666666666667,1,1,1,1,1,1,1,1,1,1,1,0.9814666684468587,0.9664999961853028,0.9948085115310994,0.9927931029221108,0.9974772735075517,1,1,0.9277857235499791,0.9054062575101852,0.6058125108480453,0.4023999977111816,1,1,1,1,0.9903902483026443,1,0.9999999999999999,1,1,1,1,2018-05-01T12:00:00Z,2018-05-16T12:00:00Z,2018-05-19T12:00:00Z,2018-07-05T12:00:00Z,2018-08-03T12:00:00Z,2018-08-25T12:00:00Z,2018-08-26T12:00:00Z,2018-09-02T12:00:00Z,2018-09-09T12:00:00Z,2018-09-25T12:00:00Z,2018-10-03T12:00:00Z,2018-05-15T12:00:00Z,2018-05-18T12:00:00Z,2018-07-04T12:00:00Z,2018-08-02T12:00:00Z,2018-08-24T12:00:00Z,2018-08-25T12:00:00Z,2018-09-01T12:00:00Z,2018-09-08T12:00:00Z,2018-09-24T12:00:00Z,2018-10-02T12:00:00Z,2018-10-17T12:00:00Z,121,136,139,186,215,237,238,245,252,268,276,14,2,46,28,21,0,6,6,15,7,14,135,138,185,214,236,237,244,251,267,275,290
113,rockport_mo,40.273,-95.4743,4,2018-05-23,48,2018,early4,1478.0386856129055,11,2018-05-09,2018-05-23,140,2018-10-10,2018-10-22,2018-11-05,Harvested at Maturity.,1.5453333655993144,0,3.273469389701376,2.1469231018653283,7.465000087564642,6.099999904632568,15.487499862909317,0,6.358636498451233,2.720000068346659,0.9706666549046834,1.5453333655993144,0,3.273469389701376,2.1469231018653283,7.465000087564642,6.099999904632568,15.487499862909317,0,6.358636498451233,2.720000068346659,0.9706666549046834,19.137523206075034,22.10373306274414,20.306777594040852,20.178101741350613,15.742773099379106,10.605483055114746,9.2020805478096,19.012133359909058,12.70088791847229,10.089521249135336,9.61059726079305,27.77533327738444,33.084999084472656,31.75510176833795,30.307307683504543,28.953636169433594,27.559999465942383,25.798750162124634,29.27500033378601,22.84590890190818,15.074999888737997,15.779333241780598,21.083333237965903,25.91249942779541,25.332550885725993,23.965769162544838,23.345681754025545,23.144999504089355,22.522500157356262,22.131250083446503,16.92318170720881,9.424999971020346,9.483333269755045,14.391333198547363,18.739999771118164,18.91000000311404,17.62423064158513,17.7377273386175,18.729999542236328,19.24625015258789,14.987499833106995,11.000454512509434,3.775000053302695,3.1873332977294924,10.958186216429075,14.119197470921275,6.3658571559250765,8.441005194101061,11.581875559709573,13.144999504089355,12.330816949419678,11.856206480145454,8.368374397692762,5.649834659985137,1.70843817904224,10.958186216429075,14.119197470921275,6.3658571559250765,8.441005194101061,11.581875559709573,13.144999504089355,12.330816949419678,11.856206480145454,8.368374397692762,5.649834659985137,1.70843817904224,0,0,311.92700064032874,531.3931356869562,786.1943980005668,799.3393975046562,897.9859331000135,992.8355849411772,1176.9398216904176,1244.737837610239,1244.737837610239,0,0,0.9927142863370935,1,0.9842272715135054,1,0.9730000019073487,0.958062493801117,0.5561363599517128,0.11062499980131785,0,1,1,1,1,1,1,1,1,1,1,1,0.9784666601816814,1,0.9927142863370935,1,0.9842272715135054,1,0.9730000019073487,0.958062493801117,0.5561363599517128,0.11062499980131785,0.062099993228912354,1,1,1,1,0.9999999999999999,1,1,1,0.9999999999999999,1,1,2018-05-09T12:00:00Z,2018-05-24T12:00:00Z,2018-05-26T12:00:00Z,2018-07-14T12:00:00Z,2018-08-09T12:00:00Z,2018-08-31T12:00:00Z,2018-09-01T12:00:00Z,2018-09-09T12:00:00Z,2018-09-17T12:00:00Z,2018-10-09T12:00:00Z,2018-10-21T12:00:00Z,2018-05-23T12:00:00Z,2018-05-25T12:00:00Z,2018-07-13T12:00:00Z,2018-08-08T12:00:00Z,2018-08-30T12:00:00Z,2018-08-31T12:00:00Z,2018-09-08T12:00:00Z,2018-09-16T12:00:00Z,2018-10-08T12:00:00Z,2018-10-20T12:00:00Z,2018-11-04T12:00:00Z,129,144,146,195,221,243,244,252,260,282,294,14,1,48,25,21,0,7,7,21,11,14,143,145,194,220,242,243,251,259,281,293,308
