ID,Site,Latitude,Longitude,Genetics,Planting,ID_Loc,Year,Mat,Yield_Sim,MaxStage,StartDate,PlantingDate_Sim,DTM_Sim,MatDate_Sim,HarvestDate_Sim,EndDate,Result,Rain_1,Rain_2,Rain_3,Rain_4,Rain_5,Rain_6,Rain_7,Rain_8,Rain_9,Rain_10,Rain_11,AccRain_1,AccRain_2,AccRain_3,AccRain_4,AccRain_5,AccRain_6,AccRain_7,AccRain_8,AccRain_9,AccRain_10,AccRain_11,Radn_1,Radn_2,Radn_3,Radn_4,Radn_5,Radn_6,Radn_7,Radn_8,Radn_9,Radn_10,Radn_11,MaxT_1,MaxT_2,MaxT_3,MaxT_4,MaxT_5,MaxT_6,MaxT_7,MaxT_8,MaxT_9,MaxT_10,MaxT_11,MeanT_1,MeanT_2,MeanT_3,MeanT_4,MeanT_5,MeanT_6,MeanT_7,MeanT_8,MeanT_9,MeanT_10,MeanT_11,MinT_1,MinT_2,MinT_3,MinT_4,MinT_5,MinT_6,MinT_7,MinT_8,MinT_9,MinT_10,MinT_11,ThermalTime_1,ThermalTime_2,ThermalTime_3,ThermalTime_4,ThermalTime_5,ThermalTime_6,ThermalTime_7,ThermalTime_8,ThermalTime_9,ThermalTime_10,ThermalTime_11,AccTT_1,AccTT_2,AccTT_3,AccTT_4,AccTT_5,AccTT_6,AccTT_7,AccTT_8,AccTT_9,AccTT_10,AccTT_11,AccEmTT_1,AccEmTT_2,AccEmTT_3,AccEmTT_4,AccEmTT_5,AccEmTT_6,AccEmTT_7,AccEmTT_8,AccEmTT_9,AccEmTT_10,AccEmTT_11,FracGrowthRate_1,FracGrowthRate_2,FracGrowthRate_3,FracGrowthRate_4,FracGrowthRate_5,FracGrowthRate_6,FracGrowthRate_7,FracGrowthRate_8,FracGrowthRate_9,FracGrowthRate_10,FracGrowthRate_11,NutrientStress_1,NutrientStress_2,NutrientStress_3,NutrientStress_4,NutrientStress_5,NutrientStress_6,NutrientStress_7,NutrientStress_8,NutrientStress_9,NutrientStress_10,NutrientStress_11,TempStress_1,TempStress_2,TempStress_3,TempStress_4,TempStress_5,TempStress_6,TempStress_7,TempStress_8,TempStress_9,TempStress_10,TempStress_11,WaterStress_1,WaterStress_2,WaterStress_3,WaterStress_4,WaterStress_5,WaterStress_6,WaterStress_7,WaterStress_8,WaterStress_9,WaterStress_10,WaterStress_11,Period_Start_Date_1,Period_Start_Date_2,Period_Start_Date_3,Period_Start_Date_4,Period_Start_Date_5,Period_Start_Date_6,Period_Start_Date_7,Period_Start_Date_8,Period_Start_Date_9,Period_Start_Date_10,Period_Start_Date_11,Period_End_Date_1,Period_End_Date_2,Period_End_Date_3,Period_End_Date_4,Period_End_Date_5,Period_End_Date_6,Period_End_Date_7,Period_End_Date_8,Period_End_Date_9,Period_End_Date_10,Period_End_Date_11,Period_Start_DOY_1,Period_Start_DOY_2,Period_Start_DOY_3,Period_Start_DOY_4,Period_Start_DOY_5,Period_Start_DOY_6,Period_Start_DOY_7,Period_Start_DOY_8,Period_Start_DOY_9,Period_Start_DOY_10,Period_Start_DOY_11,Duration_1,Duration_2,Duration_3,Duration_4,Duration_5,Duration_6,Duration_7,Duration_8,Duration_9,Duration_10,Duration_11,Period_End_DOY_1,Period_End_DOY_2,Period_End_DOY_3,Period_End_DOY_4,Period_End_DOY_5,Period_End_DOY_6,Period_End_DOY_7,Period_End_DOY_8,Period_End_DOY_9,Period_End_DOY_10,Period_End_DOY_11
1,rosemount_mn,44.707,-93.101,-1.5,2017,1,2017,mid000,233.30144641187655,11,2017-04-05,2017-04-19,106,2017-08-03,2017-08-08,2017-08-22,Harvested at Maturity.,4.768000008786718,2.5950000343844293,NA,4.264482781740612,4.283846141913762,0.699999988079071,2.1157143033508743,1.4600000048854522,5.817857253897403,3.5920000314712524,5.627333248903354,4.768000008786718,2.5950000343844293,NA,4.264482781740612,4.283846141913762,0.699999988079071,2.1157143033508743,1.4600000048854522,5.817857253897403,3.5920000314712524,5.627333248903354,14.432000096638998,18.415000247955323,NA,21.199310368505017,22.496923208236694,26.610000610351563,24.38999993460519,22.56000014713832,21.689285618918284,18.013999366760252,16.678666845957437,14.923999977111816,14.72149999141693,NA,21.07206887212293,24.386923129741962,26.760000228881836,27.958571570260183,27.522857393537247,26.97857121058873,23.805999755859375,24.61066665649414,9.033666665355364,8.915749991312623,NA,15.262241293644083,19.116923093795776,22.00500011444092,22.61000006539481,21.66928563799177,21.630714144025532,18.138999938964844,19.395000012715656,3.1433333535989125,3.1099999912083147,NA,9.452413715165237,13.84692305784959,17.25,17.261428560529435,15.815713882446289,16.28285707746233,12.472000122070313,14.179333368937174,1.7784046994537115,1.9949860149826855,NA,5.371409204353515,8.065888306862751,10.718348022038898,11.286322258340071,10.907451460645401,11.358581257830062,8.744071648312806,8.807666683197022,1.7784046994537115,1.9949860149826855,NA,5.371409204353515,8.065888306862751,10.718348022038898,11.286322258340071,10.907451460645401,11.358581257830062,8.744071648312806,8.807666683197022,0,0,NA,155.77086692625195,365.4839629046835,376.2023109267224,455.2065667351029,531.5587269596208,690.5788645692415,734.2992228108056,734.2992228108056,0,0,NA,0.5280344782204464,0.8314423065919143,1,1,0.9335000038146973,0.9829642874853952,0.7998000049591065,0.05873333295186361,1,1,NA,1,1,1,1,1,1,1,1,0.11243333180745443,0.12652499854564667,NA,0.5280344782204464,0.8314423065919143,1,1,0.9335000038146973,0.9829642874853952,0.7998000049591065,0.9148666636149089,1,1,NA,1,0.9999999999999999,1,1,0.9999999999999999,0.9999999999999999,0.9999999999999999,1,2017-04-05T12:00:00Z,2017-04-20T12:00:00Z,NA,2017-05-10T12:00:00Z,2017-06-08T12:00:00Z,2017-07-04T12:00:00Z,2017-07-05T12:00:00Z,2017-07-12T12:00:00Z,2017-07-19T12:00:00Z,2017-08-02T12:00:00Z,2017-08-07T12:00:00Z,2017-04-19T12:00:00Z,2017-05-09T12:00:00Z,NA,2017-06-07T12:00:00Z,2017-07-03T12:00:00Z,2017-07-04T12:00:00Z,2017-07-11T12:00:00Z,2017-07-18T12:00:00Z,2017-08-01T12:00:00Z,2017-08-06T12:00:00Z,2017-08-21T12:00:00Z,95,110,NA,130,159,185,186,193,200,214,219,14,19,0,28,25,0,6,6,13,4,14,109,129,NA,158,184,185,192,199,213,218,233
2,rosemount_mn,44.707,-93.101,-0.5,2017,1,2017,mid00,865.8308815763929,11,2017-04-05,2017-04-19,145,2017-09-11,2017-09-14,2017-09-28,Harvested at Maturity.,4.768000008786718,2.5950000343844293,4.138163284797754,2.8311110816689,5.411052727189503,0.5099999904632568,2.5411110619703927,8.084999895188957,1.4110526056273986,0.0033333332588275266,2.882000000526508,4.768000008786718,2.5950000343844293,4.138163284797754,2.8311110816689,5.411052727189503,0.5099999904632568,2.5411110619703927,8.084999895188957,1.4110526056273986,0.0033333332588275266,2.882000000526508,14.432000096638998,18.415000247955323,21.552244955179642,23.84444459279378,21.40368406396163,25.959999084472656,18.27333339055379,14.563750147819519,18.197894648501748,17.19333330790202,13.725333372751871,14.923999977111816,14.72149999141693,22.373469352722168,26.488333490159775,26.949473531622637,23.299999237060547,24.31999969482422,24.857500314712524,22.80947374042712,28.06333287556966,25.27600008646647,9.033666665355364,8.915749991312623,16.81367341596253,20.998333401150173,21.539736697548314,16.574999809265137,18.923333221011692,19.759375154972076,16.845263192528172,21.098333199818928,19.62733333905538,3.1433333535989125,3.1099999912083147,11.253877479202893,15.508333312140572,16.129999863473994,9.850000381469728,13.526666747199165,14.661249995231628,10.881052644629229,14.133333524068197,13.978666591644288,1.7784046994537115,1.9949860149826855,6.0420937322658075,9.227169293569174,10.670998855356682,6.5063571246633485,9.149196105860643,9.86194351400584,7.9792377918778286,11.234473798684279,8.846055613822738,1.7784046994537115,1.9949860149826855,6.0420937322658075,9.227169293569174,10.670998855356682,6.5063571246633485,9.149196105860643,9.86194351400584,7.9792377918778286,11.234473798684279,8.846055613822738,0,0,296.0625928810245,462.15164016526967,664.9006184170465,671.4069755417099,753.7497404944556,832.6452886065023,984.250806652181,1017.954228048234,1017.954228048234,0,0,0.6409897921036701,0.9475833363003201,0.9661578981499923,0.6574999809265137,0.8923333221011692,0.929750007390976,0.6825526325326218,0.9903333187103271,0.06666666666666667,1,1,1,1,1,1,1,1,1,1,1,0.11243333180745443,0.12652499854564667,0.6409897921036701,0.9475833363003201,0.9661578981499923,0.6574999809265137,0.8923333221011692,0.929750007390976,0.6825526325326218,0.9903333187103271,0.7853333457310995,1,1,1,1,1,1,0.9999999999999999,1,0.9999999999999999,0.9999999999999998,1,2017-04-05T12:00:00Z,2017-04-20T12:00:00Z,2017-05-10T12:00:00Z,2017-06-28T12:00:00Z,2017-07-16T12:00:00Z,2017-08-04T12:00:00Z,2017-08-05T12:00:00Z,2017-08-14T12:00:00Z,2017-08-22T12:00:00Z,2017-09-10T12:00:00Z,2017-09-13T12:00:00Z,2017-04-19T12:00:00Z,2017-05-09T12:00:00Z,2017-06-27T12:00:00Z,2017-07-15T12:00:00Z,2017-08-03T12:00:00Z,2017-08-04T12:00:00Z,2017-08-13T12:00:00Z,2017-08-21T12:00:00Z,2017-09-09T12:00:00Z,2017-09-12T12:00:00Z,2017-09-27T12:00:00Z,95,110,130,179,197,216,217,226,234,253,256,14,19,48,17,18,0,8,7,18,2,14,109,129,178,196,215,216,225,233,252,255,270
3,rosemount_mn,44.707,-93.101,0.5,2017,1,2017,mid0,947.8546368678308,11,2017-04-05,2017-04-19,148,2017-09-14,2017-09-17,2017-10-01,Harvested at Maturity.,4.768000008786718,2.5950000343844293,4.497884621807875,1.2788235339171745,4.99952389592571,0,7.747777577903536,3.750000009106265,0.43058823235332966,0.0033333332588275266,2.9126666663835445,4.768000008786718,2.5950000343844293,4.497884621807875,1.2788235339171745,4.99952389592571,0,7.747777577903536,3.750000009106265,0.43058823235332966,0.0033333332588275266,2.9126666663835445,14.432000096638998,18.415000247955323,21.46634621803577,24.921176573809454,20.691428366161528,25.950000762939453,14.560000048743355,16.938889079623753,18.372352824491614,15.299999872843424,13.70800002415975,14.923999977111816,14.72149999141693,22.528076887130737,26.980588464175952,26.28333309718541,26.979999542236328,23.766666624281143,23.771111170450848,23.93176471485811,29.746666590372723,23.476666768391926,9.033666665355364,8.915749991312623,16.980096108638325,21.442941216861502,20.783095110030402,19.8149995803833,19.048888895246716,18.443888929155136,17.54235297090867,23.076666673024494,17.81766668955485,3.1433333535989125,3.1099999912083147,11.432115330145908,15.905293969547047,15.282857122875395,12.649999618530272,14.331111166212294,13.116666687859428,11.152941226959229,16.40666675567627,12.158666610717773,1.7784046994537115,1.9949860149826855,5.608548898361547,8.854788043631535,9.520927953149727,9.555590221066392,9.153407696614284,8.876225992502107,8.623375838120019,13.076666673024496,7.2379966766854125,1.7784046994537115,1.9949860149826855,5.608548898361547,8.854788043631535,9.520927953149727,9.555590221066392,9.153407696614284,8.876225992502107,8.623375838120019,13.076666673024496,7.2379966766854125,0,0,291.6445427148004,442.1759394565365,642.115426472681,651.6710166937473,734.0516859632759,813.9377198957948,960.5351091438351,999.7651091629086,999.7651091629086,0,0,0.6588942271012527,0.953088238660027,0.9353095258985247,0.98149995803833,0.8922777758704292,0.8159444438086616,0.7309411764144897,1,0.06666666666666667,1,1,1,1,1,1,1,1,1,1,1,0.11243333180745443,0.12652499854564667,0.6588942271012527,0.953088238660027,0.9353095258985247,0.98149995803833,0.8922777758704292,0.8159444438086616,0.7309411764144897,1,0.6659000142415364,1,1,1,1,0.9999999999999999,0.9999999999999998,0.9999999999999999,0.9999999999999999,0.9999999999999999,0.9999999999999999,1,2017-04-05T12:00:00Z,2017-04-20T12:00:00Z,2017-05-10T12:00:00Z,2017-07-01T12:00:00Z,2017-07-18T12:00:00Z,2017-08-08T12:00:00Z,2017-08-09T12:00:00Z,2017-08-18T12:00:00Z,2017-08-27T12:00:00Z,2017-09-13T12:00:00Z,2017-09-16T12:00:00Z,2017-04-19T12:00:00Z,2017-05-09T12:00:00Z,2017-06-30T12:00:00Z,2017-07-17T12:00:00Z,2017-08-07T12:00:00Z,2017-08-08T12:00:00Z,2017-08-17T12:00:00Z,2017-08-26T12:00:00Z,2017-09-12T12:00:00Z,2017-09-15T12:00:00Z,2017-09-30T12:00:00Z,95,110,130,182,199,220,221,230,239,256,259,14,19,51,16,20,0,8,8,16,2,14,109,129,181,198,219,220,229,238,255,258,273
4,rosemount_mn,44.707,-93.101,1.5,2017,1,2017,mid1,1194.141174261691,11,2017-04-05,2017-04-19,165,2017-10-01,2017-10-09,2017-10-23,Harvested at Maturity.,4.768000008786718,2.5950000343844293,4.015593226651772,4.87142865705703,4.218399951159954,0.01999999955296516,2.3469999633729457,0.3249999875202775,2.544117647497093,12.86999972909689,1.6233333439876634,4.768000008786718,2.5950000343844293,4.015593226651772,4.87142865705703,4.218399951159954,0.01999999955296516,2.3469999633729457,0.3249999875202775,2.544117647497093,12.86999972909689,1.6233333439876634,14.432000096638998,18.415000247955323,22.149322113748322,21.636190505254838,18.511999950408935,24.329999923706055,16.574999809265137,18.214999961853028,13.961764700272504,7.811249941587448,10.76999994913737,14.923999977111816,14.72149999141693,23.038474567865922,27.02666664123535,24.857999954223633,23.149999618530273,23.155000114440917,24.07599983215332,24.74235299054314,18.632500052452087,17.066666666666666,9.033666665355364,8.915749991312623,17.503559296414004,21.63738084974743,19.446199989318846,16.30999994277954,17.75450005531311,17.230499958992006,18.99088235462413,13.704374969005585,11.268000004688899,3.1433333535989125,3.1099999912083147,11.968644024962085,16.24809505825951,14.034400024414062,9.470000267028809,12.353999996185303,10.385000085830688,13.23941171870512,8.776249885559082,5.46933334271113,1.7784046994537115,1.9949860149826855,5.221808037378265,8.577744599466698,8.747016874488203,6.309999942779541,8.331525134446025,8.64352100568682,9.932496484105553,6.10899674475044,2.4776958910654985,1.7784046994537115,1.9949860149826855,5.221808037378265,8.577744599466698,8.747016874488203,6.309999942779541,8.331525134446025,8.64352100568682,9.932496484105553,6.10899674475044,2.4776958910654985,0,0,308.08667420531765,488.21931079411826,706.8947326563233,713.2047325991028,796.5199839435633,882.9551940004313,1051.807634230226,1100.6796081882294,1100.6796081882294,0,0,0.693737285420046,0.9664761929284958,0.8976599998474122,0.6309999942779542,0.7733500003814697,0.6855499958992004,0.7425588341320263,0.3704374969005585,0.03786666870117188,1,1,1,1,1,1,1,1,1,1,1,0.11243333180745443,0.12652499854564667,0.693737285420046,0.9664761929284958,0.8976599998474122,0.6309999942779542,0.7733500003814697,0.6855499958992004,0.7425588341320263,0.3704374969005585,0.2197333304087321,1,1,1,0.9999999999999999,0.9999999999999999,1,1,0.9999999999999999,1,1,1,2017-04-05T12:00:00Z,2017-04-20T12:00:00Z,2017-05-10T12:00:00Z,2017-07-08T12:00:00Z,2017-07-29T12:00:00Z,2017-08-23T12:00:00Z,2017-08-24T12:00:00Z,2017-09-03T12:00:00Z,2017-09-13T12:00:00Z,2017-09-30T12:00:00Z,2017-10-08T12:00:00Z,2017-04-19T12:00:00Z,2017-05-09T12:00:00Z,2017-07-07T12:00:00Z,2017-07-28T12:00:00Z,2017-08-22T12:00:00Z,2017-08-23T12:00:00Z,2017-09-02T12:00:00Z,2017-09-12T12:00:00Z,2017-09-29T12:00:00Z,2017-10-07T12:00:00Z,2017-10-22T12:00:00Z,95,110,130,189,210,235,236,246,256,273,281,14,19,58,20,24,0,9,9,16,7,14,109,129,188,209,234,235,245,255,272,280,295
5,rosemount_mn,44.707,-93.101,2.5,2017,1,2017,mid2,1271.1595799973206,11,2017-04-05,2017-04-19,186,2017-10-22,2017-11-02,2017-11-16,Harvested at Maturity.,4.768000008786718,2.5950000343844293,3.8440909155390477,4.454583408311009,3.69166660780708,0,0.007499999832361937,3.607499983161688,4.818888808290163,1.6018182149326259,0.5079999952266614,4.768000008786718,2.5950000343844293,3.8440909155390477,4.454583408311009,3.69166660780708,0,0.007499999832361937,3.607499983161688,4.818888808290163,1.6018182149326259,0.5079999952266614,14.432000096638998,18.415000247955323,22.09060613314311,21.518749833106995,16.983666690190635,19,17.394999980926514,14.301250100135803,10.53851847295408,7.580909078771418,5.219999957084656,14.923999977111816,14.72149999141693,23.35939394343983,26.681666533152264,23.64266668955485,23.68000030517578,27.242499828338623,25.25375008583069,18.39185188434742,8.997272724455053,2.7933333277702332,9.033666665355364,8.915749991312623,17.857878762664217,21.054999887943268,18.199333357810975,15.175000190734863,20.4431249499321,19.526249885559082,12.894074107761735,4.939090899445794,-1.0710000018278758,3.1433333535989125,3.1099999912083147,12.356363581888603,15.428333242734274,12.756000026067097,6.670000076293945,13.643750071525574,13.798749685287476,7.3962963311760515,0.8809090744365345,-4.935333331425984,1.7784046994537115,1.9949860149826855,4.525619613435608,7.701492112545914,7.868636424910671,5.710463042664528,10.955357310347258,10.29070715085119,6.333099041803099,5.218274855283716,0,1.7784046994537115,1.9949860149826855,4.525619613435608,7.701492112545914,7.868636424910671,5.710463042664528,10.955357310347258,10.29070715085119,6.333099041803099,5.218274855283716,0,0,0,298.69089448675027,483.5267051878522,719.5857979351725,725.296260977837,812.9391194606151,895.2647766674246,1066.2584507961085,1123.6594742042291,1123.6594742042291,0,0,0.7191666646437211,0.9433958351612092,0.8063666653633118,0.5175000190734863,0.8841249942779541,0.7978750109672547,0.3225185200020119,0.0719999985261397,0,1,1,1,1,1,1,1,1,1,1,1,0.11243333180745443,0.12652499854564667,0.7191666646437211,0.9433958351612092,0.8063666653633118,0.5175000190734863,0.8841249942779541,0.7978750109672547,0.3225185200020119,0.0719999985261397,0,1,1,1,0.9999999999999999,0.9999999999999999,0.9999999999999998,1,1,1,0.9999999999999999,1,2017-04-05T12:00:00Z,2017-04-20T12:00:00Z,2017-05-10T12:00:00Z,2017-07-15T12:00:00Z,2017-08-08T12:00:00Z,2017-09-07T12:00:00Z,2017-09-08T12:00:00Z,2017-09-16T12:00:00Z,2017-09-24T12:00:00Z,2017-10-21T12:00:00Z,2017-11-01T12:00:00Z,2017-04-19T12:00:00Z,2017-05-09T12:00:00Z,2017-07-14T12:00:00Z,2017-08-07T12:00:00Z,2017-09-06T12:00:00Z,2017-09-07T12:00:00Z,2017-09-15T12:00:00Z,2017-09-23T12:00:00Z,2017-10-20T12:00:00Z,2017-10-31T12:00:00Z,2017-11-15T12:00:00Z,95,110,130,196,220,250,251,259,267,294,305,14,19,65,23,29,0,7,7,26,10,14,109,129,195,219,249,250,258,266,293,304,319
6,rosemount_mn,44.707,-93.101,-1.5,2018,1,2018,mid000,186.54699734265833,11,2018-04-24,2018-05-08,77,2018-07-24,2018-07-28,2018-08-11,Harvested at Maturity.,2.209333350881934,3.468749971129,NA,3.3368750603403896,5.596363630738448,1.2699999809265137,4.7028571878160745,1.2271428957049335,3.717857128142246,0.8500000014901161,1.4440000082055728,2.209333350881934,3.468749971129,NA,3.3368750603403896,5.596363630738448,1.2699999809265137,4.7028571878160745,1.2271428957049335,3.717857128142246,0.8500000014901161,1.4440000082055728,22.56399984359741,17.525000035762787,NA,21.632500112056732,17.5140907981179,13.93000030517578,20.21142836979457,25.061428342546737,22.514285530362812,20.382500410079956,20.823333168029784,20.5086664835612,19.851250290870667,NA,27.389999985694885,25.255454670299184,26.959999084472656,27.265714372907365,28.474285670689174,28.209999629429408,26.59500026702881,28.351333491007487,13.058333274225394,14.055000126361847,NA,21.380625054240227,20.39840917153792,21.37999963760376,22.832857268197195,22.705714293888636,22.588571275983536,20.83625018596649,22.096666653951008,5.60800006488959,8.258749961853027,NA,15.371250122785568,15.541363672776656,15.800000190734863,18.400000163487025,16.9371429170881,16.96714292253767,15.077500104904175,15.841999816894532,4.5228764360180005,4.746038753534108,NA,10.2154518416624,9.168825671439524,9.986765523802635,11.158214258987062,11.34947228606807,11.520587581798607,10.574705635285136,11.456610154337882,4.5228764360180005,4.746038753534108,NA,10.2154518416624,9.168825671439524,9.986765523802635,11.158214258987062,11.34947228606807,11.520587581798607,10.574705635285136,11.456610154337882,0,0,NA,163.4472294665984,365.16139423826786,375.1481597620705,453.2556595749799,532.7019655774565,693.9901917226371,736.2890142637776,736.2890142637776,0,0,NA,0.8875000014901161,0.9313181833787398,1,1,0.9997142859867642,1,0.9298750042915345,0.051266663869222004,1,1,NA,1,1,1,1,1,1,1,1,0.37199999491373703,0.42937501072883605,NA,0.8875000014901161,0.9313181833787398,1,1,0.9997142859867642,1,0.9298750042915345,0.9747666676839193,1,1,NA,1,1,1,0.9999999999999999,1,1,0.9999999999999999,1,2018-04-24T12:00:00Z,2018-05-09T12:00:00Z,NA,2018-05-17T12:00:00Z,2018-06-02T12:00:00Z,2018-06-24T12:00:00Z,2018-06-25T12:00:00Z,2018-07-02T12:00:00Z,2018-07-09T12:00:00Z,2018-07-23T12:00:00Z,2018-07-27T12:00:00Z,2018-05-08T12:00:00Z,2018-05-16T12:00:00Z,NA,2018-06-01T12:00:00Z,2018-06-23T12:00:00Z,2018-06-24T12:00:00Z,2018-07-01T12:00:00Z,2018-07-08T12:00:00Z,2018-07-22T12:00:00Z,2018-07-26T12:00:00Z,2018-08-10T12:00:00Z,114,129,NA,137,153,175,176,183,190,204,208,14,7,0,15,21,0,6,6,13,3,14,128,136,NA,152,174,175,182,189,203,207,222
7,rosemount_mn,44.707,-93.101,-0.5,2018,1,2018,mid00,846.4051504240863,11,2018-04-24,2018-05-08,104,2018-08-20,2018-08-24,2018-09-07,Harvested at Maturity.,2.209333350881934,3.468749971129,4.483333377957796,4.259374992339872,2.928421045114335,0,0.9249999907333404,2.8516667000949383,0.8399999886751175,1.6674999939277768,8.904000121975939,2.209333350881934,3.468749971129,4.483333377957796,4.259374992339872,2.928421045114335,0,0.9249999907333404,2.8516667000949383,0.8399999886751175,1.6674999939277768,8.904000121975939,22.56399984359741,17.525000035762787,19.600302999669857,18.63124993443489,23.968420856877376,29.030000686645508,21.516249895095825,15.713333129882813,21.240000117908824,15.122499704360962,12.989333216349284,20.5086664835612,19.851250290870667,26.552727381388348,26.506874918937683,28.129473435251338,28.43000030517578,27.043750047683716,27.136666933695476,31.347272872924805,26.37249994277954,25.55133336385091,13.058333274225394,14.055000126361847,20.968181920774054,22.00125002861023,22.424210422917415,21.38000011444092,20.773124992847443,21.87583335240682,24.648636384443805,20.512499928474426,20.725000031789143,5.60800006488959,8.258749961853027,15.383636460159764,17.495625138282776,16.718947410583496,14.329999923706056,14.50249993801117,16.614999771118164,17.9499998959628,14.652499914169312,15.898666699727377,4.5228764360180005,4.746038753534108,9.151482899758559,9.772929020178031,10.69306717128916,10.46902049652047,10.411013210349351,11.864617967228078,13.972732823565872,10.7708447085768,10.066340072291693,4.5228764360180005,4.746038753534108,9.151482899758559,9.772929020178031,10.69306717128916,10.46902049652047,10.411013210349351,11.864617967228078,13.972732823565872,10.7708447085768,10.066340072291693,0,0,301.99893569203243,458.3658000148809,661.534076269375,672.0030967658954,755.2912024486902,826.4789102520588,980.1789713112834,1023.2623501455904,1023.2623501455904,0,0,0.9074242454586607,0.9839999973773956,0.9998947369424921,1,0.9360624969005584,0.9754166762034099,1,0.9518750071525574,0.06666666666666667,1,1,1,1,1,1,1,1,1,1,1,0.37199999491373703,0.42937501072883605,0.9074242454586607,0.9839999973773956,0.9998947369424921,1,0.9360624969005584,0.9754166762034099,1,0.9518750071525574,0.880633331934611,1,1,1,1,0.9999999999999999,1,0.9999999999999999,1,1,1,1,2018-04-24T12:00:00Z,2018-05-09T12:00:00Z,2018-05-17T12:00:00Z,2018-06-19T12:00:00Z,2018-07-05T12:00:00Z,2018-07-24T12:00:00Z,2018-07-25T12:00:00Z,2018-08-02T12:00:00Z,2018-08-08T12:00:00Z,2018-08-19T12:00:00Z,2018-08-23T12:00:00Z,2018-05-08T12:00:00Z,2018-05-16T12:00:00Z,2018-06-18T12:00:00Z,2018-07-04T12:00:00Z,2018-07-23T12:00:00Z,2018-07-24T12:00:00Z,2018-08-01T12:00:00Z,2018-08-07T12:00:00Z,2018-08-18T12:00:00Z,2018-08-22T12:00:00Z,2018-09-06T12:00:00Z,114,129,137,170,186,205,206,214,220,231,235,14,7,32,15,18,0,7,5,10,3,14,128,136,169,185,204,205,213,219,230,234,249
8,rosemount_mn,44.707,-93.101,0.5,2018,1,2018,mid0,950.36398159221,11,2018-04-24,2018-05-08,109,2018-08-25,2018-08-28,2018-09-11,Harvested at Maturity.,2.209333350881934,3.468749971129,4.896285744916115,2.8188235491295073,2.6485714188643863,0.5699999928474426,2.2342857090490207,0.8800000284488002,1.3266666542428236,8.039999882380167,7.286000145723422,2.209333350881934,3.468749971129,4.896285744916115,2.8188235491295073,2.6485714188643863,0.5699999928474426,2.2342857090490207,0.8800000284488002,1.3266666542428236,8.039999882380167,7.286000145723422,22.56399984359741,17.525000035762787,19.11628567831857,21.378235143773697,22.7338094938369,23.510000228881836,18.711428233555385,21.213333288828533,18.02833326657613,9.066666603088379,15.41266663869222,20.5086664835612,19.851250290870667,26.302571541922433,27.074705797083237,27.814285459972563,28.020000457763672,27.61428587777274,30.65333366394043,29.112500031789143,26.299999872843426,24.441333262125653,13.058333274225394,14.055000126361847,20.855285814830236,22.22029411091524,21.978333246140252,21.480000019073486,21.785714285714285,23.94583336512248,22.930833339691162,21.588333288828533,19.40166664123535,5.60800006488959,8.258749961853027,15.408000087738037,17.36588242474724,16.14238103230794,14.9399995803833,15.95714269365583,17.238333066304524,16.74916664759318,16.87666670481364,14.362000020345052,4.5228764360180005,4.746038753534108,8.250053998583107,9.051202755658542,9.71028172605827,10.261919983664187,10.976830586520935,13.126122676082037,12.679268564851085,11.588333288828531,8.377520451957782,4.5228764360180005,4.746038753534108,8.250053998583107,9.051202755658542,9.71028172605827,10.261919983664187,10.976830586520935,13.126122676082037,12.679268564851085,11.588333288828531,8.377520451957782,0,0,288.7518899504088,442.6223367966041,646.5382530438278,656.800173027492,733.6379871331384,812.3947231896306,964.5459459678434,999.310945834329,999.310945834329,0,0,0.9066571460451399,0.9972941146177404,0.9756428559621175,1,0.9789285796029227,1,0.9839583357175191,1,0.06666666666666667,1,1,1,1,1,1,1,1,1,1,1,0.37199999491373703,0.42937501072883605,0.9066571460451399,0.9972941146177404,0.9756428559621175,1,0.9789285796029227,1,0.9839583357175191,1,0.7801666577657064,1,1,1,1,0.9999999999999999,1,0.9999999999999999,0.9999999999999999,1,0.9999999999999999,1,2018-04-24T12:00:00Z,2018-05-09T12:00:00Z,2018-05-17T12:00:00Z,2018-06-21T12:00:00Z,2018-07-08T12:00:00Z,2018-07-29T12:00:00Z,2018-07-30T12:00:00Z,2018-08-06T12:00:00Z,2018-08-12T12:00:00Z,2018-08-24T12:00:00Z,2018-08-27T12:00:00Z,2018-05-08T12:00:00Z,2018-05-16T12:00:00Z,2018-06-20T12:00:00Z,2018-07-07T12:00:00Z,2018-07-28T12:00:00Z,2018-07-29T12:00:00Z,2018-08-05T12:00:00Z,2018-08-11T12:00:00Z,2018-08-23T12:00:00Z,2018-08-26T12:00:00Z,2018-09-10T12:00:00Z,114,129,137,172,189,210,211,218,224,236,239,14,7,34,16,20,0,6,5,11,2,14,128,136,171,188,209,210,217,223,235,238,253
9,rosemount_mn,44.707,-93.101,1.5,2018,1,2018,mid1,1187.358592188998,11,2018-04-24,2018-05-08,126,2018-09-11,2018-09-15,2018-09-29,Harvested at Maturity.,2.209333350881934,3.468749971129,4.4809302549462675,3.0020000187680127,1.899130434445713,NA,1.4849999795357387,3.2799999394919723,7.136250143172219,0.00499999988824129,6.275333334878087,2.209333350881934,3.468749971129,4.4809302549462675,3.0020000187680127,1.899130434445713,NA,1.4849999795357387,3.2799999394919723,7.136250143172219,0.00499999988824129,6.275333334878087,22.56399984359741,17.525000035762787,19.180465077244957,23.808499765396117,20.453043460845947,NA,20.246666590372723,15.111249923706055,14.622500002384186,18.94499969482422,12.213333320617677,20.5086664835612,19.851250290870667,26.194186099739962,28.843999767303465,27.580869674682617,NA,31.366666793823242,27.228749990463257,24.806249976158142,26.417500019073486,21.440000089009605,13.058333274225394,14.055000126361847,20.91697681227396,23.174249911308287,21.70108697725379,NA,25.074166774749756,21.243124961853027,19.900624990463257,20.213749885559082,16.602666711807252,5.60800006488959,8.258749961853027,15.639767524807953,17.50450005531311,15.821304279824961,NA,18.78166675567627,15.257499933242798,14.995000004768372,14.009999752044678,11.765333334604898,4.5228764360180005,4.746038753534108,7.221373562217321,8.838104611528033,9.722120594798533,NA,13.765876715387027,11.370436505955459,10.470283322669939,10.564777253605426,6.0710709726965435,4.5228764360180005,4.746038753534108,7.221373562217321,8.838104611528033,9.722120594798533,NA,13.765876715387027,11.370436505955459,10.470283322669939,10.564777253605426,6.0710709726965435,0,0,310.51906317534485,487.2811554059056,710.8899290862719,NA,793.4851893785939,884.4486814262374,1051.9732145889566,1094.2323236033783,1094.2323236033783,0,0,0.9230000013528868,0.9999000000953674,0.971347827496736,NA,1,0.9759375035762787,0.812656244635582,0.924999988079071,0.06666666666666667,1,1,1,1,1,NA,1,1,1,1,1,0.37199999491373703,0.42937501072883605,0.9230000013528868,0.9999000000953674,0.971347827496736,NA,1,0.9759375035762787,0.812656244635582,0.924999988079071,0.5529999987284343,1,1,1,0.9999999999999999,0.9999999999999999,NA,0.9999999999999999,1,0.9999999999999999,0.9999999999999999,1,2018-04-24T12:00:00Z,2018-05-09T12:00:00Z,2018-05-17T12:00:00Z,2018-06-29T12:00:00Z,2018-07-19T12:00:00Z,NA,2018-08-11T12:00:00Z,2018-08-17T12:00:00Z,2018-08-25T12:00:00Z,2018-09-10T12:00:00Z,2018-09-14T12:00:00Z,2018-05-08T12:00:00Z,2018-05-16T12:00:00Z,2018-06-28T12:00:00Z,2018-07-18T12:00:00Z,2018-08-10T12:00:00Z,NA,2018-08-16T12:00:00Z,2018-08-24T12:00:00Z,2018-09-09T12:00:00Z,2018-09-13T12:00:00Z,2018-09-28T12:00:00Z,114,129,137,180,200,NA,223,229,237,253,257,14,7,42,19,22,0,5,7,15,3,14,128,136,179,199,222,NA,228,236,252,256,271
10,rosemount_mn,44.707,-93.101,2.5,2018,1,2018,mid2,1197.4903566164717,11,2018-04-24,2018-05-08,139,2018-09-24,2018-10-03,2018-10-17,Harvested at Maturity.,2.209333350881934,3.468749971129,4.392083357088268,2.486923079078014,1.4300000005889506,6.269999980926514,5.841249916702509,12.15428605382996,5.143333339960211,1.7911110737671454,4.7040000930428505,2.209333350881934,3.468749971129,4.392083357088268,2.486923079078014,1.4300000005889506,6.269999980926514,5.841249916702509,12.15428605382996,5.143333339960211,1.7911110737671454,4.7040000930428505,22.56399984359741,17.525000035762787,19.438958287239075,23.090384538357075,19.581904683794296,7.659999847412109,12.232499778270721,13.912856987544469,15.654999997880724,10.555555555555555,7.682000017166137,20.5086664835612,19.851250290870667,26.444791714350384,27.831922897925743,29.713809694562638,23.899999618530273,26.019999980926514,26.44714300973075,23.885555532243515,15.470000055101183,11.19800000190735,13.058333274225394,14.055000126361847,21.204791739583015,22.033653772794285,23.46952383858817,20.394999504089355,20.65625,21.800000054495676,18.680277784665424,10.572222201360598,6.200999996066093,5.60800006488959,8.258749961853027,15.964791764815649,16.235384647662823,17.2252379826137,16.889999389648438,15.292500019073486,17.152857099260604,13.475000037087334,5.67444434762001,1.2039999902248382,4.5228764360180005,4.746038753534108,6.081476238494227,7.358855469069702,11.180784076253406,10.174795327227796,10.845057470535652,12.100854244801829,9.512774290963842,5.623196878174941,0.7157340042171877,4.5228764360180005,4.746038753534108,6.081476238494227,7.358855469069702,11.180784076253406,10.174795327227796,10.845057470535652,12.100854244801829,9.512774290963842,5.623196878174941,0.7157340042171877,0,0,291.9108594477229,483.2411016435352,718.0375672448567,728.2123625720845,814.9728223363697,899.6788020499826,1070.9087392873316,1121.517511190906,1121.517511190906,0,0,0.9310208345452945,0.9802499991196852,0.9929761932009742,1,0.9364374995231628,0.9164999961853028,0.7443611078792148,0.16661110719045005,8.000008265177407e-4,1,1,1,1,1,1,1,1,1,1,1,0.37199999491373703,0.42937501072883605,0.9310208345452945,0.9802499991196852,0.9929761932009742,1,0.9364374995231628,0.9164999961853028,0.7443611078792148,0.16661110719045005,0.03359999736150106,1,1,1,0.9999999999999999,1,0.9999999999999998,0.9892084976179674,1,1,1,1,2018-04-24T12:00:00Z,2018-05-09T12:00:00Z,2018-05-17T12:00:00Z,2018-07-04T12:00:00Z,2018-07-30T12:00:00Z,2018-08-20T12:00:00Z,2018-08-21T12:00:00Z,2018-08-29T12:00:00Z,2018-09-05T12:00:00Z,2018-09-23T12:00:00Z,2018-10-02T12:00:00Z,2018-05-08T12:00:00Z,2018-05-16T12:00:00Z,2018-07-03T12:00:00Z,2018-07-29T12:00:00Z,2018-08-19T12:00:00Z,2018-08-20T12:00:00Z,2018-08-28T12:00:00Z,2018-09-04T12:00:00Z,2018-09-22T12:00:00Z,2018-10-01T12:00:00Z,2018-10-16T12:00:00Z,114,129,137,185,211,232,233,241,248,266,275,14,7,47,25,20,0,7,6,17,8,14,128,136,184,210,231,232,240,247,265,274,289
11,rosemount_mn,44.707,-93.101,-1.5,2019,1,2019,mid000,200.91876941510137,11,2019-05-04,2019-05-18,84,2019-08-10,2019-08-13,2019-08-27,Harvested at Maturity.,4.983333274349571,7.191818208349022,NA,2.410416684811935,6.381578955701308,NA,5.84999999559174,4.604999917093664,2.0792857224919965,3.4000000649442277,4.349999958649278,4.983333274349571,7.191818208349022,NA,2.410416684811935,6.381578955701308,NA,5.84999999559174,4.604999917093664,2.0792857224919965,3.4000000649442277,4.349999958649278,20.382666651407877,17.56727261976762,NA,22.27500009536743,19.452631599024723,NA,19.99666690826416,21.437500178813934,23.570000069481985,13.919999758402508,18.901333395640055,16.670000012715658,17.68454512682828,NA,23.296249945958454,26.54947361193205,NA,28.375,26.475000381469727,26.396428653172084,24.236666361490887,24.087333552042644,10.92233331799507,12.157272479327565,NA,17.677083333333332,22.22842106066252,NA,23.949999968210857,21.650625228881836,21.423214265278407,19.701666514078777,19.222666772206626,5.174666623274486,6.62999983182685,NA,12.057916720708212,17.907368509392988,NA,19.52499993642171,16.826250076293945,16.44999987738473,15.166666666666666,14.357999992370605,2.686190660932188,3.33942261099226,NA,6.875302857451622,10.894551738766925,NA,12.909740850303637,11.081624005012294,11.503951501279085,9.954369165201982,8.43800007502238,2.686190660932188,3.33942261099226,NA,6.875302857451622,10.894551738766925,NA,12.909740850303637,11.081624005012294,11.503951501279085,9.954369165201982,8.43800007502238,0,0,NA,165.0072685788389,372.0037516154103,NA,449.4621967172322,538.1151887573305,699.1705097752377,729.0336172708437,729.0336172708437,0,0,NA,0.7411874969800314,0.9901579003585013,NA,1,0.970062506198883,0.9433214289801461,0.9118333180745443,0.06666666666666667,1,1,NA,1,1,NA,1,1,1,1,1,0.17950000127156576,0.2880454345182939,NA,0.7411874969800314,0.9901579003585013,NA,1,0.970062506198883,0.9433214289801461,0.9118333180745443,0.8758333396911622,1,1,NA,1,0.9999999999999999,NA,0.9999999999999999,0.9999999999999999,1,1,1,2019-05-04T12:00:00Z,2019-05-19T12:00:00Z,NA,2019-05-30T12:00:00Z,2019-06-23T12:00:00Z,NA,2019-07-12T12:00:00Z,2019-07-18T12:00:00Z,2019-07-26T12:00:00Z,2019-08-09T12:00:00Z,2019-08-12T12:00:00Z,2019-05-18T12:00:00Z,2019-05-29T12:00:00Z,NA,2019-06-22T12:00:00Z,2019-07-11T12:00:00Z,NA,2019-07-17T12:00:00Z,2019-07-25T12:00:00Z,2019-08-08T12:00:00Z,2019-08-11T12:00:00Z,2019-08-26T12:00:00Z,124,139,NA,150,174,NA,193,199,207,221,224,14,10,0,23,18,0,5,7,13,2,14,138,149,NA,173,192,NA,198,206,220,223,238
12,rosemount_mn,44.707,-93.101,-0.5,2019,1,2019,mid00,780.1138912269096,11,2019-05-04,2019-05-18,122,2019-09-17,2019-09-20,2019-10-04,Harvested at Maturity.,4.983333274349571,7.191818208349022,4.485789490618596,5.6564285183059315,1.526500005926937,NA,3.6737499570008363,5.114444435470634,5.87399992570281,4.77666668407619,4.297333356986443,4.983333274349571,7.191818208349022,4.485789490618596,5.6564285183059315,1.526500005926937,NA,3.6737499570008363,5.114444435470634,5.87399992570281,4.77666668407619,4.297333356986443,20.382666651407877,17.56727261976762,20.94026319604171,20.010714565004623,23.676000046730042,NA,16.69000017642975,18.6688887808058,14.99799997806549,14.123333613077799,10.92200001080831,16.670000012715658,17.68454512682828,24.53605260347065,27.71714278629848,25.937500190734863,NA,24.941250324249268,23.386666615804035,22.10750017166138,26.78999964396159,20.34800008138021,10.92233331799507,12.157272479327565,19.41013160504793,23.355357101985387,20.83025004863739,NA,20.695000171661377,18.237777762942844,17.16950011253357,22.331666628519695,15.598000033696493,5.174666623274486,6.62999983182685,14.284210606625205,18.993571417672293,15.722999906539917,NA,16.448750019073486,13.088888910081652,12.231500053405762,17.8733336130778,10.847999986012777,2.686190660932188,3.33942261099226,7.812060553358584,11.565699317341508,10.392595283158533,NA,10.695000171661377,8.66784362946815,7.946456490073801,12.331666628519695,5.173586021551689,2.686190660932188,3.33942261099226,7.812060553358584,11.565699317341508,10.392595283158533,NA,10.695000171661377,8.66784362946815,7.946456490073801,12.331666628519695,5.173586021551689,0,0,296.8583010276262,458.77809147040733,666.629997133578,NA,752.189998506869,830.2005911720822,989.1297209735582,1026.1247208591171,1026.1247208591171,0,0,0.8316184219561126,1,0.937075002193451,NA,0.98731250166893,0.8000000052981907,0.7034000134468079,1,0.06666666666666667,1,1,1,1,1,NA,1,1,1,1,1,0.17950000127156576,0.2880454345182939,0.8316184219561126,1,0.937075002193451,NA,0.98731250166893,0.8000000052981907,0.7034000134468079,1,0.5308000024159749,1,1,1,1,1,NA,0.9999999999999999,1,0.9999999999999999,1,1,2019-05-04T12:00:00Z,2019-05-19T12:00:00Z,2019-05-30T12:00:00Z,2019-07-07T12:00:00Z,2019-07-21T12:00:00Z,NA,2019-08-10T12:00:00Z,2019-08-18T12:00:00Z,2019-08-27T12:00:00Z,2019-09-16T12:00:00Z,2019-09-19T12:00:00Z,2019-05-18T12:00:00Z,2019-05-29T12:00:00Z,2019-07-06T12:00:00Z,2019-07-20T12:00:00Z,2019-08-09T12:00:00Z,NA,2019-08-17T12:00:00Z,2019-08-26T12:00:00Z,2019-09-15T12:00:00Z,2019-09-18T12:00:00Z,2019-10-03T12:00:00Z,124,139,150,188,202,NA,222,230,239,259,262,14,10,37,13,19,0,7,8,19,2,14,138,149,187,201,221,NA,229,238,258,261,276
13,rosemount_mn,44.707,-93.101,0.5,2019,1,2019,mid0,913.8509065183893,11,2019-05-04,2019-05-18,124,2019-09-19,2019-09-22,2019-10-06,Harvested at Maturity.,4.983333274349571,7.191818208349022,4.273250015685335,4.921249954495579,2.2584210701874996,9.149999618530272,4.648749882588163,1.8300000661984086,6.910588149857872,4.553333352009456,6.3379999868571755,4.983333274349571,7.191818208349022,4.273250015685335,4.921249954495579,2.2584210701874996,9.149999618530272,4.648749882588163,1.8300000661984086,6.910588149857872,4.553333352009456,6.3379999868571755,20.382666651407877,17.56727261976762,21.13575005531311,20.92437520623207,20.958947407571895,18.940000534057617,20.894999980926514,18.85599989891052,13.512353027568144,14.513333638509115,9.374666611353556,16.670000012715658,17.68454512682828,24.67249994277954,27.161250114440918,25.920000076293945,26.290000915527344,24.49375033378601,21.970999908447265,22.951764836030847,25.910000483194988,18.749333381652832,10.92233331799507,12.157272479327565,19.56187500953674,22.55531257390976,21.101842102251556,21.71500015258789,19.603125154972076,16.891499996185303,18.080294216380402,21.671666940053303,13.964666680494945,5.174666623274486,6.62999983182685,14.451250076293945,17.9493750333786,16.283684128209163,17.139999389648438,14.712499976158142,11.81200008392334,13.208823596729951,17.43333339691162,9.179999979337056,2.686190660932188,3.33942261099226,7.198174437181008,10.160979550547955,10.355916647016347,11.715000152587892,9.77748076972291,7.673094405462146,8.680231353954358,11.671666940053305,3.7686424502809346,2.686190660932188,3.33942261099226,7.198174437181008,10.160979550547955,10.355916647016347,11.715000152587892,9.77748076972291,7.673094405462146,8.680231353954358,11.671666940053305,3.7686424502809346,0,0,287.9269774872403,450.5026502960075,647.2650665893179,658.9800667419058,737.199912899689,813.9308569543105,961.4947899715344,996.5097907916944,996.5097907916944,0,0,0.8400375008583069,0.9850312530994415,0.9443157873655621,1,0.9168125152587892,0.6891499996185303,0.7635000144734102,1,0.06666666666666667,1,1,1,1,1,1,1,1,1,1,1,0.17950000127156576,0.2880454345182939,0.8400375008583069,0.9850312530994415,0.9443157873655621,1,0.9168125152587892,0.6891499996185303,0.7635000144734102,1,0.4054000027974447,1,1,1,1,1,1,1,0.9999999999999999,0.9999999999999999,0.9999999999999999,1,2019-05-04T12:00:00Z,2019-05-19T12:00:00Z,2019-05-30T12:00:00Z,2019-07-09T12:00:00Z,2019-07-25T12:00:00Z,2019-08-13T12:00:00Z,2019-08-14T12:00:00Z,2019-08-22T12:00:00Z,2019-09-01T12:00:00Z,2019-09-18T12:00:00Z,2019-09-21T12:00:00Z,2019-05-18T12:00:00Z,2019-05-29T12:00:00Z,2019-07-08T12:00:00Z,2019-07-24T12:00:00Z,2019-08-12T12:00:00Z,2019-08-13T12:00:00Z,2019-08-21T12:00:00Z,2019-08-31T12:00:00Z,2019-09-17T12:00:00Z,2019-09-20T12:00:00Z,2019-10-05T12:00:00Z,124,139,150,190,206,225,226,234,244,261,264,14,10,39,15,18,0,7,9,16,2,14,138,149,189,205,224,225,233,243,260,263,278
14,rosemount_mn,44.707,-93.101,1.5,2019,1,2019,mid1,1099.0940518907355,11,2019-05-04,2019-05-18,147,2019-10-12,2019-10-22,2019-11-05,Harvested at Maturity.,4.983333274349571,7.191818208349022,3.958695666581068,4.091999960225076,3.8716666548668095,0.01999999955296516,1.6699999868869781,11.049999853596091,5.196086969712506,0.5039999850094319,2.3960000394533076,4.983333274349571,7.191818208349022,3.958695666581068,4.091999960225076,3.8716666548668095,0.01999999955296516,1.6699999868869781,11.049999853596091,5.196086969712506,0.5039999850094319,2.3960000394533076,20.382666651407877,17.56727261976762,21.084347890770953,21.798500204086302,19.36499998966853,24.170000076293945,16.30727260762995,12.072222391764322,10.779999981755795,9.607999992370605,8.189333311716716,16.670000012715658,17.68454512682828,24.994347738183063,26.584500217437743,24.52375014623006,20.809999465942383,22.103636481545188,23.571111255221897,19.58000013102656,11.058000087738037,6.052666667103767,10.92233331799507,12.157272479327565,19.9252173796944,21.913000082969667,19.706875065962475,15.884999752044678,16.94045465642756,18.78888898425632,14.56304353993872,6.042000019550324,1.9196666759749255,5.174666623274486,6.62999983182685,14.856087021205736,17.241499948501588,14.889999985694885,10.960000038146973,11.777272831309926,14.006666713290745,9.546086948850881,1.02599995136261,-2.2133333151539167,2.686190660932188,3.33942261099226,6.56136951862837,9.2813793438356509,9.30730561114763,5.884999752044678,7.785621430397034,9.3173410619643,7.196803804757414,5.1089648263651135,0.014580789229068936,2.686190660932188,3.33942261099226,6.56136951862837,9.2813793438356509,9.30730561114763,5.884999752044678,7.785621430397034,9.3173410619643,7.196803804757414,5.1089648263651135,0.014580789229068936,0,0,301.82299785690503,487.450584733618,710.8259194011612,716.7109191532059,802.3527548875732,886.2088244452518,1051.7353119546722,1102.8249602183232,1102.8249602183232,0,0,0.8609021746593973,0.9593250012397766,0.8893958369890849,0.5884999752044678,0.6940454656427557,0.7947777960035536,0.4403260904809703,0.02429999828338623,0,1,1,1,1,1,1,1,1,1,1,1,0.17950000127156576,0.2880454345182939,0.8609021746593973,0.9593250012397766,0.8893958369890849,0.5884999752044678,0.6940454656427557,0.7947777960035536,0.4403260904809703,0.02429999828338623,0,1,1,1,1,0.9999999999999999,1,1,0.9999999999999999,1,1,1,2019-05-04T12:00:00Z,2019-05-19T12:00:00Z,2019-05-30T12:00:00Z,2019-07-15T12:00:00Z,2019-08-04T12:00:00Z,2019-08-28T12:00:00Z,2019-08-29T12:00:00Z,2019-09-09T12:00:00Z,2019-09-18T12:00:00Z,2019-10-11T12:00:00Z,2019-10-21T12:00:00Z,2019-05-18T12:00:00Z,2019-05-29T12:00:00Z,2019-07-14T12:00:00Z,2019-08-03T12:00:00Z,2019-08-27T12:00:00Z,2019-08-28T12:00:00Z,2019-09-08T12:00:00Z,2019-09-17T12:00:00Z,2019-10-10T12:00:00Z,2019-10-20T12:00:00Z,2019-11-04T12:00:00Z,124,139,150,196,216,240,241,252,261,284,294,14,10,45,19,23,0,10,8,22,9,14,138,149,195,215,239,240,251,260,283,293,308
15,rosemount_mn,44.707,-93.101,2.5,2019,1,2019,mid2,1152.2408611340247,11,2019-05-04,2019-05-18,171,2019-11-05,2019-11-15,2019-11-29,Harvested at Maturity.,4.983333274349571,7.191818208349022,4.4301960944179815,2.800434756457158,3.1633332995697856,41.86000061035156,7.556249794317409,4.295000020725031,2.903030316994497,0.6329999931156636,2.163333316768209,4.983333274349571,7.191818208349022,4.4301960944179815,2.800434756457158,3.1633332995697856,41.86000061035156,7.556249794317409,4.295000020725031,2.903030316994497,0.6329999931156636,2.163333316768209,20.382666651407877,17.56727261976762,20.947255003686045,21.70043480914572,17.631333351135254,7.230000019073486,13.391250193119049,11.417499959468842,9.004545421311349,6.4830000638961796,5.040000009536743,16.670000012715658,17.68454512682828,25.408431333654068,25.74043489539105,23.098333485921223,21,24.59000015258789,21.261666774749756,10.30030309928186,-1.4610000878572464,2.6293333053588865,10.92233331799507,12.157272479327565,20.452941183950387,20.844565246416174,18.207500076293947,17.210000038146973,19.57562518119812,16.25250005722046,5.62287881530144,-5.304000021517277,-0.7759999712308248,5.174666623274486,6.62999983182685,15.497451034246707,15.9486955974413,13.316666666666666,13.420000076293944,14.56125020980835,11.243333339691162,0.9454545313210199,-9.146999955177307,-4.181333247820536,2.686190660932188,3.33942261099226,5.774758295658158,8.14459247805408,7.987365357914909,7.210000038146973,10.097615611788632,7.783861722211043,5.144236206679904,5,0,2.686190660932188,3.33942261099226,5.774758295658158,8.14459247805408,7.987365357914909,7.210000038146973,10.097615611788632,7.783861722211043,5.144236206679904,5,0,0,0,294.51267307856597,481.8383000738099,721.4592608112573,728.6692608494043,809.4501857437133,902.8565264102456,1072.6163212306824,1122.6163212306824,1122.6163212306824,0,0,0.8745392163594564,0.9435869569363802,0.7929000075658162,0.7210000038146973,0.8371875166893006,0.5794583360354106,0.04293939489306826,0,0,1,1,1,1,1,1,1,1,1,1,1,0.17950000127156576,0.2880454345182939,0.8745392163594564,0.9435869569363802,0.7929000075658162,0.7210000038146973,0.8371875166893006,0.5794583360354106,0.04293939489306826,0,0,1,1,0.9999999999999999,0.9999999999999999,1,1,1,1,0.9999999999999999,0.9999999999999999,1,2019-05-04T12:00:00Z,2019-05-19T12:00:00Z,2019-05-30T12:00:00Z,2019-07-20T12:00:00Z,2019-08-12T12:00:00Z,2019-09-11T12:00:00Z,2019-09-12T12:00:00Z,2019-09-20T12:00:00Z,2019-10-02T12:00:00Z,2019-11-04T12:00:00Z,2019-11-14T12:00:00Z,2019-05-18T12:00:00Z,2019-05-29T12:00:00Z,2019-07-19T12:00:00Z,2019-08-11T12:00:00Z,2019-09-10T12:00:00Z,2019-09-11T12:00:00Z,2019-09-19T12:00:00Z,2019-10-01T12:00:00Z,2019-11-03T12:00:00Z,2019-11-13T12:00:00Z,2019-11-28T12:00:00Z,124,139,150,201,224,254,255,263,275,308,318,14,10,50,22,29,0,7,11,32,9,14,138,149,200,223,253,254,262,274,307,317,332
16,rosemount_mn,44.707,-93.101,-1.5,2020,1,2020,mid000,214.66404058675244,11,2020-05-03,2020-05-17,77,2020-08-02,2020-08-06,2020-08-20,Harvested at Maturity.,6.048666661108533,1.6450000383580725,NA,3.8784999775700273,5.442857079562687,NA,1.4957143222647054,3.1642856704337254,3.116428489264633,0.17750000394880772,3.3080000107487044,6.048666661108533,1.6450000383580725,NA,3.8784999775700273,5.442857079562687,NA,1.4957143222647054,3.1642856704337254,3.116428489264633,0.17750000394880772,3.3080000107487044,19.85599994659424,15.038333415985107,NA,24.3335000038147,22.855714366549538,NA,23.124285561697825,23.099999836512975,23.74142837524414,22.9375,19.022666613260906,14.633999760945638,20.454999605814617,NA,24.943000030517577,26.100476310366677,NA,28.56857136317662,26.75857162475586,26.960714203970774,23.19499969482422,26.227999877929687,8.953666565815608,15.673333207766214,NA,19.38950001001358,21.011904852730886,NA,24.367142745426722,21.107142993382045,21.881428514208114,18.022500038146973,20.79233325322469,3.2733333706855774,10.891666809717814,NA,13.835999989509583,15.9233333950951,NA,20.16571412767683,15.455714362008232,16.80214282444545,12.850000381469727,15.356666628519694,1.6195129404821,5.732045718170703,NA,8.48500982920301,9.712924838837274,NA,12.938190436625378,10.37968722111479,11.60193663055289,8.48098823633045,10.195333290100098,1.6195129404821,5.732045718170703,NA,8.48500982920301,9.712924838837274,NA,12.938190436625378,10.37968722111479,11.60193663055289,8.48098823633045,10.195333290100098,0,0,NA,169.7001965840602,373.671618199643,NA,464.23895125602064,536.8967618038242,699.3238746315646,733.2478275768865,733.2478275768865,0,0,NA,0.8317999947071075,0.9096190520695278,NA,1,0.9820714337485178,0.9778214284351894,0.7889999985694885,0.05969999631245931,1,1,NA,1,1,NA,1,1,1,1,1,0.08243332703908285,0.5673333207766216,NA,0.8317999947071075,0.9096190520695278,NA,1,0.9820714337485178,0.9778214284351894,0.7889999985694885,0.9552000013987223,1,1,NA,1,1,NA,1,1,1,1,1,2020-05-03T12:00:00Z,2020-05-18T12:00:00Z,NA,2020-05-24T12:00:00Z,2020-06-13T12:00:00Z,NA,2020-07-04T12:00:00Z,2020-07-11T12:00:00Z,2020-07-18T12:00:00Z,2020-08-01T12:00:00Z,2020-08-05T12:00:00Z,2020-05-17T12:00:00Z,2020-05-23T12:00:00Z,NA,2020-06-12T12:00:00Z,2020-07-03T12:00:00Z,NA,2020-07-10T12:00:00Z,2020-07-17T12:00:00Z,2020-07-31T12:00:00Z,2020-08-04T12:00:00Z,2020-08-19T12:00:00Z,124,139,NA,145,165,NA,186,193,200,214,218,14,5,0,19,20,0,6,6,13,3,14,138,144,NA,164,185,NA,192,199,213,217,232
17,rosemount_mn,44.707,-93.101,-0.5,2020,1,2020,mid00,866.7030868305421,11,2020-05-03,2020-05-17,106,2020-08-31,2020-09-05,2020-09-19,Harvested at Maturity.,6.048666661108533,1.6450000383580725,5.041081026347505,1.7307143324453915,3.0515788634748837,0.10000000149011612,3.2671428748539517,3.343750004656613,2.0200000712648034,5.194000068306923,2.139999988426765,6.048666661108533,1.6450000383580725,5.041081026347505,1.7307143324453915,3.0515788634748837,0.10000000149011612,3.2671428748539517,3.343750004656613,2.0200000712648034,5.194000068306923,2.139999988426765,19.85599994659424,15.038333415985107,23.37486490043434,24.24214267730713,23.064210389789782,22.81999969482422,18.26285716465541,19.948749899864197,21.012499968210857,20.163999938964842,13.460666640599568,14.633999760945638,20.454999605814617,25.206216245084196,28.275714465550013,26.809999967876234,22.170000076293945,25.472856794084823,25.757499933242798,29.28416649500529,23.42400016784668,19.308666801452638,8.953666565815608,15.673333207766214,19.709864880587602,23.990714379719325,21.53131577843114,17.425000190734863,20.77571405683245,20.124374985694885,23.104583382606506,17.49000005722046,13.818666728337606,3.2733333706855774,10.891666809717814,14.213513516091012,19.705714293888636,16.252631588986045,12.68000030517578,16.078571319580078,14.491250038146973,16.925000270207722,11.555999946594238,8.328666655222575,1.6195129404821,5.732045718170703,8.078676664209494,11.795264343403627,10.617979572892908,7.296831090235241,10.979856434660364,10.277208286740631,12.767941476054986,8.270172965954544,4.254349709033966,1.6195129404821,5.732045718170703,8.078676664209494,11.795264343403627,10.617979572892908,7.296831090235241,10.979856434660364,10.277208286740631,12.767941476054986,8.270172965954544,4.254349709033966,0,0,298.9110365757512,464.0447373834019,665.7863492683671,673.0831803586024,749.942175401225,832.1598416951501,985.37513940781,1026.7260042375829,1026.7260042375829,0,0,0.8577837834487091,1,0.9770526333859092,0.7425000190734864,0.8974285670689174,0.95018749833107,0.9738333344459533,0.749000005722046,0.044366668065389005,1,1,1,1,1,1,1,1,1,1,1,0.08243332703908285,0.5673333207766216,0.8577837834487091,1,0.9770526333859092,0.7425000190734864,0.8974285670689174,0.95018749833107,0.9738333344459533,0.749000005722046,0.4127666775385539,1,1,1,0.9999999999999999,0.9999999999999999,1,1,0.9999999999999999,0.9999999999999999,1,1,2020-05-03T12:00:00Z,2020-05-18T12:00:00Z,2020-05-24T12:00:00Z,2020-06-30T12:00:00Z,2020-07-14T12:00:00Z,2020-08-02T12:00:00Z,2020-08-03T12:00:00Z,2020-08-10T12:00:00Z,2020-08-18T12:00:00Z,2020-08-30T12:00:00Z,2020-09-04T12:00:00Z,2020-05-17T12:00:00Z,2020-05-23T12:00:00Z,2020-06-29T12:00:00Z,2020-07-13T12:00:00Z,2020-08-01T12:00:00Z,2020-08-02T12:00:00Z,2020-08-09T12:00:00Z,2020-08-17T12:00:00Z,2020-08-29T12:00:00Z,2020-09-03T12:00:00Z,2020-09-18T12:00:00Z,124,139,145,182,196,215,216,223,231,243,248,14,5,36,13,18,0,6,7,11,4,14,138,144,181,195,214,215,222,230,242,247,262
18,rosemount_mn,44.707,-93.101,0.5,2020,1,2020,mid0,934.6659333524964,11,2020-05-03,2020-05-17,111,2020-09-05,2020-09-10,2020-09-24,Harvested at Maturity.,6.048666661108533,1.6450000383580725,4.913846108154991,1.837333332747221,2.3871428013025295,0.4900000095367432,6.013333300749461,2.880000096745789,3.055384674611,4.315999984741211,0.7353333267072837,6.048666661108533,1.6450000383580725,4.913846108154991,1.837333332747221,2.3871428013025295,0.4900000095367432,6.013333300749461,2.880000096745789,3.055384674611,4.315999984741211,0.7353333267072837,19.85599994659424,15.038333415985107,23.34538465891129,23.655333201090496,23.080476034255256,14.220000267028809,16.586666425069172,22.134999990463257,20.376153799203728,14.122000026702882,13.443999942143758,14.633999760945638,20.454999605814617,25.348974423530773,27.805333455403645,26.077618916829426,27.88999938964844,26.948333422342937,26.389999628067017,27.61000002347506,19.950000190734862,20.850666681925457,8.953666565815608,15.673333207766214,19.968333372702965,23.04533338546753,20.953809488387336,22.72499942779541,22.145000060399372,20.197499871253967,21.625769285055306,15.06400008201599,14.684333340326944,3.2733333706855774,10.891666809717814,14.587692321875156,18.285333315531414,15.830000059945244,17.559999465942383,17.34166669845581,14.005000114440918,15.641538546635555,10.17799997329712,8.517999998728435,1.6195129404821,5.732045718170703,7.514104355047656,10.139114760367072,9.660787202669404,12.388679092594383,12.132800443941704,10.393487504785508,11.56229411547505,7.702145540500879,5.388411144143343,1.6195129404821,5.732045718170703,7.514104355047656,10.139114760367072,9.660787202669404,12.388679092594383,12.132800443941704,10.393487504785508,11.56229411547505,7.702145540500879,5.388411144143343,0,0,293.0500698468585,445.1367912523645,648.0133225084219,660.4020016010163,733.1988042646666,816.3467043029508,966.6565278041264,1005.1672555066308,1005.1672555066308,0,0,0.8650769227590317,0.9916333357493082,0.9387619041261219,1,0.9899166822433472,0.9399999916553498,0.8902307693774884,0.542400016784668,0,1,1,1,1,1,1,1,1,1,1,1,0.08243332703908285,0.5673333207766216,0.8650769227590317,0.9916333357493082,0.9387619041261219,1,0.9899166822433472,0.9399999916553498,0.8902307693774884,0.542400016784668,0.4794000021616618,1,1,1,0.9999999999999999,1,0.9999999999999998,0.9999999999999999,1,1,1,1,2020-05-03T12:00:00Z,2020-05-18T12:00:00Z,2020-05-24T12:00:00Z,2020-07-02T12:00:00Z,2020-07-17T12:00:00Z,2020-08-07T12:00:00Z,2020-08-08T12:00:00Z,2020-08-14T12:00:00Z,2020-08-22T12:00:00Z,2020-09-04T12:00:00Z,2020-09-09T12:00:00Z,2020-05-17T12:00:00Z,2020-05-23T12:00:00Z,2020-07-01T12:00:00Z,2020-07-16T12:00:00Z,2020-08-06T12:00:00Z,2020-08-07T12:00:00Z,2020-08-13T12:00:00Z,2020-08-21T12:00:00Z,2020-09-03T12:00:00Z,2020-09-08T12:00:00Z,2020-09-23T12:00:00Z,124,139,145,184,199,220,221,227,235,248,253,14,5,38,14,20,0,5,7,12,4,14,138,144,183,198,219,220,226,234,247,252,267
19,rosemount_mn,44.707,-93.101,1.5,2020,1,2020,mid1,1246.2459387472118,11,2020-05-03,2020-05-17,133,2020-09-27,2020-10-05,2020-10-19,Harvested at Maturity.,6.048666661108533,1.6450000383580725,4.418863596690988,3.4523808909136626,2.2400000101846196,NA,2.103333406150341,4.176666751090023,1.929999982260845,0.8287499840371311,1.1299999756117662,6.048666661108533,1.6450000383580725,4.418863596690988,3.4523808909136626,2.2400000101846196,NA,2.103333406150341,4.176666751090023,1.929999982260845,0.8287499840371311,1.1299999756117662,19.85599994659424,15.038333415985107,23.693863662806425,22.747142700921923,20.8460868752521,NA,20.339999834696453,20.442222171359592,13.653636314652182,9.65500009059906,12.53733336130778,14.633999760945638,20.454999605814617,25.83454552563754,27.092857088361466,25.74956512451172,NA,30.25333309173584,25.946666717529297,21.125909155065365,15.788750171661377,17.084000142415366,8.953666565815608,15.673333207766214,20.590681861747395,22.04952373958769,20.375869564388108,NA,24.11749990781148,20.045000129275852,15.282272772355514,10.953125078231096,10.712333377202352,3.2733333706855774,10.891666809717814,15.34681819785725,17.00619039081392,15.0021740042645,NA,17.981666723887127,14.143333541022407,9.438636389645664,6.117499984800816,4.340666611989339,1.6195129404821,5.732045718170703,6.956414231325226,8.880236644796119,9.564775170418367,NA,13.63298291391333,10.276325102480916,7.670628401275521,5.780190932667256,3.027159010650019,1.6195129404821,5.732045718170703,6.956414231325226,8.880236644796119,9.564775170418367,NA,13.63298291391333,10.276325102480916,7.670628401275521,5.780190932667256,3.027159010650019,0,0,306.08222617830995,492.56719571902835,712.5570246386508,NA,794.3549221221307,886.841848044459,1055.5956728725205,1101.8372003338586,1101.8372003338586,0,0,0.8804090906273235,0.9793809527442568,0.9339565235635509,NA,1,0.8414444446563721,0.5390909173271873,0.2232500046491623,0,1,1,1,1,1,NA,1,1,1,1,1,0.08243332703908285,0.5673333207766216,0.8804090906273235,0.9793809527442568,0.9339565235635509,NA,1,0.8414444446563721,0.5390909173271873,0.2232500046491623,0.24423333803812664,1,1,1,1,0.9999999999999999,NA,1,1,0.9999999999999999,1,1,2020-05-03T12:00:00Z,2020-05-18T12:00:00Z,2020-05-24T12:00:00Z,2020-07-07T12:00:00Z,2020-07-28T12:00:00Z,NA,2020-08-20T12:00:00Z,2020-08-26T12:00:00Z,2020-09-04T12:00:00Z,2020-09-26T12:00:00Z,2020-10-04T12:00:00Z,2020-05-17T12:00:00Z,2020-05-23T12:00:00Z,2020-07-06T12:00:00Z,2020-07-27T12:00:00Z,2020-08-19T12:00:00Z,NA,2020-08-25T12:00:00Z,2020-09-03T12:00:00Z,2020-09-25T12:00:00Z,2020-10-03T12:00:00Z,2020-10-18T12:00:00Z,124,139,145,189,210,NA,233,239,248,270,278,14,5,43,20,22,0,5,8,21,7,14,138,144,188,209,232,NA,238,247,269,277,292
20,rosemount_mn,44.707,-93.101,2.5,2020,1,2020,mid2,1364.4300021598235,11,2020-05-03,2020-05-17,152,2020-10-16,2020-10-26,2020-11-09,Harvested at Maturity.,6.048666661108533,1.6450000383580725,4.132352914295945,2.440833266979704,3.090000029839575,3.1700000762939453,4.605000026524067,1.4578571604298693,1.3108333002310246,2.803999987058342,0.21400000440577666,6.048666661108533,1.6450000383580725,4.132352914295945,2.440833266979704,3.090000029839575,3.1700000762939453,4.605000026524067,1.4578571604298693,1.3108333002310246,2.803999987058342,0.21400000440577666,19.85599994659424,15.038333415985107,23.612941152909222,22.738749901453655,19.60599989891052,19.079999923706055,20.24000005722046,12.090714233262197,12.496666689713797,6.239000010490417,9.302000029881794,14.633999760945638,20.454999605814617,26.04882359972187,26.03458325068156,27.954999923706055,31.459999084472656,24.520000076293947,18.281428541455952,19.974583506584167,4.197000002861023,11.203999976317087,8.953666565815608,15.673333207766214,20.885000037212,20.80583331982295,22.239249968528746,25.954999923706055,18.432000064849852,12.8264285496303,13.80166675398747,0.46650002896785736,5.361999974648158,3.2733333706855774,10.891666809717814,15.721176474702125,15.577083388964335,16.52350001335144,20.450000762939453,12.344000053405761,7.371428557804653,7.628750001390776,-3.2639999449253083,-0.48000002702077244,1.6195129404821,5.732045718170703,5.92194551444112,7.5636145637166665,11.283270381338442,15.354211910009385,9.05405017514825,6.375271243622686,7.0355438888000945,5,1.9603855321161947,1.6195129404821,5.732045718170703,5.92194551444112,7.5636145637166665,11.283270381338442,15.354211910009385,9.05405017514825,6.375271243622686,7.0355438888000945,5,1.9603855321161947,0,0,302.01922123649706,483.5459707656971,709.211378392466,724.5655903024754,815.1060920539578,904.3598894646756,1073.2129427958778,1123.2129427958778,1123.2129427958778,0,0,0.8968235291686713,0.9411875009536743,0.972975001335144,1,0.8129000091552735,0.3242499998637608,0.42558334171772005,0,0,1,1,1,1,1,1,1,1,1,1,1,0.08243332703908285,0.5673333207766216,0.8968235291686713,0.9411875009536743,0.972975001335144,1,0.8129000091552735,0.3242499998637608,0.42558334171772005,0,0.1532333302497864,1,1,1,1,0.9999999999999999,1,1,0.9999999999999999,0.9999999999999999,1,1,2020-05-03T12:00:00Z,2020-05-18T12:00:00Z,2020-05-24T12:00:00Z,2020-07-14T12:00:00Z,2020-08-07T12:00:00Z,2020-08-27T12:00:00Z,2020-08-28T12:00:00Z,2020-09-07T12:00:00Z,2020-09-21T12:00:00Z,2020-10-15T12:00:00Z,2020-10-25T12:00:00Z,2020-05-17T12:00:00Z,2020-05-23T12:00:00Z,2020-07-13T12:00:00Z,2020-08-06T12:00:00Z,2020-08-26T12:00:00Z,2020-08-27T12:00:00Z,2020-09-06T12:00:00Z,2020-09-20T12:00:00Z,2020-10-14T12:00:00Z,2020-10-24T12:00:00Z,2020-11-08T12:00:00Z,124,139,145,196,220,240,241,251,265,289,299,14,5,50,23,19,0,9,13,23,9,14,138,144,195,219,239,240,250,264,288,298,313
21,rosemount_mn,44.707,-93.101,-1.5,2021,1,2021,mid000,214.5816904003377,11,2021-05-06,2021-05-20,70,2021-07-29,2021-08-01,2021-08-15,Harvested at Maturity.,2.5573333522925776,10.293333351612091,NA,2.152222248415152,2.875499972142279,NA,2.1675000027753413,3.8742856574910025,0.4766666747940083,2.386666735013326,2.825333410377304,2.5573333522925776,10.293333351612091,NA,2.152222248415152,2.875499972142279,NA,2.1675000027753413,3.8742856574910025,0.4766666747940083,2.386666735013326,2.825333410377304,21.533333269755047,19.299999872843426,NA,25.605000098546345,25.1039999961853,NA,22.90874981880188,20.45000035422189,22.585833231608074,16.80999978383382,20.048666763305665,18.91400000254313,27.070000330607098,NA,26.262222237057156,29.08150005340576,NA,30.37250018119812,27.83999960763114,32.63666613896688,30.649999618530273,29.38733342488607,12.696999994913737,22.84166685740153,NA,20.22777771949768,22.39275007247925,NA,23.355624973773956,21.596428394317627,25.560416380564373,25.324999809265137,23.06466671625773,6.479999987284343,18.613333384195965,NA,14.193333201938206,15.704000091552734,NA,16.338749766349792,15.352857181004115,18.484166622161865,20,16.742000007629393,4.224034023434495,12.84166685740153,NA,8.867572232365578,10.478219447519145,NA,11.089082961434732,10.56824942717047,13.132822734275047,13.512379907854138,12.124299385919969,4.224034023434495,12.84166685740153,NA,8.867572232365578,10.478219447519145,NA,11.089082961434732,10.56824942717047,13.132822734275047,13.512379907854138,12.124299385919969,0,0,NA,159.6163001825804,369.1806891329632,NA,457.89335282444097,531.8710988146341,689.4649716259347,730.0021113494971,730.0021113494971,0,0,NA,0.731499993801117,0.9557249999046326,NA,0.9635000109672547,1,1,1,0.06666666666666667,1,1,NA,1,1,NA,1,1,1,1,1,0.34716665824254356,1,NA,0.731499993801117,0.9557249999046326,NA,0.9635000109672547,1,1,1,1,1,1,NA,1,1,NA,0.9999999999999999,0.9999999999999999,0.9999999999999999,1,1,2021-05-06T12:00:00Z,2021-05-21T12:00:00Z,NA,2021-05-24T12:00:00Z,2021-06-11T12:00:00Z,NA,2021-07-01T12:00:00Z,2021-07-09T12:00:00Z,2021-07-16T12:00:00Z,2021-07-28T12:00:00Z,2021-07-31T12:00:00Z,2021-05-20T12:00:00Z,2021-05-23T12:00:00Z,NA,2021-06-10T12:00:00Z,2021-06-30T12:00:00Z,NA,2021-07-08T12:00:00Z,2021-07-15T12:00:00Z,2021-07-27T12:00:00Z,2021-07-30T12:00:00Z,2021-08-14T12:00:00Z,126,141,NA,144,162,NA,182,190,197,209,212,14,2,0,17,19,0,7,6,11,2,14,140,143,NA,161,181,NA,189,196,208,211,226
22,rosemount_mn,44.707,-93.101,-0.5,2021,1,2021,mid00,785.0067669904491,11,2021-05-06,2021-05-20,96,2021-08-24,2021-08-27,2021-09-10,Harvested at Maturity.,2.5573333522925776,10.293333351612091,2.512647053884233,1.992000004897515,2.214705878868699,0.5,0.041666665424903236,7.018333526949088,0.49000001124416787,13.369999567667643,5.920666692530116,2.5573333522925776,10.293333351612091,2.512647053884233,1.992000004897515,2.214705878868699,0.5,0.041666665424903236,7.018333526949088,0.49000001124416787,13.369999567667643,5.920666692530116,21.533333269755047,19.299999872843426,25.522941210690668,22.472666676839193,21.776470577015598,22.899999618530273,20.016666571299236,15.261666933695476,23.22000026702881,16.429999987284344,16.968000094095867,18.91400000254313,27.070000330607098,27.65794117310468,29.19600003560384,31.83117608463063,30.809999465942383,28.884999593098957,29.265000343322754,30.527499834696453,30.46666717529297,25.156000264485677,12.696999994913737,22.84166685740153,21.194852899102603,22.859666697184245,24.85911745183608,25.479999542236328,21.951666355133057,24.296666940053303,23.449999888737995,24.730000178019203,19.901000054677326,6.479999987284343,18.613333384195965,14.731764625100528,16.52333335876465,17.88705881904153,20.149999618530273,15.018333117167154,19.328333536783855,16.37249994277954,18.99333318074544,14.645999844868978,4.224034023434495,12.84166685740153,8.881716583210965,10.258503993733818,11.95295799946944,14.531684407855902,11.620451396576232,14.07547446221048,12.772219595283767,14.151831399099033,9.133000055948893,4.224034023434495,12.84166685740153,8.881716583210965,10.258503993733818,11.95295799946944,14.531684407855902,11.620451396576232,14.07547446221048,12.772219595283767,14.151831399099033,9.133000055948893,0,0,301.9783638291728,455.85592373518,659.0562097261605,673.5878941340164,743.3106025134737,827.7634492867365,981.0300844301418,1023.4855786274388,1023.4855786274388,0,0,0.8318088201915517,0.9805333391825358,1,1,1,1,1,1,0.06666666666666667,1,1,1,1,1,1,1,1,1,1,1,0.34716665824254356,1,0.8318088201915517,0.9805333391825358,1,1,1,1,1,1,0.9043333371480307,1,1,1,1,0.9999999999999999,1,0.9999999999999999,0.9999999999999999,0.9999999999999999,1,1,2021-05-06T12:00:00Z,2021-05-21T12:00:00Z,2021-05-24T12:00:00Z,2021-06-27T12:00:00Z,2021-07-12T12:00:00Z,2021-07-29T12:00:00Z,2021-07-30T12:00:00Z,2021-08-05T12:00:00Z,2021-08-11T12:00:00Z,2021-08-23T12:00:00Z,2021-08-26T12:00:00Z,2021-05-20T12:00:00Z,2021-05-23T12:00:00Z,2021-06-26T12:00:00Z,2021-07-11T12:00:00Z,2021-07-28T12:00:00Z,2021-07-29T12:00:00Z,2021-08-04T12:00:00Z,2021-08-10T12:00:00Z,2021-08-22T12:00:00Z,2021-08-25T12:00:00Z,2021-09-09T12:00:00Z,126,141,144,178,193,210,211,217,223,235,238,14,2,33,14,16,0,5,5,11,2,14,140,143,177,192,209,210,216,222,234,237,252
23,rosemount_mn,44.707,-93.101,0.5,2021,1,2021,mid0,904.6259322227356,11,2021-05-06,2021-05-20,99,2021-08-27,2021-08-30,2021-09-13,Harvested at Maturity.,2.5573333522925776,10.293333351612091,2.573055552215212,2.8282352740712025,0.7647058999932864,0,6.760000189145406,0.28333333724488813,4.167272621935064,17.356667041778564,2.49933328392605,2.5573333522925776,10.293333351612091,2.573055552215212,2.8282352740712025,0.7647058999932864,0,6.760000189145406,0.28333333724488813,4.167272621935064,17.356667041778564,2.49933328392605,21.533333269755047,19.299999872843426,25.2461111413108,22.384117743548224,21.706470433403464,20.489999771118164,15.381666819254558,23.400000254313152,20.54454569383101,10.359999974568685,17.79200007120768,18.91400000254313,27.070000330607098,27.665000041325886,29.192352855906766,31.837058347814224,29.15999984741211,28.978333473205566,30.02333354949951,30.933636231855914,27.720000584920246,24.644666798909505,12.696999994913737,22.84166685740153,21.25263888306088,22.63999995063333,25.051176211413214,21.449999809265137,23.55333336194356,23.338333527247112,24.185454411940142,23.55999994277954,19.051333395640054,6.479999987284343,18.613333384195965,14.840277724795872,16.08764704535989,18.265294075012207,13.739999771118164,18.12833325068156,16.653333504994713,17.43727259202437,19.399999300638836,13.457999992370606,4.224034023434495,12.84166685740153,8.103719339318694,9.305522815153909,11.576273462659563,10.585334371359089,12.853253475015975,13.148505747529788,13.260968532395363,13.559999942779541,8.292000039418538,4.224034023434495,12.84166685740153,8.103719339318694,9.305522815153909,11.576273462659563,10.585334371359089,12.853253475015975,13.148505747529788,13.260968532395363,13.559999942779541,8.292000039418538,0,0,291.733896215473,449.9277840730894,646.724432938302,657.3097673096611,734.4292881597569,813.3203226449356,959.1909765012846,999.8709763296232,999.8709763296232,0,0,0.8411527746253543,0.9828235345728257,1,1,1,1,1,1,0.06666666666666667,1,1,1,1,1,1,1,1,1,1,1,0.34716665824254356,1,0.8411527746253543,0.9828235345728257,1,1,1,1,1,1,0.8803666718800863,1,1,1,1,0.9999999999999999,1,1,1,0.9999999999999999,0.9999999999999998,1,2021-05-06T12:00:00Z,2021-05-21T12:00:00Z,2021-05-24T12:00:00Z,2021-06-29T12:00:00Z,2021-07-16T12:00:00Z,2021-08-02T12:00:00Z,2021-08-03T12:00:00Z,2021-08-09T12:00:00Z,2021-08-15T12:00:00Z,2021-08-26T12:00:00Z,2021-08-29T12:00:00Z,2021-05-20T12:00:00Z,2021-05-23T12:00:00Z,2021-06-28T12:00:00Z,2021-07-15T12:00:00Z,2021-08-01T12:00:00Z,2021-08-02T12:00:00Z,2021-08-08T12:00:00Z,2021-08-14T12:00:00Z,2021-08-25T12:00:00Z,2021-08-28T12:00:00Z,2021-09-12T12:00:00Z,126,141,144,180,197,214,215,221,227,238,241,14,2,35,16,16,0,5,5,10,2,14,140,143,179,196,213,214,220,226,237,240,255
24,rosemount_mn,44.707,-93.101,1.5,2021,1,2021,mid1,1173.8591145580046,11,2021-05-06,2021-05-20,116,2021-09-13,2021-09-19,2021-10-03,Harvested at Maturity.,2.5573333522925776,10.293333351612091,2.2964285694594895,2.4409999846480788,2.668421125627662,0,0,10.779999954359871,3.742499971645884,1.8149999662612877,1.296000009526809,2.5573333522925776,10.293333351612091,2.2964285694594895,2.4409999846480788,2.668421125627662,0,0,10.779999954359871,3.742499971645884,1.8149999662612877,1.296000009526809,21.533333269755047,19.299999872843426,25.469523849941435,21.194000005722046,19.204736860174883,26.700000762939453,23.511666933695476,16.997142927987234,17.46625006198883,16.014999866485596,14.124000072479248,18.91400000254313,27.070000330607098,28.155714330219087,29.802999782562257,30.50631553248355,27.360000610351563,32.07833321889242,29.49000004359654,25.189375162124634,24.233333587646484,24.488666534423828,12.696999994913737,22.84166685740153,21.69595238140651,23.201249885559083,24.27657880281147,20.605000495910645,24.242499907811485,23.37642846788679,19.862812519073486,18.166666746139526,17.947666549682616,6.479999987284343,18.613333384195965,15.236190432593936,16.59949998855591,18.04684207313939,13.850000381469728,16.406666596730552,17.262856892177037,14.536249876022339,12.099999904632568,11.406666564941407,4.224034023434495,12.84166685740153,7.301043217788758,8.956352987398478,11.596278653830117,10.228865438232454,13.175082551420674,12.796455107770647,10.111382768738642,8.83762226810058,7.6652940872581805,4.224034023434495,12.84166685740153,7.301043217788758,8.956352987398478,11.596278653830117,10.228865438232454,13.175082551420674,12.796455107770647,10.111382768738642,8.83762226810058,7.6652940872581805,0,0,306.64381514712784,485.7708748950975,706.1001693178696,716.329034756102,795.379530064626,884.9547158190205,1046.7368401188387,1099.7625737274425,1099.7625737274425,0,0,0.8638452353931608,0.9854000043869019,1,1,1,1,0.9058125019073486,0.781583340962728,0.04526666323343913,1,1,1,1,1,1,1,1,1,1,1,0.34716665824254356,1,0.8638452353931608,0.9854000043869019,1,1,1,1,0.9058125019073486,0.781583340962728,0.7353999932607015,1,1,1,0.9999999999999999,0.9999999999999999,1,0.9838620013820948,0.992562317438258,0.9999999999999999,0.9999999999999999,1,2021-05-06T12:00:00Z,2021-05-21T12:00:00Z,2021-05-24T12:00:00Z,2021-07-05T12:00:00Z,2021-07-25T12:00:00Z,2021-08-13T12:00:00Z,2021-08-14T12:00:00Z,2021-08-20T12:00:00Z,2021-08-27T12:00:00Z,2021-09-12T12:00:00Z,2021-09-18T12:00:00Z,2021-05-20T12:00:00Z,2021-05-23T12:00:00Z,2021-07-04T12:00:00Z,2021-07-24T12:00:00Z,2021-08-12T12:00:00Z,2021-08-13T12:00:00Z,2021-08-19T12:00:00Z,2021-08-26T12:00:00Z,2021-09-11T12:00:00Z,2021-09-17T12:00:00Z,2021-10-02T12:00:00Z,126,141,144,186,206,225,226,232,239,255,261,14,2,41,19,18,0,5,6,15,5,14,140,143,185,205,224,225,231,238,254,260,275
25,rosemount_mn,44.707,-93.101,2.5,2021,1,2021,mid2,1331.5128139117076,11,2021-05-06,2021-05-20,132,2021-09-29,2021-10-03,2021-10-17,Harvested at Maturity.,2.5573333522925776,10.293333351612091,2.353265304194421,1.7454545424235137,2.3995000648312272,NA,15.165714195796422,2.494444413110614,1.336499994341284,0.46000001579523087,0.6779999941587448,2.5573333522925776,10.293333351612091,2.353265304194421,1.7454545424235137,2.3995000648312272,NA,15.165714195796422,2.494444413110614,1.336499994341284,0.46000001579523087,0.6779999941587448,21.533333269755047,19.299999872843426,24.589183700327972,21.54636357047341,20.469500255584716,NA,14.628571510314941,17.930000199211968,16.129499912261963,13.057500123977661,10.529333527882894,18.91400000254313,27.070000330607098,28.12877551876769,31.10409051721746,30.14399995803833,NA,28.632857731410436,24.586666954888237,23.975999927520753,27.34749984741211,21.22733357747396,12.696999994913737,22.84166685740153,21.70448977606637,24.26249978759072,23.6599999666214,NA,23.75142867224557,19.093889024522568,17.48024990558624,20.992499947547913,15.966000175476074,6.479999987284343,18.613333384195965,15.280204033365054,17.42090905796398,17.17599997520447,NA,18.869999613080704,13.6011110941569,10.984499883651733,14.637500047683716,10.70466677347819,4.224034023434495,12.84166685740153,6.010010949890688,8.71947305399931,11.64313676957694,NA,13.503642052708352,9.282628707455926,8.665297394781113,11.233379173247517,5.681341979985933,4.224034023434495,12.84166685740153,6.010010949890688,8.71947305399931,11.64313676957694,NA,13.503642052708352,9.282628707455926,8.665297394781113,11.233379173247517,5.681341979985933,0,0,294.4905365446438,486.3189437326288,719.1816791241674,NA,813.7071734931259,897.2508318602293,1070.5567797558513,1115.4902964488413,1115.4902964488413,0,0,0.8773367341683835,1,1,NA,1,0.9005555682712132,0.7115499925613403,0.9693750023841858,0.06666666666666667,1,1,1,1,1,NA,1,1,1,1,1,0.34716665824254356,1,0.8773367341683835,1,1,NA,1,0.9005555682712132,0.7115499925613403,0.9693750023841858,0.6073000160853068,1,1,1,1,0.9588145479198339,NA,0.9586626606522706,0.9999999999999999,0.9999999999999999,1,1,2021-05-06T12:00:00Z,2021-05-21T12:00:00Z,2021-05-24T12:00:00Z,2021-07-12T12:00:00Z,2021-08-03T12:00:00Z,NA,2021-08-23T12:00:00Z,2021-08-30T12:00:00Z,2021-09-08T12:00:00Z,2021-09-28T12:00:00Z,2021-10-02T12:00:00Z,2021-05-20T12:00:00Z,2021-05-23T12:00:00Z,2021-07-11T12:00:00Z,2021-08-02T12:00:00Z,2021-08-22T12:00:00Z,NA,2021-08-29T12:00:00Z,2021-09-07T12:00:00Z,2021-09-27T12:00:00Z,2021-10-01T12:00:00Z,2021-10-16T12:00:00Z,126,141,144,193,215,NA,235,242,251,271,275,14,2,48,21,19,0,6,8,19,3,14,140,143,192,214,234,NA,241,250,270,274,289
26,rosemount_mn,44.707,-93.101,-1.5,2022,1,2022,mid000,223.0815917333204,11,2022-04-27,2022-05-11,78,2022-07-28,2022-08-01,2022-08-15,Harvested at Maturity.,4.951333313683668,0.9849999770522118,NA,2.0614285692572594,1.9531578963720486,3.069999933242798,3.779999981323878,1.7014285666601998,2.683636413379149,0.4425000096671284,3.8279999318222204,4.951333313683668,0.9849999770522118,NA,2.0614285692572594,1.9531578963720486,3.069999933242798,3.779999981323878,1.7014285666601998,2.683636413379149,0.4425000096671284,3.8279999318222204,15.965999984741211,24.59250020980835,NA,20.870000192097255,25.492105383622018,13.329999923706056,19.776666323343914,25.087143216814315,22.824545773592863,25.707499504089355,20.028666814168293,17.44466667175293,24.33750009536743,NA,21.682142972946167,29.21105264362536,23.84000015258789,30.52166684468587,30.368571417672293,31.69545416398482,28.68499994277954,29.890666580200197,11.525333385169505,19.293750047683716,NA,15.770714366010257,23.015000017065752,20.21500015258789,25.03749990463257,23.948571477617538,25.28772713921287,21.65375006198883,22.911666679382325,5.606000098586082,14.25,NA,9.859285759074348,16.818947390506143,16.59000015258789,19.553332964579266,17.52857153756278,18.880000114440918,14.62250018119812,15.932666778564453,3.4452903443174745,9.300041394731403,NA,5.6438536263111825,11.014639405598617,9.076235106736297,13.16040108868202,12.602212079233365,13.042816465226647,11.498528956314075,11.432875325330894,3.4452903443174745,9.300041394731403,NA,5.6438536263111825,11.014639405598617,9.076235106736297,13.16040108868202,12.602212079233365,13.042816465226647,11.498528956314075,11.432875325330894,0,0,NA,158.02790153671313,367.3060502430869,376.3822853498232,455.34469188191537,543.560176436549,687.0311575540421,733.0252733792985,733.0252733792985,0,0,NA,0.5597678635801588,0.9886578961422569,1,1,1,1,0.996875,0.06666666666666667,1,1,NA,1,1,1,1,1,1,1,1,0.2824333381652832,0.8116250038146973,NA,0.5597678635801588,0.9886578961422569,1,1,1,1,0.996875,0.9926666673024496,1,1,NA,1,1,1,0.9999999999999999,0.9999999999999999,0.9999999999999999,1,1,2022-04-27T12:00:00Z,2022-05-12T12:00:00Z,NA,2022-05-16T12:00:00Z,2022-06-13T12:00:00Z,2022-07-02T12:00:00Z,2022-07-03T12:00:00Z,2022-07-09T12:00:00Z,2022-07-16T12:00:00Z,2022-07-27T12:00:00Z,2022-07-31T12:00:00Z,2022-05-11T12:00:00Z,2022-05-15T12:00:00Z,NA,2022-06-12T12:00:00Z,2022-07-01T12:00:00Z,2022-07-02T12:00:00Z,2022-07-08T12:00:00Z,2022-07-15T12:00:00Z,2022-07-26T12:00:00Z,2022-07-30T12:00:00Z,2022-08-14T12:00:00Z,117,132,NA,136,164,183,184,190,197,208,212,14,3,0,27,18,0,5,6,10,3,14,131,135,NA,163,182,183,189,196,207,211,226
27,rosemount_mn,44.707,-93.101,-0.5,2022,1,2022,mid00,840.2630611164601,11,2022-04-27,2022-05-11,106,2022-08-25,2022-08-28,2022-09-11,Harvested at Maturity.,4.951333313683668,0.9849999770522118,2.0502325612185306,2.419285691210202,2.45529414910604,0.00999999977648258,1.3983333160479863,5.22499989780287,3.0992307448043275,1.1166666975865762,3.794666557138165,4.951333313683668,0.9849999770522118,2.0502325612185306,2.419285691210202,2.45529414910604,0.00999999977648258,1.3983333160479863,5.22499989780287,3.0992307448043275,1.1166666975865762,3.794666557138165,15.965999984741211,24.59250020980835,22.534651312717173,21.48714283534459,23.987059088314282,24.649999618530273,25.053333282470703,19.741666793823242,17.23076923076923,16.52333354949951,18.2513334274292,17.44466667175293,24.33750009536743,24.164651227551836,30.0342858178275,30.959999757654526,27.649999618530273,31.875000317891438,30.049999872843426,27.534615443303036,27.78333346048991,27.58599993387858,11.525333385169505,19.293750047683716,18.237907020158545,24.103214297975814,24.50588229123284,20.514999866485596,24.161666870117188,22.851666688919067,21.768461594214806,22.21666669845581,21.224333381652833,5.606000098586082,14.25,12.311162812765254,18.17214277812413,18.05176482481115,13.380000114440918,16.448333422342937,15.65333350499471,16.002307745126576,16.64999993642171,14.862666829427083,3.4452903443174745,9.300041394731403,6.96113407701267,11.550254466062212,12.046623759413013,9.989599286680187,12.836674816135913,12.31984226352509,11.788171782400976,12.216666698455812,10.19079168649594,3.4452903443174745,9.300041394731403,6.96113407701267,11.550254466062212,12.046623759413013,9.989599286680187,12.836674816135913,12.31984226352509,11.788171782400976,12.216666698455812,10.19079168649594,0,0,299.3287653115448,461.0323278364159,665.8249317464373,675.8145310331175,752.834579929933,826.7536335110836,979.9998666822964,1016.6498667776638,1016.6498667776638,0,0,0.7083255862080774,1,0.9992647058823529,1,1,0.9850833415985107,0.9984230738419753,1,0.06666666666666667,1,1,1,1,1,1,1,1,1,1,1,0.2824333381652832,0.8116250038146973,0.7083255862080774,1,0.9992647058823529,1,1,0.9850833415985107,0.9984230738419753,1,0.9293000030517579,1,1,1,1,1,1,1,0.9999999999999999,0.9999999999999999,0.9999999999999999,1,2022-04-27T12:00:00Z,2022-05-12T12:00:00Z,2022-05-16T12:00:00Z,2022-06-28T12:00:00Z,2022-07-12T12:00:00Z,2022-07-29T12:00:00Z,2022-07-30T12:00:00Z,2022-08-05T12:00:00Z,2022-08-11T12:00:00Z,2022-08-24T12:00:00Z,2022-08-27T12:00:00Z,2022-05-11T12:00:00Z,2022-05-15T12:00:00Z,2022-06-27T12:00:00Z,2022-07-11T12:00:00Z,2022-07-28T12:00:00Z,2022-07-29T12:00:00Z,2022-08-04T12:00:00Z,2022-08-10T12:00:00Z,2022-08-23T12:00:00Z,2022-08-26T12:00:00Z,2022-09-10T12:00:00Z,117,132,136,179,193,210,211,217,223,236,239,14,3,42,13,16,0,5,5,12,2,14,131,135,178,192,209,210,216,222,235,238,253
28,rosemount_mn,44.707,-93.101,0.5,2022,1,2022,mid0,987.8138829423966,11,2022-04-27,2022-05-11,110,2022-08-29,2022-09-01,2022-09-15,Harvested at Maturity.,4.951333313683668,0.9849999770522118,2.0384444459031026,2.484666645526886,2.240000032217187,0,5.204285618716053,2.5299999562225173,4.574999930492292,5.833333154519399,0.6973333206027746,4.951333313683668,0.9849999770522118,2.0384444459031026,2.484666645526886,2.240000032217187,0,5.204285618716053,2.5299999562225173,4.574999930492292,5.833333154519399,0.6973333206027746,15.965999984741211,24.59250020980835,22.684222390916613,22.126666641235353,23.193529577816236,26.90999984741211,20.655714307512557,17.885714530944824,17.639999945958454,19.136666615804035,18.848000208536785,17.44466667175293,24.33750009536743,24.451777839660643,29.976666768391926,30.8964703503777,31.030000686645508,30.99142864772252,27.95571381705148,27.96416695912679,27.226666768391926,27.096666717529295,11.525333385169505,19.293750047683716,18.450222268369462,24.038666661580404,24.35382349350873,24.155000686645508,23.76571430478777,21.477856976645334,22.333750168482464,21.576666831970215,20.06333344777425,5.606000098586082,14.25,12.44866669707828,18.100666554768882,17.811176636639765,17.280000686645508,16.539999961853027,15.000000136239187,16.703333377838135,15.926666895548502,13.030000178019206,3.4452903443174745,9.300041394731403,6.459170793331048,10.58295438436082,11.281214077130452,12.762876975480356,12.039619471322734,11.335022894417126,12.333750168482464,11.664828886493046,9.090384794086217,3.4452903443174745,9.300041394731403,6.459170793331048,10.58295438436082,11.281214077130452,12.762876975480356,12.039619471322734,11.335022894417126,12.333750168482464,11.664828886493046,9.090384794086217,0,0,290.66268569989717,449.4070014653096,641.1876407765272,653.9505177520076,738.2278540512668,817.5730143121867,965.5780163339764,1000.5725029934554,1000.5725029934554,0,0,0.7212888934877184,1,0.9992647058823529,1,0.9872142927987235,0.9970714228493827,1,0.9935000101725261,0.06666666666666667,1,1,1,1,1,1,1,1,1,1,1,0.2824333381652832,0.8116250038146973,0.7212888934877184,1,0.9992647058823529,1,0.9872142927987235,0.9970714228493827,1,0.9935000101725261,0.867433344523112,1,1,1,1,0.9999999999999999,1,0.9887003883105516,0.9999999999999999,1,0.9999999999999999,1,2022-04-27T12:00:00Z,2022-05-12T12:00:00Z,2022-05-16T12:00:00Z,2022-06-30T12:00:00Z,2022-07-15T12:00:00Z,2022-08-01T12:00:00Z,2022-08-02T12:00:00Z,2022-08-09T12:00:00Z,2022-08-16T12:00:00Z,2022-08-28T12:00:00Z,2022-08-31T12:00:00Z,2022-05-11T12:00:00Z,2022-05-15T12:00:00Z,2022-06-29T12:00:00Z,2022-07-14T12:00:00Z,2022-07-31T12:00:00Z,2022-08-01T12:00:00Z,2022-08-08T12:00:00Z,2022-08-15T12:00:00Z,2022-08-27T12:00:00Z,2022-08-30T12:00:00Z,2022-09-14T12:00:00Z,117,132,136,181,196,213,214,221,228,240,243,14,3,44,14,16,0,6,6,11,2,14,131,135,180,195,212,213,220,227,239,242,257
29,rosemount_mn,44.707,-93.101,1.5,2022,1,2022,mid1,1146.6882555689858,11,2022-04-27,2022-05-11,126,2022-09-14,2022-09-18,2022-10-02,Harvested at Maturity.,4.951333313683668,0.9849999770522118,2.19647058526821,2.4533333459662066,3.0961904402467466,0,3.228571426921657,5.386666529501478,1.7474999545374885,0.5525000095367432,0.5160000065962473,4.951333313683668,0.9849999770522118,2.19647058526821,2.4533333459662066,3.0961904402467466,0,3.228571426921657,5.386666529501478,1.7474999545374885,0.5525000095367432,0.5160000065962473,15.965999984741211,24.59250020980835,22.41215700261733,23.50611135694716,21.186190468924387,19.600000381469727,17.318571363176616,17.24833329518636,19.001875162124634,14.720000147819519,14.442666610081991,17.44466667175293,24.33750009536743,25.099411852219525,31.53555530971951,29.482857113792782,26.559999465942383,27.341428756713867,28.275000254313152,27.11437499523163,27.37000036239624,22.042666753133137,11.525333385169505,19.293750047683716,19.127647099541683,25.263611051771377,22.635714326586044,19.794999599456787,21.92785726274763,22.47083346048991,20.49562507867813,20.33750033378601,15.76933339436849,5.606000098586082,14.25,13.15588234686384,18.991666793823242,15.788571539379301,13.029999732971191,16.514285768781388,16.666666666666668,13.876875162124634,13.305000305175781,9.49600003560384,3.4452903443174745,9.300041394731403,6.022116467269678,10.15458299745811,10.574741318774812,9.54972950515846,11.899232266936798,12.47083346048991,10.766667419205978,10.791418226733803,5.317168696998755,3.4452903443174745,9.300041394731403,6.022116467269678,10.15458299745811,10.574741318774812,9.54972950515846,11.899232266936798,12.47083346048991,10.766667419205978,10.791418226733803,5.317168696998755,0,0,307.1279398307536,489.91043378499944,711.9800014792704,721.5297309844289,804.8243568529865,879.649357615926,1051.9160363232215,1095.0817092301568,1095.0817092301568,0,0,0.7540784354303398,1,0.9951428595043365,0.9794999599456788,1,1,0.8885625064373016,0.9437500238418579,0.06666666666666667,1,1,1,1,1,1,1,1,1,1,1,0.2824333381652832,0.8116250038146973,0.7540784354303398,1,0.9951428595043365,0.9794999599456788,1,1,0.8885625064373016,0.9437500238418579,0.5159000031153361,1,1,1,1,0.9860879697450015,0.9999999999999998,0.9999999999999999,0.9999999999999999,1,0.9999999999999999,1,2022-04-27T12:00:00Z,2022-05-12T12:00:00Z,2022-05-16T12:00:00Z,2022-07-06T12:00:00Z,2022-07-24T12:00:00Z,2022-08-14T12:00:00Z,2022-08-15T12:00:00Z,2022-08-22T12:00:00Z,2022-08-28T12:00:00Z,2022-09-13T12:00:00Z,2022-09-17T12:00:00Z,2022-05-11T12:00:00Z,2022-05-15T12:00:00Z,2022-07-05T12:00:00Z,2022-07-23T12:00:00Z,2022-08-13T12:00:00Z,2022-08-14T12:00:00Z,2022-08-21T12:00:00Z,2022-08-27T12:00:00Z,2022-09-12T12:00:00Z,2022-09-16T12:00:00Z,2022-10-01T12:00:00Z,117,132,136,187,205,226,227,234,240,256,260,14,3,50,17,20,0,6,5,15,3,14,131,135,186,204,225,226,233,239,255,259,274
30,rosemount_mn,44.707,-93.101,2.5,2022,1,2022,mid2,1388.8748577050626,11,2022-04-27,2022-05-11,140,2022-09-28,2022-10-05,2022-10-19,Harvested at Maturity.,4.951333313683668,0.9849999770522118,2.140877189637538,2.1452381184235927,3.4877272278747777,NA,6.227499830070883,0.030000000127724236,1.0368421026750614,0.10714285714285714,0.32866666167974473,4.951333313683668,0.9849999770522118,2.140877189637538,2.1452381184235927,3.4877272278747777,NA,6.227499830070883,0.030000000127724236,1.0368421026750614,0.10714285714285714,0.32866666167974473,15.965999984741211,24.59250020980835,22.277368528801098,24.00380970182873,19.141818219965153,NA,17.65875005722046,20.26428590502058,14.942631683851543,14.115714073181152,11.735999933878581,17.44466667175293,24.33750009536743,25.606315863759896,30.79476174854097,28.944545485756613,NA,28.072499990463257,28.518571036202566,24.364737159327458,20.65999984741211,15.088666725158692,11.525333385169505,19.293750047683716,19.678508807692612,24.158809525626047,22.49318185719577,NA,22.177500069141388,21.318571295057026,18.24657917022705,13.77214275087629,8.924666678408782,5.606000098586082,14.25,13.750701751625328,17.522857302711124,16.04181822863492,NA,16.28250014781952,14.118571553911481,12.128421181126646,6.884285654340472,2.760666631658872,3.4452903443174745,9.300041394731403,5.261991890739554,8.768828549876925,10.711949885587986,NA,12.165473438099026,11.373207832739183,9.159168393858797,6.780129102782267,2.124237452275157,3.4452903443174745,9.300041394731403,5.261991890739554,8.768828549876925,10.711949885587986,NA,12.165473438099026,11.373207832739183,9.159168393858797,6.780129102782267,2.124237452275157,0,0,299.9335377721547,484.0789373195701,719.7418348025059,NA,817.065622307298,896.6780771364723,1070.7022766197897,1118.1631803392652,1118.1631803392652,0,0,0.7799649159113566,0.9994047619047619,0.9950000004334884,NA,0.9975625038146972,0.9302857058388846,0.7331842271905197,0.38764284338269916,0.05843332926432292,1,1,1,1,1,NA,1,1,1,1,1,0.2824333381652832,0.8116250038146973,0.7799649159113566,0.9994047619047619,0.9950000004334884,NA,0.9975625038146972,0.9302857058388846,0.7331842271905197,0.38764284338269916,0.2147000002861023,1,1,1,0.9999999999999999,0.9832621920470067,NA,0.9900220631145952,0.9999999999999999,1,0.9999999999999999,1,2022-04-27T12:00:00Z,2022-05-12T12:00:00Z,2022-05-16T12:00:00Z,2022-07-12T12:00:00Z,2022-08-02T12:00:00Z,NA,2022-08-24T12:00:00Z,2022-09-01T12:00:00Z,2022-09-08T12:00:00Z,2022-09-27T12:00:00Z,2022-10-04T12:00:00Z,2022-05-11T12:00:00Z,2022-05-15T12:00:00Z,2022-07-11T12:00:00Z,2022-08-01T12:00:00Z,2022-08-23T12:00:00Z,NA,2022-08-31T12:00:00Z,2022-09-07T12:00:00Z,2022-09-26T12:00:00Z,2022-10-03T12:00:00Z,2022-10-18T12:00:00Z,117,132,136,193,214,NA,236,244,251,270,277,14,3,56,20,21,0,7,6,18,6,14,131,135,192,213,235,NA,243,250,269,276,291
31,rosemount_mn,44.707,-93.101,-1.5,2023,1,2023,mid000,228.11864420809,11,2023-04-24,2023-05-08,80,2023-07-27,2023-07-30,2023-08-13,Harvested at Maturity.,2.1293333674470585,4.87000002861023,NA,1.5268181648782708,2.069999991516982,0.6499999761581421,1.7571429088711739,1.760000036098063,1.6335714432810033,10.040000001589457,2.2459999134143196,2.1293333674470585,4.87000002861023,NA,1.5268181648782708,2.069999991516982,0.6499999761581421,1.7571429088711739,1.760000036098063,1.6335714432810033,10.040000001589457,2.2459999134143196,19.688000265757243,13.670000076293945,NA,23.559090917760678,23.057142711821058,21.84000015258789,23.771428516932897,23.391249895095825,21.732142857142858,24.920000712076824,21.592666721343996,15.947333653767904,22.83199996948242,NA,24.304545705968682,26.930952253795805,26.15999984741211,30.50999995640346,27.399999856948853,29.6114285332816,34.25,30.20400021870931,10.049666810035706,17.92599983215332,NA,17.88750012354417,20.795952320098877,21.15999984741211,24.074999809265137,20.545000076293945,22.58142856189183,27.961666425069176,23.946666717529297,4.151999966303507,13.019999694824218,NA,11.470454541119661,14.660952386401949,16.15999984741211,17.639999662126815,13.690000295639038,15.551428590502058,21.673332850138348,17.689333216349283,2.7220222137704493,7.9259998321533205,NA,7.450267486459587,9.44978235496108,9.813539385060231,11.998674270483377,9.610688998522932,11.430339862712463,14.421322375021926,12.518851415235996,2.7220222137704493,7.9259998321533205,NA,7.450267486459587,9.44978235496108,9.813539385060231,11.998674270483377,9.610688998522932,11.430339862712463,14.421322375021926,12.518851415235996,0,0,NA,163.90588470211094,362.3513141562936,372.1648535413538,456.1555734347375,533.0410854229209,693.0658435008954,736.3298106259613,736.3298106259613,0,0,NA,0.7048409126021645,0.9115952400934129,1,1,0.907625013589859,0.9857142857142858,1,0.06666666666666667,1,1,NA,1,1,1,1,1,1,1,1,0.23380000909169515,0.7925999832153321,NA,0.7048409126021645,0.9115952400934129,1,1,0.907625013589859,0.9857142857142858,1,1,1,1,NA,1,1,1,0.9999999999999999,1,1,0.9999999999999999,1,2023-04-24T12:00:00Z,2023-05-09T12:00:00Z,NA,2023-05-14T12:00:00Z,2023-06-05T12:00:00Z,2023-06-26T12:00:00Z,2023-06-27T12:00:00Z,2023-07-04T12:00:00Z,2023-07-12T12:00:00Z,2023-07-26T12:00:00Z,2023-07-29T12:00:00Z,2023-05-08T12:00:00Z,2023-05-13T12:00:00Z,NA,2023-06-04T12:00:00Z,2023-06-25T12:00:00Z,2023-06-26T12:00:00Z,2023-07-03T12:00:00Z,2023-07-11T12:00:00Z,2023-07-25T12:00:00Z,2023-07-28T12:00:00Z,2023-08-12T12:00:00Z,114,129,NA,134,156,177,178,185,193,207,210,14,4,0,21,20,0,6,7,13,2,14,128,133,NA,155,176,177,184,192,206,209,224
32,rosemount_mn,44.707,-93.101,-0.5,2023,1,2023,mid00,907.4052304630782,11,2023-04-24,2023-05-08,107,2023-08-23,2023-08-26,2023-09-09,Harvested at Maturity.,2.1293333674470585,4.87000002861023,1.2792307677177281,3.076875007362105,2.4773684087160386,1.5800000429153442,1.6183334017793338,1.8366666138172152,3.5492307022213936,0.006666666517655053,0.11333333229025205,2.1293333674470585,4.87000002861023,1.2792307677177281,3.076875007362105,2.4773684087160386,1.5800000429153442,1.6183334017793338,1.8366666138172152,3.5492307022213936,0.006666666517655053,0.11333333229025205,19.688000265757243,13.670000076293945,23.705640939565804,21.8106250166893,22.91684210927863,24.520000457763672,23.951667149861652,19.41000008583069,19.63538463299091,21.649999618530273,18.95200017293294,15.947333653767904,22.83199996948242,25.259487274365547,28.7537499666214,29.57368409006219,36.630001068115234,30.703333536783855,30.481666882832844,28.643846071683445,37.13333257039388,30.929333114624022,10.049666810035706,17.92599983215332,18.893461563648323,22.719374984502792,22.50499996386076,29.645000457763672,24.115833282470703,24.64666684468587,22.233461490044228,30.214999516805012,23.634333260854085,4.151999966303507,13.019999694824218,12.527435852931095,16.685000002384186,15.436315837659334,22.65999984741211,17.52833302815755,18.811666806538902,15.82307690840501,23.296666463216145,16.339333407084148,2.7220222137704493,7.9259998321533205,7.604682473435306,10.210045684387849,10.53870320178557,12.803049550466072,12.931004109599035,13.570224252592768,11.826821069788016,13.082129812570415,10.742657863390447,2.7220222137704493,7.9259998321533205,7.604682473435306,10.210045684387849,10.53870320178557,12.803049550466072,12.931004109599035,13.570224252592768,11.826821069788016,13.082129812570415,10.742657863390447,0,0,296.58261646397693,459.94334741418265,660.1787082481086,672.9817577985747,750.5677824561689,831.9891279717253,985.7378018789695,1024.9841913166808,1024.9841913166808,0,0,0.7883589775134355,0.9644062548875809,0.9755000014054148,1,1,1,0.9758461548731877,0.8925000190734863,0.06666666666666667,1,1,1,1,1,1,1,1,1,1,1,0.23380000909169515,0.7925999832153321,0.7883589775134355,0.9644062548875809,0.9755000014054148,1,1,1,0.9758461548731877,0.8925000190734863,0.981833340326945,1,1,1,0.9999999999999999,0.9999999999999999,1,0.9999999999999999,0.9999999999999999,0.9999999999999999,0.9999999999999999,1,2023-04-24T12:00:00Z,2023-05-09T12:00:00Z,2023-05-14T12:00:00Z,2023-06-22T12:00:00Z,2023-07-08T12:00:00Z,2023-07-27T12:00:00Z,2023-07-28T12:00:00Z,2023-08-03T12:00:00Z,2023-08-09T12:00:00Z,2023-08-22T12:00:00Z,2023-08-25T12:00:00Z,2023-05-08T12:00:00Z,2023-05-13T12:00:00Z,2023-06-21T12:00:00Z,2023-07-07T12:00:00Z,2023-07-26T12:00:00Z,2023-07-27T12:00:00Z,2023-08-02T12:00:00Z,2023-08-08T12:00:00Z,2023-08-21T12:00:00Z,2023-08-24T12:00:00Z,2023-09-08T12:00:00Z,114,129,134,173,189,208,209,215,221,234,237,14,4,38,15,18,0,5,5,12,2,14,128,133,172,188,207,208,214,220,233,236,251
33,rosemount_mn,44.707,-93.101,0.5,2023,1,2023,mid0,957.273356059951,11,2023-04-24,2023-05-08,110,2023-08-26,2023-08-29,2023-09-12,Harvested at Maturity.,2.1293333674470585,4.87000002861023,1.245853656266884,2.9450000094042883,2.9500000116725764,0,0.35833332935969037,5.133333121736845,1.8861538535700395,0.09666666698952515,0.2780000001192093,2.1293333674470585,4.87000002861023,1.245853656266884,2.9450000094042883,2.9500000116725764,0,0.35833332935969037,5.133333121736845,1.8861538535700395,0.09666666698952515,0.2780000001192093,19.688000265757243,13.670000076293945,23.744877978069027,22.46277772055732,22.451666831970215,22.290000915527344,23.22500006357829,18.5083331267039,19.93230775686411,19.540000279744465,17.786000061035157,15.947333653767904,22.83199996948242,25.57512201913973,28.366666581895615,30.312222162882488,28.360000610351563,32.33500067392985,28.93666648864746,30.292307486900917,29.06333351135254,30.091999816894532,10.049666810035706,17.92599983215332,19.20341465531326,22.05249998304579,23.468888839085896,22.53499984741211,25.630833625793457,22.980833212534588,23.763076818906345,22.330000241597492,22.86166658401489,4.151999966303507,13.019999694824218,12.831707291486786,15.738333384195963,16.625555515289307,16.709999084472656,18.926666577657063,17.02499993642171,17.23384615091177,15.596666971842447,15.631333351135254,2.7220222137704493,7.9259998321533205,7.113880174518719,8.829308231153494,10.508452814633278,11.29862759298,13.241384280956124,12.590613567231587,11.764294495370756,11.732937430814903,10.207050579077404,2.7220222137704493,7.9259998321533205,7.113880174518719,8.829308231153494,10.508452814633278,11.29862759298,13.241384280956124,12.590613567231587,11.764294495370756,11.732937430814903,10.207050579077404,0,0,291.66908715526745,450.5966353160303,639.7487859794292,651.0474135724091,730.4957192581458,806.0394006615353,958.9752291013552,994.1740413937998,994.1740413937998,0,0,0.7986829298298533,0.9536111169391208,0.9888888888888889,1,1,1,0.9510384669670692,1,0.06666666666666667,1,1,1,1,1,1,1,1,1,1,1,0.23380000909169515,0.7925999832153321,0.7986829298298533,0.9536111169391208,0.9888888888888889,1,1,1,0.9510384669670692,1,0.9443666744232178,1,1,1,0.9999999999999999,0.9999999999999999,1,1,0.9999999999999999,1,0.9999999999999998,1,2023-04-24T12:00:00Z,2023-05-09T12:00:00Z,2023-05-14T12:00:00Z,2023-06-24T12:00:00Z,2023-07-12T12:00:00Z,2023-07-30T12:00:00Z,2023-07-31T12:00:00Z,2023-08-06T12:00:00Z,2023-08-12T12:00:00Z,2023-08-25T12:00:00Z,2023-08-28T12:00:00Z,2023-05-08T12:00:00Z,2023-05-13T12:00:00Z,2023-06-23T12:00:00Z,2023-07-11T12:00:00Z,2023-07-29T12:00:00Z,2023-07-30T12:00:00Z,2023-08-05T12:00:00Z,2023-08-11T12:00:00Z,2023-08-24T12:00:00Z,2023-08-27T12:00:00Z,2023-09-11T12:00:00Z,114,129,134,175,193,211,212,218,224,237,240,14,4,40,17,17,0,5,5,12,2,14,128,133,174,192,210,211,217,223,236,239,254
34,rosemount_mn,44.707,-93.101,1.5,2023,1,2023,mid1,1237.0974984942452,11,2023-04-24,2023-05-08,125,2023-09-10,2023-09-16,2023-09-30,Harvested at Maturity.,2.1293333674470585,4.87000002861023,1.7740425454413002,1.6452174176988394,2.7215789297693656,17.209999084472656,3.497142871043512,0.04571428575686046,0.10142857022583485,0.6850000101452073,5.310666781663895,2.1293333674470585,4.87000002861023,1.7740425454413002,1.6452174176988394,2.7215789297693656,17.209999084472656,3.497142871043512,0.04571428575686046,0.10142857022583485,0.6850000101452073,5.310666781663895,19.688000265757243,13.670000076293945,23.316170124297447,22.571304404217265,21.90684225684718,23.459999084472656,19.535714558192662,20.4242856161935,18.83428587232317,16.106666723887127,11.902666664123535,15.947333653767904,22.83199996948242,25.865531982259547,28.64652160976244,31.291052868491725,31.709999084472656,26.42999976021903,34.61857141767229,30.74285684313093,24.196667035420734,25.142000071207683,10.049666810035706,17.92599983215332,19.61319149808681,21.86347826667454,24.808157920837402,24.894999504089355,20.51714277267456,27.39357144492013,23.432857002530778,17.30083350340525,19.442333380381267,4.151999966303507,13.019999694824218,13.360851013914068,15.080434923586639,18.32526297318308,18.079999923706055,14.604285785130092,20.16857147216797,16.12285716193063,10.40499997138977,13.74266668955485,2.7220222137704493,7.9259998321533205,6.4463236490038645,8.030871976383635,11.503101520974798,13.426895005710824,10.371572265607785,13.331813055360318,11.616867550916757,8.50710392084221,8.991009262511334,2.7220222137704493,7.9259998321533205,6.4463236490038645,8.030871976383635,11.503101520974798,13.426895005710824,10.371572265607785,13.331813055360318,11.616867550916757,8.50710392084221,8.991009262511334,0,0,302.9772115031817,487.6872669600052,706.2461958585264,719.6730908642372,792.2740967234917,885.5967881110138,1048.2329338238485,1099.275557348902,1099.275557348902,0,0,0.8223404280682828,0.9591739177703857,1,1,0.9551428590502058,0.9539285796029228,0.9805357217788696,0.7130833427111308,0.044799998601277674,1,1,1,1,1,1,1,1,1,1,1,0.23380000909169515,0.7925999832153321,0.8223404280682828,0.9591739177703857,1,1,0.9551428590502058,0.9539285796029228,0.9805357217788696,0.7130833427111308,0.8745333290100098,1,1,1,1,0.9917747961502077,1,0.9999999999999999,0.8723896353793043,0.9471671295194954,1,1,2023-04-24T12:00:00Z,2023-05-09T12:00:00Z,2023-05-14T12:00:00Z,2023-06-30T12:00:00Z,2023-07-23T12:00:00Z,2023-08-11T12:00:00Z,2023-08-12T12:00:00Z,2023-08-19T12:00:00Z,2023-08-26T12:00:00Z,2023-09-09T12:00:00Z,2023-09-15T12:00:00Z,2023-05-08T12:00:00Z,2023-05-13T12:00:00Z,2023-06-29T12:00:00Z,2023-07-22T12:00:00Z,2023-08-10T12:00:00Z,2023-08-11T12:00:00Z,2023-08-18T12:00:00Z,2023-08-25T12:00:00Z,2023-09-08T12:00:00Z,2023-09-14T12:00:00Z,2023-09-29T12:00:00Z,114,129,134,181,204,223,224,231,238,252,258,14,4,46,22,18,0,6,6,13,5,14,128,133,180,203,222,223,230,237,251,257,272
35,rosemount_mn,44.707,-93.101,2.5,2023,1,2023,mid2,1152.8427165058297,11,2023-04-24,2023-05-08,139,2023-09-24,2023-09-30,2023-10-14,Harvested at Maturity.,2.1293333674470585,4.87000002861023,1.8351851862820763,2.420416676128904,2.6113635819743983,NA,0.0571428577282599,0.025714285139526637,1.1266666890846357,10.136666903893152,4.2039999594291055,2.1293333674470585,4.87000002861023,1.8351851862820763,2.420416676128904,2.6113635819743983,NA,0.0571428577282599,0.025714285139526637,1.1266666890846357,10.136666903893152,4.2039999594291055,19.688000265757243,13.670000076293945,23.29814808456986,22.757916808128357,20.207727323878895,NA,20.78285707746233,20.73857171194894,15.202222267786661,8.491666555404663,12.061333433787027,15.947333653767904,22.83199996948242,26.28351856161047,29.74374993642171,29.546818299727008,NA,32.967142650059294,33.40428515842983,25.92055564456516,23.09000015258789,20.203333600362143,10.049666810035706,17.92599983215332,20.03055556173678,22.817083299160004,23.179318232969806,NA,25.91642849785941,25.417142595563615,19.22388888729943,18.99500020345052,14.659333461523055,4.151999966303507,13.019999694824218,13.777592561863086,15.890416661898294,16.811818166212603,NA,18.865714345659526,17.430000032697407,12.527222130033705,14.90000025431315,9.11533332268397,2.7220222137704493,7.9259998321533205,5.482385026152035,7.715616190090789,10.774216825590617,NA,12.477758817092012,12.227902781231062,9.738083767767415,9.022793508800865,5.047660009304311,2.7220222137704493,7.9259998321533205,5.482385026152035,7.715616190090789,10.774216825590617,NA,12.477758817092012,12.227902781231062,9.738083767767415,9.022793508800865,5.047660009304311,0,0,296.0487914122098,481.2235799743888,718.2563501373824,NA,805.6006618570264,891.1959813256439,1066.481489145457,1120.6182501982626,1120.6182501982626,0,0,0.8390000029846474,0.9752083361148834,0.9857272733341564,NA,0.9539285796029228,0.9975714411054338,0.8226944406827291,0.8887500127156576,0.06666666666666667,1,1,1,1,1,NA,1,1,1,1,1,0.23380000909169515,0.7925999832153321,0.8390000029846474,0.9752083361148834,0.9857272733341564,NA,0.9539285796029228,0.9975714411054338,0.8226944406827291,0.8887500127156576,0.4040000025431315,1,1,1,1,0.9680496421448924,NA,0.6536912453492681,0.4663204638505935,0.9378480686312379,1,1,2023-04-24T12:00:00Z,2023-05-09T12:00:00Z,2023-05-14T12:00:00Z,2023-07-07T12:00:00Z,2023-07-31T12:00:00Z,NA,2023-08-22T12:00:00Z,2023-08-29T12:00:00Z,2023-09-05T12:00:00Z,2023-09-23T12:00:00Z,2023-09-29T12:00:00Z,2023-05-08T12:00:00Z,2023-05-13T12:00:00Z,2023-07-06T12:00:00Z,2023-07-30T12:00:00Z,2023-08-21T12:00:00Z,NA,2023-08-28T12:00:00Z,2023-09-04T12:00:00Z,2023-09-22T12:00:00Z,2023-09-28T12:00:00Z,2023-10-13T12:00:00Z,114,129,134,188,212,NA,234,241,248,266,272,14,4,53,23,21,0,6,6,17,5,14,128,133,187,211,233,NA,240,247,265,271,286
36,mead_ne,41.15785,-96.42075,-1.5,2017,2,2017,mid000,205.0502326574836,11,2017-04-05,2017-04-19,84,2017-07-12,2017-07-15,2017-07-29,Harvested at Maturity.,2.434000029663245,3.4000000308733433,NA,5.8322727954523135,1.1382352994645344,11.739999771118164,3.971666713555654,4.506250110687688,1.7699999956724544,9.593333164850872,2.3920000235239667,2.434000029663245,3.4000000308733433,NA,5.8322727954523135,1.1382352994645344,11.739999771118164,3.971666713555654,4.506250110687688,1.7699999956724544,9.593333164850872,2.3920000235239667,16.11933317184448,17.443125128746033,NA,22.018182017586447,27.162941147299374,28.290000915527344,25.883333841959637,26.84499979019165,25.43749984105428,19.173333485921226,24.576666641235352,21.234666697184245,16.058749943971634,NA,23.96863638270985,29.43470584644991,30.719999313354492,31.008333206176758,29.12124991416931,31.479166666666668,34.4466667175293,34.91800015767415,14.306333394845327,10.209687443450093,NA,17.447500001300465,22.76588229572072,26.26499938964844,23.62999987602234,22.01749986410141,25.09208341439565,28.134999910990395,27.992666689554852,7.378000092506409,4.360624942928553,NA,10.926363619891081,16.09705874499153,21.809999465942383,16.25166654586792,14.913749814033508,18.705000162124634,21.823333104451496,21.067333221435547,5.343769581595957,2.380824724123231,NA,7.5851623633143666,11.578189248670153,15.053111160682832,11.799353708869846,10.706852871692957,12.954492278784338,13.453337303162295,12.673530805200736,5.343769581595957,2.380824724123231,NA,7.5851623633143666,11.578189248670153,15.053111160682832,11.799353708869846,10.706852871692957,12.954492278784338,13.453337303162295,12.673530805200736,0,0,NA,166.87357199291608,363.7027892203087,378.75590038099153,449.55202263421063,535.2068456077544,690.6607529531666,731.0207648626534,731.0207648626534,0,0,NA,0.6779318213462829,0.9382352941176471,1,0.9994999965031942,0.9443749964237214,1,0.9953333218892415,0.06666666666666667,1,1,NA,1,1,1,1,1,1,1,1,0.46606667359670007,0.16378124803304672,NA,0.6779318213462829,0.9382352941176471,1,0.9994999965031942,0.9443749964237214,1,0.9953333218892415,0.9749666659037272,1,1,NA,1,1,1,1,0.9999999999999999,1,1,1,2017-04-05T12:00:00Z,2017-04-20T12:00:00Z,NA,2017-05-06T12:00:00Z,2017-05-28T12:00:00Z,2017-06-14T12:00:00Z,2017-06-15T12:00:00Z,2017-06-21T12:00:00Z,2017-06-29T12:00:00Z,2017-07-11T12:00:00Z,2017-07-14T12:00:00Z,2017-04-19T12:00:00Z,2017-05-05T12:00:00Z,NA,2017-05-27T12:00:00Z,2017-06-13T12:00:00Z,2017-06-14T12:00:00Z,2017-06-20T12:00:00Z,2017-06-28T12:00:00Z,2017-07-10T12:00:00Z,2017-07-13T12:00:00Z,2017-07-28T12:00:00Z,95,110,NA,126,148,165,166,172,180,192,195,14,15,0,21,16,0,5,7,11,2,14,109,125,NA,147,164,165,171,179,191,194,209
37,mead_ne,41.15785,-96.42075,-0.5,2017,2,2017,mid00,799.1461482928547,11,2017-04-05,2017-04-19,109,2017-08-06,2017-08-10,2017-08-24,Harvested at Maturity.,2.434000029663245,3.4000000308733433,3.7288571855851584,3.8857142995776877,3.2711765169001676,3.140000104904175,4.279999898125729,0.961666651070118,2.6308333687484264,1.614999944344163,5.234666636089484,2.434000029663245,3.4000000308733433,3.7288571855851584,3.8857142995776877,3.2711765169001676,3.140000104904175,4.279999898125729,0.961666651070118,2.6308333687484264,1.614999944344163,5.234666636089484,16.11933317184448,17.443125128746033,24.54828586578369,24.552142892565048,26.285294027889478,24.860000610351563,24.586666742960613,24.494999885559082,21.989999771118164,16.422499656677246,21.748666699727377,21.234666697184245,16.058749943971634,25.6068571635655,31.652856826782227,30.34176478666418,38.11000061035156,34.17166646321615,36.98333422342936,30.90999968846639,27.110000610351563,29.712666320800782,14.306333394845327,10.209687443450093,18.933285692759924,25.06035692351205,23.685000083025763,30.14000034332275,27.46583318710327,29.9933336575826,24.33833309014638,21.06250035762787,23.30899985631307,7.378000092506409,4.360624942928553,12.259714221954345,18.467857020241873,17.02823537938735,22.170000076293945,20.7599999109904,23.00333309173584,17.766666491826374,15.015000104904175,16.90533339182536,5.343769581595957,2.380824724123231,8.44641107943682,12.032811187926232,11.316423076523401,11.465866470627716,13.109948122554156,12.767558627565554,13.291462332861675,11.063903262972831,12.152819228115082,5.343769581595957,2.380824724123231,8.44641107943682,12.032811187926232,11.316423076523401,11.465866470627716,13.109948122554156,12.767558627565554,13.291462332861675,11.063903262972831,12.152819228115082,0,0,295.6243877802887,464.083744411256,656.4629367121538,667.9288031827815,746.5884919181065,823.1938436834997,982.6913916778398,1026.9470047297311,1026.9470047297311,0,0,0.767557144846235,0.9992857081549508,0.9742352962493896,0.9859999656677246,1,0.9374166647593181,0.9975416660308838,1,0.06666666666666667,1,1,1,1,1,1,1,1,1,1,1,0.46606667359670007,0.16378124803304672,0.767557144846235,0.9992857081549508,0.9742352962493896,0.9859999656677246,1,0.9374166647593181,0.9975416660308838,1,1,1,1,1,1,1,0.9999999999999996,1,1,1,1,1,2017-04-05T12:00:00Z,2017-04-20T12:00:00Z,2017-05-06T12:00:00Z,2017-06-10T12:00:00Z,2017-06-24T12:00:00Z,2017-07-11T12:00:00Z,2017-07-12T12:00:00Z,2017-07-18T12:00:00Z,2017-07-24T12:00:00Z,2017-08-05T12:00:00Z,2017-08-09T12:00:00Z,2017-04-19T12:00:00Z,2017-05-05T12:00:00Z,2017-06-09T12:00:00Z,2017-06-23T12:00:00Z,2017-07-10T12:00:00Z,2017-07-11T12:00:00Z,2017-07-17T12:00:00Z,2017-07-23T12:00:00Z,2017-08-04T12:00:00Z,2017-08-08T12:00:00Z,2017-08-23T12:00:00Z,95,110,126,161,175,192,193,199,205,217,221,14,15,34,13,16,0,5,5,11,3,14,109,125,160,174,191,192,198,204,216,220,235
38,mead_ne,41.15785,-96.42075,0.5,2017,2,2017,mid0,826.1885318432433,11,2017-04-05,2017-04-19,113,2017-08-10,2017-08-13,2017-08-27,Harvested at Maturity.,2.434000029663245,3.4000000308733433,3.625277819318904,3.6266666796058415,4.6883333489919705,NA,0.7957142729844365,5.0350000734130544,0.6199999812703866,0.5033333500226339,5.96799995812277,2.434000029663245,3.4000000308733433,3.625277819318904,3.6266666796058415,4.6883333489919705,NA,0.7957142729844365,5.0350000734130544,0.6199999812703866,0.5033333500226339,5.96799995812277,16.11933317184448,17.443125128746033,24.58055567741394,25.130000114440918,24.746666590372723,NA,26.91428565979004,22.65166664123535,20.545384333683895,18.69000021616618,21.623333358764647,21.234666697184245,16.058749943971634,25.81694441371494,30.891999816894533,31.430000093248154,NA,35.705714634486604,35.40333334604899,29.130769289456882,29.336666742960613,29.78666623433431,14.306333394845327,10.209687443450093,19.13652773035897,24.114666525522868,24.99583339691162,NA,28.592143058776855,28.370833079020183,22.802307715782753,22.854999860127766,23.354666487375894,7.378000092506409,4.360624942928553,12.456111047003004,17.337333234151206,18.56166670057509,NA,21.478571483067103,21.338332811991375,16.473846142108624,16.373332977294922,16.92266674041748,5.343769581595957,2.380824724123231,8.062883407044307,10.503606132974527,11.124705595737046,NA,12.146957502498722,12.109982723149155,12.34847590153789,12.854999860127766,12.250819182338715,5.343769581595957,2.380824724123231,8.062883407044307,10.503606132974527,11.124705595737046,NA,12.146957502498722,12.109982723149155,12.34847590153789,12.854999860127766,12.250819182338715,0,0,290.26380265359506,447.8178946482129,648.0625953714796,NA,733.0912978889706,805.7511942278655,966.281380947858,1004.8463805282414,1004.8463805282414,0,0,0.7740138908227285,0.9801666609446208,0.990861111217075,NA,0.9849285670689174,0.9550000031789144,0.9977307686438928,1,0.06666666666666667,1,1,1,1,1,NA,1,1,1,1,1,0.46606667359670007,0.16378124803304672,0.7740138908227285,0.9801666609446208,0.990861111217075,NA,0.9849285670689174,0.9550000031789144,0.9977307686438928,1,1,1,1,1,1,0.9999999999999999,NA,0.9999999999999999,0.9999999999999999,1,1,1,2017-04-05T12:00:00Z,2017-04-20T12:00:00Z,2017-05-06T12:00:00Z,2017-06-11T12:00:00Z,2017-06-26T12:00:00Z,NA,2017-07-14T12:00:00Z,2017-07-21T12:00:00Z,2017-07-27T12:00:00Z,2017-08-09T12:00:00Z,2017-08-12T12:00:00Z,2017-04-19T12:00:00Z,2017-05-05T12:00:00Z,2017-06-10T12:00:00Z,2017-06-25T12:00:00Z,2017-07-13T12:00:00Z,NA,2017-07-20T12:00:00Z,2017-07-26T12:00:00Z,2017-08-08T12:00:00Z,2017-08-11T12:00:00Z,2017-08-26T12:00:00Z,95,110,126,162,177,NA,195,202,208,221,224,14,15,35,14,17,0,6,5,12,2,14,109,125,161,176,194,NA,201,207,220,223,238
39,mead_ne,41.15785,-96.42075,1.5,2017,2,2017,mid1,1186.7191963886316,11,2017-04-05,2017-04-19,125,2017-08-22,2017-08-26,2017-09-09,Harvested at Maturity.,2.434000029663245,3.4000000308733433,3.78615388694482,4.4047619463609795,1.747499970626086,0.44999998807907104,4.936666743208964,0.9949999693781137,5.285833262527983,3.7750000976957385,0.9966666585455339,2.434000029663245,3.4000000308733433,3.78615388694482,4.4047619463609795,1.747499970626086,0.44999998807907104,4.936666743208964,0.9949999693781137,5.285833262527983,3.7750000976957385,0.9966666585455339,16.11933317184448,17.443125128746033,24.260769330538235,25.764761970156716,25.480499935150146,27.260000228881836,19.539999961853027,19.668749570846558,21.301666657129925,22.30750036239624,19.669333330790202,21.234666697184245,16.058749943971634,26.351282046391415,29.688095183599565,35.1645001411438,38.16999816894531,30.011666933695476,28.363749980926514,30.25749969482422,28.00499963760376,28.40466677347819,14.306333394845327,10.209687443450093,19.765769206560574,23.115237985338485,28.020000076293947,29.57999897003174,24.34416675567627,21.8787499666214,23.541249871253967,22.421249866485596,21.32966667811076,7.378000092506409,4.360624942928553,13.180256366729736,16.542380787077406,20.875500011444093,20.989999771118164,18.676666577657063,15.393749952316284,16.825000047683716,16.83750009536743,14.254666582743326,5.343769581595957,2.380824724123231,7.686168782935598,9.117763917444105,10.862524827278131,10.47102971825753,12.64257039785143,11.009950318990274,13.12957391080448,12.448224046561123,10.282950707868338,5.343769581595957,2.380824724123231,7.686168782935598,9.117763917444105,10.862524827278131,10.47102971825753,12.64257039785143,11.009950318990274,13.12957391080448,12.448224046561123,10.282950707868338,0,0,299.76058253448826,491.2336248008144,708.4841213463772,718.9551510646347,794.8105734517435,882.8901760036656,1040.4450629333194,1090.2379591195638,1090.2379591195638,0,0,0.7913974376825186,0.9786666643051875,0.9805249977111816,1,1,0.9963124990463257,1,1,0.06666666666666667,1,1,1,1,1,1,1,1,1,1,1,0.46606667359670007,0.16378124803304672,0.7913974376825186,0.9786666643051875,0.9805249977111816,1,1,0.9963124990463257,1,1,0.9359333419799805,1,1,1,1,1,0.9999999999999998,0.9999999999999999,0.9999999999999999,1,1,1,2017-04-05T12:00:00Z,2017-04-20T12:00:00Z,2017-05-06T12:00:00Z,2017-06-14T12:00:00Z,2017-07-05T12:00:00Z,2017-07-25T12:00:00Z,2017-07-26T12:00:00Z,2017-08-01T12:00:00Z,2017-08-09T12:00:00Z,2017-08-21T12:00:00Z,2017-08-25T12:00:00Z,2017-04-19T12:00:00Z,2017-05-05T12:00:00Z,2017-06-13T12:00:00Z,2017-07-04T12:00:00Z,2017-07-24T12:00:00Z,2017-07-25T12:00:00Z,2017-07-31T12:00:00Z,2017-08-08T12:00:00Z,2017-08-20T12:00:00Z,2017-08-24T12:00:00Z,2017-09-08T12:00:00Z,95,110,126,165,186,206,207,213,221,233,237,14,15,38,20,19,0,5,7,11,3,14,109,125,164,185,205,206,212,220,232,236,251
40,mead_ne,41.15785,-96.42075,2.5,2017,2,2017,mid2,1454.996862143472,11,2017-04-05,2017-04-19,136,2017-09-02,2017-09-07,2017-09-21,Harvested at Maturity.,2.434000029663245,3.4000000308733433,4.261162828913955,2.5179167057697973,2.8213636241853237,0.949999988079071,0.9962499784305692,5.921428411134651,3.8723077295491333,0.03600000143051148,1.6333332841595014,2.434000029663245,3.4000000308733433,4.261162828913955,2.5179167057697973,2.8213636241853237,0.949999988079071,0.9962499784305692,5.921428411134651,3.8723077295491333,0.03600000143051148,1.6333332841595014,16.11933317184448,17.443125128746033,24.139535016791765,26.52624996503194,23.303636290810324,17.709999084472656,18.71749985218048,21.727142606462753,21.782307991614708,16.999999809265137,16.508666769663492,21.234666697184245,16.058749943971634,26.847674414168957,30.78541660308838,33.788636380975895,26.920000076293945,28.003750324249268,29.83571379525321,29.20692282456618,28.246000289916992,29.496666971842448,14.306333394845327,10.209687443450093,20.263720894968788,23.956458310286205,27.102727196433328,20.84999990463257,21.565000116825104,23.339999880109517,22.700384470132683,21.642000102996825,22.06066675186157,7.378000092506409,4.360624942928553,13.679767375768618,17.127500017484028,20.416818011890758,14.779999732971191,15.12624990940094,16.84428596496582,16.19384611569918,15.037999916076659,14.624666531880697,5.343769581595957,2.380824724123231,6.934153334053675,7.971118898737506,10.44228187962112,9.22516168282609,10.42140165243347,12.789782009342561,12.497875364115606,11.513891457526684,10.98261279692332,5.343769581595957,2.380824724123231,6.934153334053675,7.971118898737506,10.44228187962112,9.22516168282609,10.42140165243347,12.789782009342561,12.497875364115606,11.513891457526684,10.98261279692332,0,0,298.16859336430804,489.4754469340082,719.2056482856729,728.4308099684989,811.8020231879666,901.3304972533645,1063.802876986867,1121.3723342745006,1121.3723342745006,0,0,0.8108023272004239,0.9807499965031942,0.9829318176616322,1,0.9963124990463257,1,0.9984999986795279,0.9355000114440918,0.034833335876464845,1,1,1,1,1,1,1,1,1,1,1,0.46606667359670007,0.16378124803304672,0.8108023272004239,0.9807499965031942,0.9829318176616322,1,0.9963124990463257,1,0.9984999986795279,0.9355000114440918,0.9337666765848796,1,1,1,1,1,0.9999999999999998,1,0.9999999999999999,0.9999999999999999,1,1,2017-04-05T12:00:00Z,2017-04-20T12:00:00Z,2017-05-06T12:00:00Z,2017-06-18T12:00:00Z,2017-07-12T12:00:00Z,2017-08-03T12:00:00Z,2017-08-04T12:00:00Z,2017-08-12T12:00:00Z,2017-08-19T12:00:00Z,2017-09-01T12:00:00Z,2017-09-06T12:00:00Z,2017-04-19T12:00:00Z,2017-05-05T12:00:00Z,2017-06-17T12:00:00Z,2017-07-11T12:00:00Z,2017-08-02T12:00:00Z,2017-08-03T12:00:00Z,2017-08-11T12:00:00Z,2017-08-18T12:00:00Z,2017-08-31T12:00:00Z,2017-09-05T12:00:00Z,2017-09-20T12:00:00Z,95,110,126,169,193,215,216,224,231,244,249,14,15,42,23,21,0,7,6,12,4,14,109,125,168,192,214,215,223,230,243,248,263
46,mead_ne,41.15785,-96.42075,-1.5,2019,2,2019,mid000,202.6414391298532,11,2019-04-23,2019-05-07,73,2019-07-19,2019-07-22,2019-08-05,Harvested at Maturity.,3.049333275357882,3.879999920260161,NA,7.5909524492564655,3.751499924622476,5.699999809265137,0.3520000111311674,1.2783333137631416,1.5459999902173878,6.019999901453654,2.342000016073386,3.049333275357882,3.879999920260161,NA,7.5909524492564655,3.751499924622476,5.699999809265137,0.3520000111311674,1.2783333137631416,1.5459999902173878,6.019999901453654,2.342000016073386,18.193333466847736,21.704999923706055,NA,20.583809625534784,22.196000075340272,19.329999923706055,27.576000213623047,21.15333366394043,26.829999732971192,26.260000228881836,19.733333396911622,18.09333349863688,18.84375,NA,23.760952222914923,26.021500015258788,28.959999084472656,31.06199951171875,28.706666628519695,30.33099994659424,33.856666564941406,27.87533327738444,11.990000061194102,12.860000029206276,NA,18.184761830738612,20.670499992370605,24.364999771118164,26.977999877929687,25.00666650136312,25.32549982070923,29.133333206176758,22.83333330154419,5.8866666237513225,6.876250058412552,NA,12.608571438562302,15.319499969482422,19.770000457763672,22.894000244140624,21.306666374206543,20.31999969482422,24.40999984741211,17.79133332570394,3.2155360348694524,4.0628581957742576,NA,8.098372793298658,9.995039613626703,13.445663334435366,15.340260052873946,14.228838973698618,14.47094890238722,15.823316637566473,12.052087939683597,3.2155360348694524,4.0628581957742576,NA,8.098372793298658,9.995039613626703,13.445663334435366,15.340260052873946,14.228838973698618,14.47094890238722,15.823316637566473,12.052087939683597,0,0,NA,170.0658286592718,369.9666209318058,383.4122842662411,460.1135845306108,545.4866183728025,690.1961073966747,737.6660573093741,737.6660573093741,0,0,NA,0.7369999930972145,0.9287500023841858,1,1,1,1,1,0.06666666666666667,1,1,NA,1,1,1,1,1,1,1,1,0.24176666816075643,0.33462499976158144,NA,0.7369999930972145,0.9287500023841858,1,1,1,1,1,0.9989666652679443,1,1,NA,1,1,1,1,1,1,0.9999999999999999,1,2019-04-23T12:00:00Z,2019-05-08T12:00:00Z,NA,2019-05-16T12:00:00Z,2019-06-06T12:00:00Z,2019-06-26T12:00:00Z,2019-06-27T12:00:00Z,2019-07-02T12:00:00Z,2019-07-08T12:00:00Z,2019-07-18T12:00:00Z,2019-07-21T12:00:00Z,2019-05-07T12:00:00Z,2019-05-15T12:00:00Z,NA,2019-06-05T12:00:00Z,2019-06-25T12:00:00Z,2019-06-26T12:00:00Z,2019-07-01T12:00:00Z,2019-07-07T12:00:00Z,2019-07-17T12:00:00Z,2019-07-20T12:00:00Z,2019-08-04T12:00:00Z,113,128,NA,136,157,177,178,183,189,199,202,14,7,0,20,19,0,4,5,9,2,14,127,135,NA,156,176,177,182,188,198,201,216
47,mead_ne,41.15785,-96.42075,-0.5,2019,2,2019,mid00,726.7257498800125,11,2019-04-23,2019-05-07,97,2019-08-12,2019-08-15,2019-08-29,Harvested at Maturity.,3.049333275357882,3.879999920260161,5.512222249164349,3.586153752958545,1.3806666551778715,NA,5.8300000205636024,1.2949999645352364,1.6700000079348682,10.180000305175781,3.147333301603794,3.049333275357882,3.879999920260161,5.512222249164349,3.586153752958545,1.3806666551778715,NA,5.8300000205636024,1.2949999645352364,1.6700000079348682,10.180000305175781,3.147333301603794,18.193333466847736,21.704999923706055,21.36916670534346,23.723846508906437,25.279999923706054,NA,22.241428783961705,19.103333314259846,20.290999698638917,19.84333324432373,17.212666861216228,18.09333349863688,18.84375,24.619166559643215,28.985384427584133,29.991999944051106,NA,28.1257141658238,28.718333562215168,30.571999931335448,29.520000457763672,27.34666659037272,11.990000061194102,12.860000029206276,19.131527721881866,24.446153787466198,25.3836664835612,NA,23.260714326586044,23.673333485921223,24.95349988937378,25.725000381469727,22.32999989191691,5.8866666237513225,6.876250058412552,13.643888884120518,19.90692314734826,20.77533302307129,NA,18.395714487348283,18.628333409627277,19.33499984741211,21.93000030517578,17.3133331934611,3.2155360348694524,4.0628581957742576,8.376641206014149,12.594277259942482,13.709364937039188,NA,11.906349591507281,13.57800769707756,14.578457480298281,15.688696117961406,11.335280069422721,3.2155360348694524,4.0628581957742576,8.376641206014149,12.594277259942482,13.709364937039188,NA,11.906349591507281,13.57800769707756,14.578457480298281,15.688696117961406,11.335280069422721,0,0,301.5590834165093,465.2846877957615,670.9251618513492,NA,754.2696089919002,835.7376551743655,981.5222299773484,1028.5883183312326,1028.5883183312326,0,0,0.8087916625870599,0.9950384653531588,1,NA,0.9977857112884522,1,1,1,0.06666666666666667,1,1,1,1,1,NA,1,1,1,1,1,0.24176666816075643,0.33462499976158144,0.8087916625870599,0.9950384653531588,1,NA,0.9977857112884522,1,1,1,0.9937666638692221,1,1,1,0.9999999999999999,0.9999999999999999,NA,1,1,1,1,1,2019-04-23T12:00:00Z,2019-05-08T12:00:00Z,2019-05-16T12:00:00Z,2019-06-21T12:00:00Z,2019-07-04T12:00:00Z,NA,2019-07-19T12:00:00Z,2019-07-26T12:00:00Z,2019-08-01T12:00:00Z,2019-08-11T12:00:00Z,2019-08-14T12:00:00Z,2019-05-07T12:00:00Z,2019-05-15T12:00:00Z,2019-06-20T12:00:00Z,2019-07-03T12:00:00Z,2019-07-18T12:00:00Z,NA,2019-07-25T12:00:00Z,2019-07-31T12:00:00Z,2019-08-10T12:00:00Z,2019-08-13T12:00:00Z,2019-08-28T12:00:00Z,113,128,136,172,185,NA,200,207,213,223,226,14,7,35,12,14,0,6,5,9,2,14,127,135,171,184,199,NA,206,212,222,225,240
48,mead_ne,41.15785,-96.42075,0.5,2019,2,2019,mid0,803.7687982458272,11,2019-04-23,2019-05-07,100,2019-08-15,2019-08-18,2019-09-01,Harvested at Maturity.,3.049333275357882,3.879999920260161,5.66000001384197,2.855714225742434,2.2459999738881984,23.020000457763672,0.07833333189288776,1.6628571131399699,4.3370000990107656,4.460000047460198,2.6313333010921878,3.049333275357882,3.879999920260161,5.66000001384197,2.855714225742434,2.2459999738881984,23.020000457763672,0.07833333189288776,1.6628571131399699,4.3370000990107656,4.460000047460198,2.6313333010921878,18.193333466847736,21.704999923706055,21.336756796450228,23.29714318684169,26.117999903361003,9.329999923706056,24.193333784739178,16.598571232387,21.15799970626831,18.006666819254555,17.17333345413208,18.09333349863688,18.84375,24.671891779512972,29.087856973920548,30.713999938964843,24.260000228881836,27.583333333333332,28.248571395874023,30.815000152587892,26.136666615804035,27.617999903361003,11.990000061194102,12.860000029206276,19.244324278187108,24.591785635266987,25.927666473388673,21.59000015258789,22.31250007947286,23.252857072012766,25.53900012969971,21.37499984105428,22.447999890645345,5.8866666237513225,6.876250058412552,13.816756776861242,20.09571429661342,21.1413330078125,18.920000076293945,17.041666825612385,18.257142748151505,20.263000106811525,16.613333066304524,17.277999877929688,3.2155360348694524,4.0628581957742576,7.873346744087989,11.810666958067785,13.025997893816118,10.476727767927866,11.409331543161056,12.790859519030349,15.141722409233141,11.37499984105428,11.12116711078167,3.2155360348694524,4.0628581957742576,7.873346744087989,11.810666958067785,13.025997893816118,10.476727767927866,11.409331543161056,12.790859519030349,15.141722409233141,11.37499984105428,11.12116711078167,0,0,291.3138295312556,456.6631669442046,652.0531353514465,662.5298631193743,730.9858523783407,820.5218690115531,971.9390931038846,1006.0640926270474,1006.0640926270474,0,0,0.8139594554901123,0.995392860685076,1,1,0.9974166631698609,1,1,0.9736666520436605,0.06666666666666667,1,1,1,1,1,1,1,1,1,1,1,0.24176666816075643,0.33462499976158144,0.8139594554901123,0.995392860685076,1,1,0.9974166631698609,1,1,0.9736666520436605,0.99903333346049,1,1,1,1,0.9999999999999999,1,1,0.9999999999999999,0.9999999999999999,0.9999999999999999,1,2019-04-23T12:00:00Z,2019-05-08T12:00:00Z,2019-05-16T12:00:00Z,2019-06-22T12:00:00Z,2019-07-06T12:00:00Z,2019-07-21T12:00:00Z,2019-07-22T12:00:00Z,2019-07-28T12:00:00Z,2019-08-04T12:00:00Z,2019-08-14T12:00:00Z,2019-08-17T12:00:00Z,2019-05-07T12:00:00Z,2019-05-15T12:00:00Z,2019-06-21T12:00:00Z,2019-07-05T12:00:00Z,2019-07-20T12:00:00Z,2019-07-21T12:00:00Z,2019-07-27T12:00:00Z,2019-08-03T12:00:00Z,2019-08-13T12:00:00Z,2019-08-16T12:00:00Z,2019-08-31T12:00:00Z,113,128,136,173,187,202,203,209,216,226,229,14,7,36,13,14,0,5,6,9,2,14,127,135,172,186,201,202,208,215,225,228,243
49,mead_ne,41.15785,-96.42075,1.5,2019,2,2019,mid1,1055.9092100188154,11,2019-04-23,2019-05-07,113,2019-08-28,2019-09-01,2019-09-15,Harvested at Maturity.,3.049333275357882,3.879999920260161,5.717619041335725,0.971874991664663,3.0873684165509125,1.4199999570846558,1.4199999884391825,6.216666851192713,3.6284615019193063,1.2325000334531069,1.9060000033428273,3.049333275357882,3.879999920260161,5.717619041335725,0.971874991664663,3.0873684165509125,1.4199999570846558,1.4199999884391825,6.216666851192713,3.6284615019193063,1.2325000334531069,1.9060000033428273,18.193333466847736,21.704999923706055,21.321666751589095,25.25000011920929,22.510526355944183,20.15999984741211,20.598333199818928,19.78166627883911,16.47384632550753,21.27500009536743,16.68000011444092,18.09333349863688,18.84375,24.96119038263957,29.632499933242798,29.45684202093827,28.90999984741211,30.56166648864746,30.333333651224773,27.41846143282377,27.81500005722046,29.197999827067058,11.990000061194102,12.860000029206276,19.51559519200098,25.392812371253967,24.537631561881618,23.739999771118164,24.7558331489563,25.739166895548504,22.681538325089672,21.43250000476837,23.08533322016398,5.8866666237513225,6.876250058412552,14.070000001362391,21.153124809265137,19.618421102824964,18.56999969482422,18.949999809265137,21.145000139872234,17.944615217355583,15.049999952316284,16.972666613260905,3.2155360348694524,4.0628581957742576,7.261964274457878,11.41429014468854,11.592216447925741,12.524729658737632,13.466001233343489,15.358656759690017,12.412246228080528,11.217545853726566,12.13979836401542,3.2155360348694524,4.0628581957742576,7.261964274457878,11.41429014468854,11.592216447925741,12.524729658737632,13.466001233343489,15.358656759690017,12.412246228080528,11.217545853726566,12.13979836401542,0,0,305.00249952723084,487.6311418422475,707.8832543528365,720.4079840115742,801.2039914116351,893.3559319697752,1054.715132934822,1099.585316349728,1099.585316349728,0,0,0.8345714262553624,1,0.9991842094220613,1,1,1,0.993923073548537,0.9963750004768372,0.06666666666666667,1,1,1,1,1,1,1,1,1,1,1,0.24176666816075643,0.33462499976158144,0.8345714262553624,1,0.9991842094220613,1,1,1,0.993923073548537,0.9963750004768372,0.9995333353678385,1,1,1,0.9999999999999999,0.9999999999999999,1,0.9999999999999999,1,1,0.9999999999999999,1,2019-04-23T12:00:00Z,2019-05-08T12:00:00Z,2019-05-16T12:00:00Z,2019-06-27T12:00:00Z,2019-07-13T12:00:00Z,2019-08-01T12:00:00Z,2019-08-02T12:00:00Z,2019-08-08T12:00:00Z,2019-08-14T12:00:00Z,2019-08-27T12:00:00Z,2019-08-31T12:00:00Z,2019-05-07T12:00:00Z,2019-05-15T12:00:00Z,2019-06-26T12:00:00Z,2019-07-12T12:00:00Z,2019-07-31T12:00:00Z,2019-08-01T12:00:00Z,2019-08-07T12:00:00Z,2019-08-13T12:00:00Z,2019-08-26T12:00:00Z,2019-08-30T12:00:00Z,2019-09-14T12:00:00Z,113,128,136,178,194,213,214,220,226,239,243,14,7,41,15,18,0,5,5,12,3,14,127,135,177,193,212,213,219,225,238,242,257
50,mead_ne,41.15785,-96.42075,2.5,2019,2,2019,mid2,1243.0594591626268,11,2019-04-23,2019-05-07,123,2019-09-07,2019-09-11,2019-09-25,Harvested at Maturity.,3.049333275357882,3.879999920260161,5.258043473748409,1.3277777663121622,2.7885714199039198,0.17000000178813934,8.250000203338763,3.218571358759488,1.312857145842697,4.340000033378601,5.191999993473291,3.049333275357882,3.879999920260161,5.258043473748409,1.3277777663121622,2.7885714199039198,0.17000000178813934,8.250000203338763,3.218571358759488,1.312857145842697,4.340000033378601,5.191999993473291,18.193333466847736,21.704999923706055,21.953478346700255,24.835555606418186,20.79095236460368,21.3799991607666,17.99166663487752,17.91857147216797,17.75785722051348,12.477499961853027,17.492666880289715,18.09333349863688,18.84375,25.504565093828283,29.987222141689724,29.171904700142996,31.270000457763672,28.24500020345052,29.18857138497489,28.00642830984933,28.645000457763672,29.770666376749674,11.990000061194102,12.860000029206276,20.181521690410115,25.49666648440891,23.944047587258474,25.315000534057617,24.010833501815796,24.081428391592844,22.036785534449987,23.042500257492065,24.254666582743326,5.8866666237513225,6.876250058412552,14.858478286991948,21.006110827128094,18.716190474373953,19.360000610351563,19.776666800181072,18.9742853982108,16.067142759050643,17.44000005722046,18.738666788736978,3.2155360348694524,4.0628581957742576,6.618791437173747,10.133623512136749,10.932940032764,13.539570980609554,13.126872896796002,13.531122380336427,11.741995922190801,13.042500257492065,12.714163417033355,3.2155360348694524,4.0628581957742576,6.618791437173747,10.133623512136749,10.932940032764,13.539570980609554,13.126872896796002,13.531122380336427,11.741995922190801,13.042500257492065,12.714163417033355,0,0,304.46440610999235,486.8696293284539,716.4613700164979,730.0009409971075,808.7621783778836,903.4800350402386,1067.86797795091,1120.0379789808785,1120.0379789808785,0,0,0.8489565196244613,1,0.9992619037628174,1,0.9868333260218303,1,0.9989642858505249,1,0.06666666666666667,1,1,1,1,1,1,1,1,1,1,1,0.24176666816075643,0.33462499976158144,0.8489565196244613,1,0.9992619037628174,1,0.9868333260218303,1,0.9989642858505249,1,0.9931666628519694,1,1,1,1,0.9999999999999999,1,0.9999999999999998,1,0.9999999999999999,1,1,2019-04-23T12:00:00Z,2019-05-08T12:00:00Z,2019-05-16T12:00:00Z,2019-07-01T12:00:00Z,2019-07-19T12:00:00Z,2019-08-09T12:00:00Z,2019-08-10T12:00:00Z,2019-08-16T12:00:00Z,2019-08-23T12:00:00Z,2019-09-06T12:00:00Z,2019-09-10T12:00:00Z,2019-05-07T12:00:00Z,2019-05-15T12:00:00Z,2019-06-30T12:00:00Z,2019-07-18T12:00:00Z,2019-08-08T12:00:00Z,2019-08-09T12:00:00Z,2019-08-15T12:00:00Z,2019-08-22T12:00:00Z,2019-09-05T12:00:00Z,2019-09-09T12:00:00Z,2019-09-24T12:00:00Z,113,128,136,182,200,221,222,228,235,249,253,14,7,45,17,20,0,5,6,13,3,14,127,135,181,199,220,221,227,234,248,252,267
51,mead_ne,41.15785,-96.42075,-1.5,2020,2,2020,mid000,197.6008066317114,11,2020-05-08,2020-05-22,59,2020-07-20,2020-07-23,2020-08-06,Harvested at Maturity.,2.343333359931906,11.232500195503235,NA,1.4999999773616974,3.4364706304143455,2.569999933242798,6.447999956086278,0.13833333272486925,2.443636354228312,10.969999750455221,2.1166666292895875,2.343333359931906,11.232500195503235,NA,1.4999999773616974,3.4364706304143455,2.569999933242798,6.447999956086278,0.13833333272486925,2.443636354228312,10.969999750455221,2.1166666292895875,16.903999932607015,12.970000267028809,NA,25.66692304611206,25.87823503157672,21.75,21.120000076293945,26.55500030517578,26.0263634595004,23.6233336130778,22.368666712443034,19.739999961853027,24.067500114440918,NA,29.374615155733547,30.444705963134766,33.900001525878906,30.562000274658203,31.93333339691162,32.82090932672674,29.356667200724285,29.633333460489908,13.888000003496806,19.735000014305115,NA,23.61307690693782,23.800294202916763,27.860000610351563,26.63000030517578,26.769166628519695,26.357272798364814,25.076667149861652,24.08800007502238,8.036000045140584,15.402499914169312,NA,17.85153865814209,17.155882442698758,21.81999969482422,22.698000335693358,21.604999860127766,19.893636270002887,20.796667098999023,18.54266668955485,4.877250033733448,9.735000014305115,NA,11.900193257779476,12.13348493221028,14.09308466732112,15.183428575623836,14.87816517433479,13.815722591913298,14.62467974797727,12.748349546057383,4.877250033733448,9.735000014305115,NA,11.900193257779476,12.13348493221028,14.09308466732112,15.183428575623836,14.87816517433479,13.815722591913298,14.62467974797727,12.748349546057383,0,0,NA,154.70251235113318,360.971756198708,375.0648408660291,450.98198374414824,540.250974790157,692.2239233012031,736.0979625451348,736.0979625451348,0,0,NA,0.935807701257559,0.9954705855425666,1,1,1,0.9904090968045322,1,0.06666666666666667,1,1,NA,1,1,1,1,1,1,1,1,0.43416666984558105,0.906374990940094,NA,0.935807701257559,0.9954705855425666,1,1,1,0.9904090968045322,1,0.995233325958252,1,1,NA,1,1,1,1,1,0.9999999999999999,0.9999999999999999,1,2020-05-08T12:00:00Z,2020-05-23T12:00:00Z,NA,2020-05-27T12:00:00Z,2020-06-09T12:00:00Z,2020-06-26T12:00:00Z,2020-06-27T12:00:00Z,2020-07-02T12:00:00Z,2020-07-08T12:00:00Z,2020-07-19T12:00:00Z,2020-07-22T12:00:00Z,2020-05-22T12:00:00Z,2020-05-26T12:00:00Z,NA,2020-06-08T12:00:00Z,2020-06-25T12:00:00Z,2020-06-26T12:00:00Z,2020-07-01T12:00:00Z,2020-07-07T12:00:00Z,2020-07-18T12:00:00Z,2020-07-21T12:00:00Z,2020-08-05T12:00:00Z,129,144,NA,148,161,178,179,184,190,201,204,14,3,0,12,16,0,4,5,10,2,14,143,147,NA,160,177,178,183,189,200,203,218
52,mead_ne,41.15785,-96.42075,-0.5,2020,2,2020,mid00,760.2300136866523,11,2020-05-08,2020-05-22,82,2020-08-12,2020-08-15,2020-08-29,Harvested at Maturity.,2.343333359931906,11.232500195503235,2.6884615606126876,3.6166666294448078,1.8093333266675473,0.1899999976158142,6.591999850049615,3.873333220370114,1.501818192784082,0.016666666294137635,0.6720000199973583,2.343333359931906,11.232500195503235,2.6884615606126876,3.6166666294448078,1.8093333266675473,0.1899999976158142,6.591999850049615,3.873333220370114,1.501818192784082,0.016666666294137635,0.6720000199973583,16.903999932607015,12.970000267028809,25.516538271537193,23.952500025431316,26.3806666692098,24.84000015258789,22.9620002746582,21.49833329518636,21.657272685657848,22.143333435058594,22.45799992879232,19.739999961853027,24.067500114440918,30.0388461626493,30.515833377838135,32.77133356730143,32.150001525878906,29.404000091552735,31.238333702087402,29.851817737926137,32.35333251953125,34.093333053588864,13.888000003496806,19.735000014305115,23.885961642632118,25.28333334128062,26.579666741689046,27.63000106811523,24.613000297546385,26.21166690190633,23.81227237528021,26.333332697550457,26.488333161671957,8.036000045140584,15.402499914169312,17.733077122614933,20.050833304723103,20.387999916076662,23.110000610351563,19.82200050354004,21.18500010172526,17.772727012634277,20.31333287556966,18.883333269755045,4.877250033733448,9.735000014305115,11.48317244834066,13.048935630985214,13.418488420411204,15.630902671320202,13.818085821642493,15.104123747838406,13.09460057649829,15.097940230123202,12.349104986497561,4.877250033733448,9.735000014305115,11.48317244834066,13.048935630985214,13.418488420411204,15.630902671320202,13.818085821642493,15.104123747838406,13.09460057649829,15.097940230123202,12.349104986497561,0,0,298.5624836568572,455.1497112286797,656.4270375348476,672.0579402061678,741.1483693143803,831.7731118014107,975.8137181428918,1021.1075388332614,1021.1075388332614,0,0,0.9649423104066115,1,0.9929666709899903,1,1,1,0.9934999899430709,1,0.06666666666666667,1,1,1,1,1,1,1,1,1,1,1,0.43416666984558105,0.906374990940094,0.9649423104066115,1,0.9929666709899903,1,1,1,0.9934999899430709,1,1,1,1,1,1,1,1,0.9999999999999999,0.9999999999999999,0.9999999999999999,1,1,2020-05-08T12:00:00Z,2020-05-23T12:00:00Z,2020-05-27T12:00:00Z,2020-06-22T12:00:00Z,2020-07-04T12:00:00Z,2020-07-19T12:00:00Z,2020-07-20T12:00:00Z,2020-07-25T12:00:00Z,2020-07-31T12:00:00Z,2020-08-11T12:00:00Z,2020-08-14T12:00:00Z,2020-05-22T12:00:00Z,2020-05-26T12:00:00Z,2020-06-21T12:00:00Z,2020-07-03T12:00:00Z,2020-07-18T12:00:00Z,2020-07-19T12:00:00Z,2020-07-24T12:00:00Z,2020-07-30T12:00:00Z,2020-08-10T12:00:00Z,2020-08-13T12:00:00Z,2020-08-28T12:00:00Z,129,144,148,174,186,201,202,207,213,224,227,14,3,25,11,14,0,4,5,10,2,14,143,147,173,185,200,201,206,212,223,226,241
53,mead_ne,41.15785,-96.42075,0.5,2020,2,2020,mid0,800.0817239718593,11,2020-05-08,2020-05-22,85,2020-08-15,2020-08-17,2020-08-31,Harvested at Maturity.,2.343333359931906,11.232500195503235,2.7922222350758537,2.9169230601535396,3.752499946975149,NA,2.2399999294430017,2.2933332969745,1.1681818254292011,0.375,0.6220000199973582,2.343333359931906,11.232500195503235,2.7922222350758537,2.9169230601535396,3.752499946975149,NA,2.2399999294430017,2.2933332969745,1.1681818254292011,0.375,0.6220000199973582,16.903999932607015,12.970000267028809,25.460740566253662,24.466153951791618,25.746249973773956,NA,22.285000165303547,22.040000279744465,21.49818160317161,21.729999542236328,22.421333440144856,19.739999961853027,24.067500114440918,29.962222205268013,30.93076940683218,32.235000252723694,NA,31.423333803812664,29.255000114440918,30.899090160023082,32.364999771118164,33.76066640218099,13.888000003496806,19.735000014305115,23.850370442425763,25.701538562774658,26.26750013232231,NA,26.349167029062908,23.72250000635783,24.839999502355404,25.587499856948853,26.191333198547362,8.036000045140584,15.402499914169312,17.738518679583514,20.472307718717136,20.30000001192093,NA,21.275000254313152,18.18999989827474,18.780908844687723,18.80999994277954,18.621999994913736,4.877250033733448,9.735000014305115,10.624891006540645,12.367422948519291,12.573835103725667,NA,14.133893753164342,13.142961412473847,13.778203291382104,14.42220008340478,12.334631948385239,4.877250033733448,9.735000014305115,10.624891006540645,12.367422948519291,12.573835103725667,NA,14.133893753164342,13.142961412473847,13.778203291382104,14.42220008340478,12.334631948385239,0,0,286.8720571765975,447.6485555073483,648.8299171669589,NA,733.633279685945,812.4910481607881,964.0512843659913,992.8956845328008,992.8956845328008,0,0,0.9662407433545148,1,0.9934062540531159,NA,1,1,0.9934999899430709,1,0.06666666666666667,1,1,1,1,1,NA,1,1,1,1,1,0.43416666984558105,0.906374990940094,0.9662407433545148,1,0.9934062540531159,NA,1,1,0.9934999899430709,1,1,1,1,1,1,1,NA,0.9999999999999999,1,1,0.9999999999999998,1,2020-05-08T12:00:00Z,2020-05-23T12:00:00Z,2020-05-27T12:00:00Z,2020-06-23T12:00:00Z,2020-07-06T12:00:00Z,NA,2020-07-22T12:00:00Z,2020-07-28T12:00:00Z,2020-08-03T12:00:00Z,2020-08-14T12:00:00Z,2020-08-16T12:00:00Z,2020-05-22T12:00:00Z,2020-05-26T12:00:00Z,2020-06-22T12:00:00Z,2020-07-05T12:00:00Z,2020-07-21T12:00:00Z,NA,2020-07-27T12:00:00Z,2020-08-02T12:00:00Z,2020-08-13T12:00:00Z,2020-08-15T12:00:00Z,2020-08-30T12:00:00Z,129,144,148,175,188,NA,204,210,216,227,229,14,3,26,12,15,0,5,5,10,1,14,143,147,174,187,203,NA,209,215,226,228,243
54,mead_ne,41.15785,-96.42075,1.5,2020,2,2020,mid1,1117.668567264256,11,2020-05-08,2020-05-22,97,2020-08-27,2020-08-31,2020-09-14,Harvested at Maturity.,2.343333359931906,11.232500195503235,2.6953125182772055,2.8753332828481994,3.7472221539873214,0.20000000298023224,1.6328571617071117,0.8233333307628831,0.8400000249966978,0,3.6746667365233106,2.343333359931906,11.232500195503235,2.6953125182772055,2.8753332828481994,3.7472221539873214,0.20000000298023224,1.6328571617071117,0.8233333307628831,0.8400000249966978,0,3.6746667365233106,16.903999932607015,12.970000267028809,25.646874859929085,25.32333335876465,23.036666711171467,24.520000457763672,21.348571368626185,21.78333330154419,22.4958332379659,22.572500228881836,16.364000209172566,19.739999961853027,24.067500114440918,30.072499990463257,31.868000157674153,31.390555911593967,28.489999771118164,28.512856892177037,32.89166577657064,33.41416629155477,34.917500019073486,25.638666534423827,13.888000003496806,19.735000014305115,23.904531314969063,26.62433344523112,25.932500229941475,22.84999942779541,22.284285477229528,27.01583274205526,25.8104164203008,27.755000114440918,19.281666564941407,8.036000045140584,15.402499914169312,17.73656263947487,21.380666732788086,20.474444548288982,17.209999084472656,16.055714062282018,21.139999707539875,18.206666549046833,20.59250020980835,12.924666595458984,4.877250033733448,9.735000014305115,9.556808370692554,11.744885396962454,12.271002258247062,11.713447716817043,11.55143682637449,15.066373154736292,13.432010929213961,13.303024426349996,7.773171309547225,4.877250033733448,9.735000014305115,9.556808370692554,11.744885396962454,12.271002258247062,11.713447716817043,11.55143682637449,15.066373154736292,13.432010929213961,13.303024426349996,7.773171309547225,0,0,305.8178678621618,481.9911488165986,702.8691894650456,714.5826371818627,795.4426949664839,885.8409338949016,1047.025065045469,1100.2371627508692,1100.2371627508692,0,0,0.9715156272053719,1,0.9941388924916585,1,0.9897856984819685,1,1,1,0.06666666666666667,1,1,1,1,1,1,1,1,1,1,1,0.43416666984558105,0.906374990940094,0.9715156272053719,1,0.9941388924916585,1,0.9897856984819685,1,1,1,0.7360333251953125,1,1,1,0.9999999999999999,0.9999999999999999,1,1,1,1,0.9999999999999999,1,2020-05-08T12:00:00Z,2020-05-23T12:00:00Z,2020-05-27T12:00:00Z,2020-06-28T12:00:00Z,2020-07-13T12:00:00Z,2020-07-31T12:00:00Z,2020-08-01T12:00:00Z,2020-08-08T12:00:00Z,2020-08-14T12:00:00Z,2020-08-26T12:00:00Z,2020-08-30T12:00:00Z,2020-05-22T12:00:00Z,2020-05-26T12:00:00Z,2020-06-27T12:00:00Z,2020-07-12T12:00:00Z,2020-07-30T12:00:00Z,2020-07-31T12:00:00Z,2020-08-07T12:00:00Z,2020-08-13T12:00:00Z,2020-08-25T12:00:00Z,2020-08-29T12:00:00Z,2020-09-13T12:00:00Z,129,144,148,180,195,213,214,221,227,239,243,14,3,31,14,17,0,6,5,11,3,14,143,147,179,194,212,213,220,226,238,242,257
55,mead_ne,41.15785,-96.42075,2.5,2020,2,2020,mid2,1397.7832525086271,11,2020-05-08,2020-05-22,107,2020-09-06,2020-09-13,2020-09-27,Harvested at Maturity.,2.343333359931906,11.232500195503235,2.9368571587439094,1.991578919518935,3.50249993680045,1.4299999475479126,0.3400000014031927,1.3328571857086247,0.2507692277431488,7.39000015599387,0.008666666348775227,2.343333359931906,11.232500195503235,2.9368571587439094,1.991578919518935,3.50249993680045,1.4299999475479126,0.3400000014031927,1.3328571857086247,0.2507692277431488,7.39000015599387,0.008666666348775227,16.903999932607015,12.970000267028809,24.990857001713344,26.143684236626875,21.61850004196167,25.940000534057617,22.268333117167156,22.492856979370117,22.47000034038837,11.317142929349627,16.176000150044757,19.739999961853027,24.067500114440918,30.191714314052035,32.32684235823782,29.79749994277954,34.91999816894531,32.289999643961586,32.174285071236746,33.01307692894569,22.084285736083984,27.52466646830241,13.888000003496806,19.735000014305115,24.177571528298515,26.555000079305547,24.359500002861022,28.999999046325684,26.042499621709187,24.60785675048828,25.56538464472844,16.974285670689174,19.80366651217143,8.036000045140584,15.402499914169312,18.16342874254499,20.783157800373278,18.921500062942506,23.079999923706055,19.794999599456787,17.041428429739817,18.117692360511192,11.864285605294365,12.082666556040445,4.877250033733448,9.735000014305115,8.361487681453303,10.09024056668357,11.292103882339834,13.759141905787324,14.214762057871374,13.358498341817768,12.665914950203895,8.112857059180737,9.196644988677104,4.877250033733448,9.735000014305115,8.361487681453303,10.09024056668357,11.292103882339834,13.759141905787324,14.214762057871374,13.358498341817768,12.665914950203895,8.112857059180737,9.196644988677104,0,0,292.65206885086553,484.3666396178533,710.2087172646501,723.9678591704375,809.2564315176658,902.7659199103902,1067.422814263041,1124.2128136773065,1124.2128136773065,0,0,0.9739571448734828,0.9944473718342028,0.9964249944686889,1,1,1,1,0.500499997820173,0.042499996821085614,1,1,1,1,1,1,1,1,1,1,1,0.43416666984558105,0.906374990940094,0.9739571448734828,0.9944473718342028,0.9964249944686889,1,1,1,1,0.500499997820173,0.8851333252588908,1,1,1,0.9999999999999999,1,1,0.9999999999999999,1,1,0.9999999999999999,1,2020-05-08T12:00:00Z,2020-05-23T12:00:00Z,2020-05-27T12:00:00Z,2020-07-01T12:00:00Z,2020-07-20T12:00:00Z,2020-08-09T12:00:00Z,2020-08-10T12:00:00Z,2020-08-16T12:00:00Z,2020-08-23T12:00:00Z,2020-09-05T12:00:00Z,2020-09-12T12:00:00Z,2020-05-22T12:00:00Z,2020-05-26T12:00:00Z,2020-06-30T12:00:00Z,2020-07-19T12:00:00Z,2020-08-08T12:00:00Z,2020-08-09T12:00:00Z,2020-08-15T12:00:00Z,2020-08-22T12:00:00Z,2020-09-04T12:00:00Z,2020-09-11T12:00:00Z,2020-09-26T12:00:00Z,129,144,148,183,202,222,223,229,236,249,256,14,3,34,18,19,0,5,6,12,6,14,143,147,182,201,221,222,228,235,248,255,270
56,mead_ne,41.15785,-96.42075,-1.5,2021,2,2021,mid000,203.3187204229411,11,2021-03-25,2021-04-08,92,2021-07-09,2021-07-12,2021-07-26,Harvested at Maturity.,2.4993333963056403,0.5249999912662638,NA,2.308846140352006,2.7755000947974624,0,0.14666666959722838,8.65857139655522,1.5558333462104201,11.526666820049286,1.3006666572143635,2.4993333963056403,0.5249999912662638,NA,2.308846140352006,2.7755000947974624,0,0.14666666959722838,8.65857139655522,1.5558333462104201,11.526666820049286,1.3006666572143635,17.35600004196167,20.801111274295383,NA,19.46153846153846,22.554500102996826,30.239999771118164,27.428332964579266,23.774285997663224,23.347499926884968,20.293333689371746,22.038000043233236,16.8619997660319,14.454444355434841,NA,21.705769355480488,27.462000131607056,30.559999465942383,35.39000002543131,31.74285670689174,30.53583288192749,31.509999593098957,31.095333353678384,10.20166653196017,8.182499956753519,NA,15.733846196761498,21.216250038146974,22.87499952316284,27.716666857401528,25.23928533281599,24.790416320164997,25.06833330790202,24.959000047047933,3.5413332978884378,1.910555558072196,NA,9.761923038042509,14.970499944686889,15.1899995803833,20.043333689371746,18.735713958740234,19.044999758402508,18.626667022705078,18.822666740417482,3.0645623566328672,1.8263420026100758,NA,6.30375950614562,10.290414636126423,12.030251436890108,12.56126191475677,12.826064763008075,13.09183065159748,12.908538748399833,12.93498556414922,3.0645623566328672,1.8263420026100758,NA,6.30375950614562,10.290414636126423,12.030251436890108,12.56126191475677,12.826064763008075,13.09183065159748,12.908538748399833,12.93498556414922,0,0,NA,163.89774715978606,369.7060398823146,381.7362913192047,457.1038628077454,546.8863161488018,703.9882839679715,742.7139002131711,742.7139002131711,0,0,NA,0.5457884623454168,0.8443250012397766,1,0.9909166653951009,1,1,1,0.06666666666666667,1,1,NA,1,1,1,1,1,1,1,1,0.2468666577835878,0.0956111126475864,NA,0.5457884623454168,0.8443250012397766,1,0.9909166653951009,1,1,1,1,1,1,NA,1,1,0.9999999999999998,0.9999999999999999,1,1,1,1,2021-03-25T12:00:00Z,2021-04-09T12:00:00Z,NA,2021-04-27T12:00:00Z,2021-05-23T12:00:00Z,2021-06-12T12:00:00Z,2021-06-13T12:00:00Z,2021-06-19T12:00:00Z,2021-06-26T12:00:00Z,2021-07-08T12:00:00Z,2021-07-11T12:00:00Z,2021-04-08T12:00:00Z,2021-04-26T12:00:00Z,NA,2021-05-22T12:00:00Z,2021-06-11T12:00:00Z,2021-06-12T12:00:00Z,2021-06-18T12:00:00Z,2021-06-25T12:00:00Z,2021-07-07T12:00:00Z,2021-07-10T12:00:00Z,2021-07-25T12:00:00Z,84,99,NA,117,143,163,164,170,177,189,192,14,17,0,25,19,0,5,6,11,2,14,98,116,NA,142,162,163,169,176,188,191,206
57,mead_ne,41.15785,-96.42075,-0.5,2021,2,2021,mid00,763.2899248894096,11,2021-03-25,2021-04-08,116,2021-08-02,2021-08-05,2021-08-19,Harvested at Maturity.,2.4993333963056403,0.5249999912662638,2.181428586177173,2.510769296724063,4.149374989094213,5.050000190734863,6.997142915214811,0.8249999852851033,2.1627272966910494,0,1.8353333206226428,2.4993333963056403,0.5249999912662638,2.181428586177173,2.510769296724063,4.149374989094213,5.050000190734863,6.997142915214811,0.8249999852851033,2.1627272966910494,0,1.8353333206226428,17.35600004196167,20.801111274295383,20.471904800051735,26.616922965416542,23.541875064373016,15.979999542236328,21.872857366289413,20.94333330790202,22.780000166459516,24.496666590372723,22.44999993642171,16.8619997660319,14.454444355434841,23.384761991954985,34.00923068706806,30.788124680519104,28.229999542236328,30.78285707746233,29.304999987284344,34.936363740400836,29.123332977294922,34.021999994913735,10.20166653196017,8.182499956753519,17.315714296840486,26.84653850702139,24.832812190055847,23.149999618530273,24.323571477617538,23.728333393732708,28.175454659895465,22.15333318710327,26.954000155131023,3.5413332978884378,1.910555558072196,11.246666601725988,19.683846326974724,18.87749969959259,18.06999969482422,17.86428587777274,18.151666800181072,21.414545579390094,15.183333396911621,19.88600031534831,3.0645623566328672,1.8263420026100758,7.24339585887524,12.299755327827697,12.27862908014491,11.912388024106267,12.055553130854632,12.844511518453917,13.64520035993728,12.15625306982994,13.09635708782196,3.0645623566328672,1.8263420026100758,7.24339585887524,12.299755327827697,12.27862908014491,11.912388024106267,12.055553130854632,12.844511518453917,13.64520035993728,12.15625306982994,13.09635708782196,0,0,304.2226260727601,464.11944533452015,660.5775106168388,672.4898986409451,756.8787705569275,833.9458396676511,984.0430436269612,1020.5118028364508,1020.5118028364508,0,0,0.6446904772803898,0.9958076917208158,1,1,1,1,0.9759999968788841,1,0.06666666666666667,1,1,1,1,1,1,1,1,1,1,1,0.2468666577835878,0.0956111126475864,0.6446904772803898,0.9958076917208158,1,1,1,1,0.9759999968788841,1,1,1,1,1,1,1,1,1,1,0.9999999999999999,0.9999999999999999,1,2021-03-25T12:00:00Z,2021-04-09T12:00:00Z,2021-04-27T12:00:00Z,2021-06-08T12:00:00Z,2021-06-21T12:00:00Z,2021-07-07T12:00:00Z,2021-07-08T12:00:00Z,2021-07-15T12:00:00Z,2021-07-21T12:00:00Z,2021-08-01T12:00:00Z,2021-08-04T12:00:00Z,2021-04-08T12:00:00Z,2021-04-26T12:00:00Z,2021-06-07T12:00:00Z,2021-06-20T12:00:00Z,2021-07-06T12:00:00Z,2021-07-07T12:00:00Z,2021-07-14T12:00:00Z,2021-07-20T12:00:00Z,2021-07-31T12:00:00Z,2021-08-03T12:00:00Z,2021-08-18T12:00:00Z,84,99,117,159,172,188,189,196,202,213,216,14,17,41,12,15,0,6,5,10,2,14,98,116,158,171,187,188,195,201,212,215,230
58,mead_ne,41.15785,-96.42075,0.5,2021,2,2021,mid0,814.4352189028018,11,2021-03-25,2021-04-08,120,2021-08-06,2021-08-08,2021-08-22,Harvested at Maturity.,2.4993333963056403,0.5249999912662638,2.181428586177173,2.26400006065766,4.820588260231649,22.75,2.7528571228363683,0.01333333303531011,2.050833354704082,0.5949999913573265,2.174666641280055,2.4993333963056403,0.5249999912662638,2.181428586177173,2.26400006065766,4.820588260231649,22.75,2.7528571228363683,0.01333333303531011,2.050833354704082,0.5949999913573265,2.174666641280055,17.35600004196167,20.801111274295383,20.471904800051735,26.325999959309897,23.126470621894388,11.510000228881836,20.89000007084438,24.268333435058594,22.68500010172526,20.710000038146973,22.41999994913737,16.8619997660319,14.454444355434841,23.384761991954985,33.4066665649414,31.109999600578757,27.520000457763672,29.397142955235072,32.09333324432373,33.3608333269755,34.44499969482422,33.791333516438804,10.20166653196017,8.182499956753519,17.315714296840486,26.232333342234295,25.174705561469583,23.230000495910645,23.33928578240531,25.824166615804035,26.575000087420147,27.40750026702881,26.889000129699706,3.5413332978884378,1.910555558072196,11.246666601725988,19.058000119527183,19.23941152236041,18.940000534057617,17.281428609575546,19.554999987284344,19.789166847864788,20.3700008392334,19.98666674296061,3.0645623566328672,1.8263420026100758,6.884547399905203,11.102726284028991,11.580746700091924,11.27936620542365,11.159031540492629,12.936438515020741,12.727837342301537,14.231144494926115,13.067141193915209,3.0645623566328672,1.8263420026100758,6.884547399905203,11.102726284028991,11.580746700091924,11.27936620542365,11.159031540492629,12.936438515020741,12.727837342301537,14.231144494926115,13.067141193915209,0,0,289.1509907960185,455.6918850564534,652.5645789580161,663.8439451634398,741.9571659468884,819.5757970370128,972.3098451446313,1000.7721341344836,1000.7721341344836,0,0,0.6446904772803898,0.9963666661580404,1,1,1,1,0.977999997138977,1,0.06666666666666667,1,1,1,1,1,1,1,1,1,1,1,0.2468666577835878,0.0956111126475864,0.6446904772803898,0.9963666661580404,1,1,1,1,0.977999997138977,1,1,1,1,1,1,0.9999999999999999,1,1,1,1,0.9999999999999999,1,2021-03-25T12:00:00Z,2021-04-09T12:00:00Z,2021-04-27T12:00:00Z,2021-06-08T12:00:00Z,2021-06-23T12:00:00Z,2021-07-10T12:00:00Z,2021-07-11T12:00:00Z,2021-07-18T12:00:00Z,2021-07-24T12:00:00Z,2021-08-05T12:00:00Z,2021-08-07T12:00:00Z,2021-04-08T12:00:00Z,2021-04-26T12:00:00Z,2021-06-07T12:00:00Z,2021-06-22T12:00:00Z,2021-07-09T12:00:00Z,2021-07-10T12:00:00Z,2021-07-17T12:00:00Z,2021-07-23T12:00:00Z,2021-08-04T12:00:00Z,2021-08-06T12:00:00Z,2021-08-21T12:00:00Z,84,99,117,159,174,191,192,199,205,217,219,14,17,41,14,16,0,6,5,11,1,14,98,116,158,173,190,191,198,204,216,218,233
59,mead_ne,41.15785,-96.42075,1.5,2021,2,2021,mid1,1153.2722201020706,11,2021-03-25,2021-04-08,132,2021-08-18,2021-08-21,2021-09-04,Harvested at Maturity.,2.4993333963056403,0.5249999912662638,2.5117391640239437,4.046666650929385,2.916666692832396,0,0.07000000189457621,3.4457143204552785,2.225833318041017,0.46333332856496173,7.088000011692444,2.4993333963056403,0.5249999912662638,2.5117391640239437,4.046666650929385,2.916666692832396,0,0.07000000189457621,3.4457143204552785,2.225833318041017,0.46333332856496173,7.088000011692444,17.35600004196167,20.801111274295383,20.806304392607316,24.356666617923313,22.940476235889253,22.75,24.337142944335938,21.865714481898717,22.254166682561237,23.03999964396159,18.562000052134195,16.8619997660319,14.454444355434841,24.208478388578996,32.076110945807564,30.736666361490887,31.469999313354492,35.7000002179827,31.502856935773575,34.287500063578285,34.12333297729492,32.02200012207031,10.20166653196017,8.182499956753519,18.11750004084214,25.473611010445488,24.640237921760196,25.559999465942383,28.497143064226425,24.964285646166122,27.1529168287913,27.554999987284344,26.19000005722046,3.5413332978884378,1.910555558072196,12.026521693105282,18.871111075083416,18.543809482029506,19.649999618530273,21.294285910470144,18.425714356558665,20.018333594004314,20.986666997273762,20.357999992370605,3.0645623566328672,1.8263420026100758,6.759250267166789,9.808225482442355,10.607340409110463,12.474157571137916,11.801011538226721,11.920107596941948,13.712653473227448,14.621964361170928,12.273323331782818,3.0645623566328672,1.8263420026100758,6.759250267166789,9.808225482442355,10.607340409110463,12.474157571137916,11.801011538226721,11.920107596941948,13.712653473227448,14.621964361170928,12.273323331782818,0,0,310.9255122896723,487.4735709736347,710.2277195649547,722.7018771360925,805.3089579036796,888.7497110822732,1053.3015527610023,1097.1674458445152,1097.1674458445152,0,0,0.6755869575168776,0.996972221798367,1,1,0.9867142677307129,0.9755714416503907,1,1,0.06666666666666667,1,1,1,1,1,1,1,1,1,1,1,0.2468666577835878,0.0956111126475864,0.6755869575168776,0.996972221798367,1,1,0.9867142677307129,0.9755714416503907,1,1,0.9779999987284342,1,1,1,1,1,1,0.9999999999999999,0.9999999999999999,1,0.9999999999999999,1,2021-03-25T12:00:00Z,2021-04-09T12:00:00Z,2021-04-27T12:00:00Z,2021-06-12T12:00:00Z,2021-06-30T12:00:00Z,2021-07-21T12:00:00Z,2021-07-22T12:00:00Z,2021-07-29T12:00:00Z,2021-08-05T12:00:00Z,2021-08-17T12:00:00Z,2021-08-20T12:00:00Z,2021-04-08T12:00:00Z,2021-04-26T12:00:00Z,2021-06-11T12:00:00Z,2021-06-29T12:00:00Z,2021-07-20T12:00:00Z,2021-07-21T12:00:00Z,2021-07-28T12:00:00Z,2021-08-04T12:00:00Z,2021-08-16T12:00:00Z,2021-08-19T12:00:00Z,2021-09-03T12:00:00Z,84,99,117,163,181,202,203,210,217,229,232,14,17,45,17,20,0,6,6,11,2,14,98,116,162,180,201,202,209,216,228,231,246
60,mead_ne,41.15785,-96.42075,2.5,2021,2,2021,mid2,1339.3994230683088,11,2021-03-25,2021-04-08,142,2021-08-28,2021-09-01,2021-09-15,Harvested at Maturity.,2.4993333963056403,0.5249999912662638,2.3579592152061513,3.4140908980572764,2.8125000131161264,NA,2.566250054165721,3.7116666389629245,1.4099999772241483,16.09750008583069,1.6780000075697898,2.4993333963056403,0.5249999912662638,2.3579592152061513,3.4140908980572764,2.8125000131161264,NA,2.566250054165721,3.7116666389629245,1.4099999772241483,16.09750008583069,1.6780000075697898,17.35600004196167,20.801111274295383,21.331224519379283,24.42181816968051,21.835000077883404,NA,20.960000157356262,23.078333536783855,22.894615246699406,19.517500162124634,16.653999869028727,16.8619997660319,14.454444355434841,24.736326645831674,32.036817810752176,32.27833334604899,NA,31.391249895095825,34.75,34.27076926598182,31.980000019073486,28.75466651916504,10.20166653196017,8.182499956753519,18.541836772646224,25.683636101809416,25.878750065962475,NA,24.875000059604645,27.934166749318443,27.105000019073486,26.917500019073486,22.714333248138427,3.5413332978884378,1.910555558072196,12.347346899460772,19.330454392866656,19.479166785875957,NA,18.358750224113464,21.118333498636883,19.939230772165153,21.855000019073486,16.673999977111816,3.0645623566328672,1.8263420026100758,6.129760074441988,8.629337318744533,9.853194766235529,NA,11.52505962569365,13.086103491926895,13.509621551103262,14.105825476121902,11.533232119510968,3.0645623566328672,1.8263420026100758,6.129760074441988,8.629337318744533,9.853194766235529,NA,11.52505962569365,13.086103491926895,13.509621551103262,14.105825476121902,11.533232119510968,0,0,300.3582436476574,490.2036646600371,726.6803390496897,NA,818.8808160552388,897.3974370068001,1073.022517171143,1129.4458190756304,1129.4458190756304,0,0,0.6954489805260483,0.9975227269259366,0.9889999985694885,NA,1,1,0.9787307665898249,0.9866250038146973,0.06666666666666667,1,1,1,1,1,NA,1,1,1,1,1,0.2468666577835878,0.0956111126475864,0.6954489805260483,0.9975227269259366,0.9889999985694885,NA,1,1,0.9787307665898249,0.9866250038146973,1,1,1,1,1,0.9999999999999999,NA,1,1,0.9999999999999999,1,1,2021-03-25T12:00:00Z,2021-04-09T12:00:00Z,2021-04-27T12:00:00Z,2021-06-15T12:00:00Z,2021-07-07T12:00:00Z,NA,2021-07-31T12:00:00Z,2021-08-08T12:00:00Z,2021-08-14T12:00:00Z,2021-08-27T12:00:00Z,2021-08-31T12:00:00Z,2021-04-08T12:00:00Z,2021-04-26T12:00:00Z,2021-06-14T12:00:00Z,2021-07-06T12:00:00Z,2021-07-30T12:00:00Z,NA,2021-08-07T12:00:00Z,2021-08-13T12:00:00Z,2021-08-26T12:00:00Z,2021-08-30T12:00:00Z,2021-09-14T12:00:00Z,84,99,117,166,188,NA,212,220,226,239,243,14,17,48,21,23,0,7,5,12,3,14,98,116,165,187,211,NA,219,225,238,242,257
61,mead_ne,41.15785,-96.42075,-1.5,2022,2,2022,mid000,175.59267504546654,11,2022-04-15,2022-04-29,72,2022-07-10,2022-07-13,2022-07-27,Harvested at Maturity.,2.32600001655519,5.0544444306029215,NA,3.802105327970103,2.426111130250825,NA,5.504999955495198,0.6983333493893346,3.305833345434318,0.4533333331346512,0.8293333282073339,2.32600001655519,5.0544444306029215,NA,3.802105327970103,2.426111130250825,NA,5.504999955495198,0.6983333493893346,3.305833345434318,0.4533333331346512,0.8293333282073339,19.429333527882893,12.81111110581292,NA,21.234736793919613,22.093333297305637,NA,27.78666655222575,26.261666615804035,23.00166670481364,27.633333206176758,25.095999972025552,18.508666547139487,17.495555347866482,NA,25.488420988384046,29.281666543748646,NA,32.60166645050049,30.96666685740153,33.04166650772095,33.28333409627279,35.16933364868164,11.493666604161263,12.594444354375204,NA,19.238421063674124,23.01472216182285,NA,26.332499980926514,25.06333351135254,26.69124992688497,26.77166684468587,28.080333264668784,4.4786666611830395,7.6933333608839245,NA,12.9884211389642,16.747777779897053,NA,20.06333351135254,19.160000165303547,20.340833346048992,20.259999593098957,20.991332880655925,3.929685448873639,3.605670150634481,NA,8.985520707107057,11.427354477013612,NA,13.395234389476574,13.382268909571552,13.38631259132055,14.090073503318402,12.441410172523657,3.929685448873639,3.605670150634481,NA,8.985520707107057,11.427354477013612,NA,13.395234389476574,13.382268909571552,13.38631259132055,14.090073503318402,12.441410172523657,0,0,NA,170.7248934350341,376.4172740212791,NA,456.78868035813855,537.0822938155678,697.7180449114143,739.9882654213694,739.9882654213694,0,0,NA,0.7391315786462082,0.9604166640175713,NA,1,1,0.984333332379659,1,0.06666666666666667,1,1,NA,1,1,NA,1,1,1,1,1,0.3263999945918719,0.32438888019985623,NA,0.7391315786462082,0.9604166640175713,NA,1,1,0.984333332379659,1,0.9740333366394043,1,1,NA,0.9999999999999999,1,NA,0.9999999999999999,1,1,1,1,2022-04-15T12:00:00Z,2022-04-30T12:00:00Z,NA,2022-05-09T12:00:00Z,2022-05-28T12:00:00Z,NA,2022-06-15T12:00:00Z,2022-06-21T12:00:00Z,2022-06-27T12:00:00Z,2022-07-09T12:00:00Z,2022-07-12T12:00:00Z,2022-04-29T12:00:00Z,2022-05-08T12:00:00Z,NA,2022-05-27T12:00:00Z,2022-06-14T12:00:00Z,NA,2022-06-20T12:00:00Z,2022-06-26T12:00:00Z,2022-07-08T12:00:00Z,2022-07-11T12:00:00Z,2022-07-26T12:00:00Z,105,120,NA,129,148,NA,166,172,178,190,193,14,8,0,18,17,0,5,5,11,2,14,119,128,NA,147,165,NA,171,177,189,192,207
62,mead_ne,41.15785,-96.42075,-0.5,2022,2,2022,mid00,771.617931982263,11,2022-04-15,2022-04-29,97,2022-08-04,2022-08-07,2022-08-21,Harvested at Maturity.,2.32600001655519,5.0544444306029215,3.2390625467523932,3.4969230622339706,2.730625015334226,0.10999999940395357,0.4699999988079071,0.8333333333333334,0.5424999961008629,0.2799999912579854,1.8653333310037852,2.32600001655519,5.0544444306029215,3.2390625467523932,3.4969230622339706,2.730625015334226,0.10999999940395357,0.4699999988079071,0.8333333333333334,0.5424999961008629,0.2799999912579854,1.8653333310037852,19.429333527882893,12.81111110581292,21.282499939203262,26.11461536700909,23.80750000476837,29.13999938964844,28.105000178019207,25.824999968210857,24.391666730244953,25.843332926432293,21.187999884287517,18.508666547139487,17.495555347866482,26.37312489748001,32.988461567805366,32.279374837875366,32.47999954223633,35.33500099182129,35.390000343322754,34.56249984105428,37.90999984741211,33.819999821980794,11.493666604161263,12.594444354375204,20.102812469005585,26.741153937119705,26.09624993801117,26.28499984741211,27.754166920979817,28.3708332379659,27.521666447321575,29.945000012715656,26.656333192189535,4.4786666611830395,7.6933333608839245,13.832500040531158,20.493846306434044,19.913125038146973,20.09000015258789,20.173332850138348,21.35166613260905,20.480833053588867,21.980000178019207,19.492666562398274,3.929685448873639,3.605670150634481,9.372861784406497,12.619572518815428,12.61973434649228,13.6594144503123,12.351955716534176,13.192860242663894,12.949767472221598,12.516890552755195,12.385136203441224,3.929685448873639,3.605670150634481,9.372861784406497,12.619572518815428,12.61973434649228,13.6594144503123,12.351955716534176,13.192860242663894,12.949767472221598,12.516890552755195,12.385136203441224,0,0,299.9315771010079,463.9860198456085,665.901769389485,679.5611838397973,753.6729181390025,832.8300795949859,988.227289261645,1025.7779609199106,1025.7779609199106,0,0,0.8278906255960464,0.9875769175015963,0.9882499992847442,1,0.9786666711171468,1,0.953333338101705,0.9358333269755046,0.04520000457763672,1,1,1,1,1,1,1,1,1,1,1,0.3263999945918719,0.32438888019985623,0.8278906255960464,0.9875769175015963,0.9882499992847442,1,0.9786666711171468,1,0.953333338101705,0.9358333269755046,0.9657666778564453,1,1,1,1,1,1,0.9999999999999999,1,1,1,1,2022-04-15T12:00:00Z,2022-04-30T12:00:00Z,2022-05-09T12:00:00Z,2022-06-10T12:00:00Z,2022-06-23T12:00:00Z,2022-07-09T12:00:00Z,2022-07-10T12:00:00Z,2022-07-16T12:00:00Z,2022-07-22T12:00:00Z,2022-08-03T12:00:00Z,2022-08-06T12:00:00Z,2022-04-29T12:00:00Z,2022-05-08T12:00:00Z,2022-06-09T12:00:00Z,2022-06-22T12:00:00Z,2022-07-08T12:00:00Z,2022-07-09T12:00:00Z,2022-07-15T12:00:00Z,2022-07-21T12:00:00Z,2022-08-02T12:00:00Z,2022-08-05T12:00:00Z,2022-08-20T12:00:00Z,105,120,129,161,174,190,191,197,203,215,218,14,8,31,12,15,0,5,5,11,2,14,119,128,160,173,189,190,196,202,214,217,232
63,mead_ne,41.15785,-96.42075,0.5,2022,2,2022,mid0,914.0759373612882,11,2022-04-15,2022-04-29,101,2022-08-08,2022-08-10,2022-08-24,Harvested at Maturity.,2.32600001655519,5.0544444306029215,3.183939437974583,3.3292857074577893,2.621875013806857,0.5299999713897705,0.757142858845847,0.5414285723652159,0.44666665606200695,2.219999998807907,1.5339999997367462,2.32600001655519,5.0544444306029215,3.183939437974583,3.3292857074577893,2.621875013806857,0.5299999713897705,0.757142858845847,0.5414285723652159,0.44666665606200695,2.219999998807907,1.5339999997367462,19.429333527882893,12.81111110581292,21.28151509256074,26.410714285714285,24.166249990463257,25.649999618530273,26.170000212533132,24.858571188790457,25.495000044504803,22.829999923706055,21.44000005722046,18.508666547139487,17.495555347866482,26.44515141573819,32.964285714285715,32.67999994754791,32.040000915527344,35.054286684308735,36.012856892177034,35.81249968210856,35.22000026702881,32.88199996948242,11.493666604161263,12.594444354375204,20.19257571480491,26.83142866407122,26.291249990463257,26.125,28.013571739196777,28.655713898794993,28.27916646003723,28.207499980926514,25.656333255767823,4.4786666611830395,7.6933333608839245,13.940000013871627,20.698571613856725,19.9025000333786,20.209999084472656,20.972856794084823,21.298570905412948,20.7458332379659,21.19499969482422,18.430666542053224,3.929685448873639,3.605670150634481,8.868111674579012,11.81412875049412,11.67096417633052,12.954680671076304,12.066176543958338,11.575338065497887,12.436918809728926,13.16427514945865,12.476195385531188,3.929685448873639,3.605670150634481,8.868111674579012,11.81412875049412,11.67096417633052,12.954680671076304,12.066176543958338,11.575338065497887,12.436918809728926,13.16427514945865,12.476195385531188,0,0,292.6476852611074,458.0454877680251,644.7809145893134,657.7355952603897,742.198831068098,823.2261975265833,972.4692232433304,998.7977735422476,998.7977735422476,0,0,0.8331060611840451,0.9884642805371966,0.9882499992847442,1,0.981714289528983,0.9626428604125976,0.9322500069936117,0.9144999980926514,0.06666666666666667,1,1,1,1,1,1,1,1,1,1,1,0.3263999945918719,0.32438888019985623,0.8331060611840451,0.9884642805371966,0.9882499992847442,1,0.981714289528983,0.9626428604125976,0.9322500069936117,0.9144999980926514,0.9986333401997884,1,1,1,1,1,1,0.9999999999999999,1,0.9999999999999999,0.9999999999999998,1,2022-04-15T12:00:00Z,2022-04-30T12:00:00Z,2022-05-09T12:00:00Z,2022-06-11T12:00:00Z,2022-06-25T12:00:00Z,2022-07-11T12:00:00Z,2022-07-12T12:00:00Z,2022-07-19T12:00:00Z,2022-07-26T12:00:00Z,2022-08-07T12:00:00Z,2022-08-09T12:00:00Z,2022-04-29T12:00:00Z,2022-05-08T12:00:00Z,2022-06-10T12:00:00Z,2022-06-24T12:00:00Z,2022-07-10T12:00:00Z,2022-07-11T12:00:00Z,2022-07-18T12:00:00Z,2022-07-25T12:00:00Z,2022-08-06T12:00:00Z,2022-08-08T12:00:00Z,2022-08-23T12:00:00Z,105,120,129,162,176,192,193,200,207,219,221,14,8,32,13,15,0,6,6,11,1,14,119,128,161,175,191,192,199,206,218,220,235
64,mead_ne,41.15785,-96.42075,1.5,2022,2,2022,mid1,1171.494011490261,11,2022-04-15,2022-04-29,114,2022-08-21,2022-08-24,2022-09-07,Harvested at Maturity.,2.32600001655519,5.0544444306029215,3.13270274529586,2.353333326884442,2.14750000461936,0.3100000023841858,0.8014285628284726,0.20999999237912043,2.109999999547234,0.006666666517655053,0.744000006839633,2.32600001655519,5.0544444306029215,3.13270274529586,2.353333326884442,2.14750000461936,0.3100000023841858,0.8014285628284726,0.20999999237912043,2.109999999547234,0.006666666517655053,0.744000006839633,19.429333527882893,12.81111110581292,21.65243239016146,26.589999940660263,24.925000047683717,25.31999969482422,23.622856957571848,25.507143020629883,21.19999991930448,22.68000030517578,20.592000071207682,18.508666547139487,17.495555347866482,27.33378369099385,32.09999995761447,34.802500343322755,40.40999984741211,31.27428572518485,38.82857077462332,33.55692305931678,31.013333638509113,33.70466639200846,11.493666604161263,12.594444354375204,21.07554051682756,25.601388931274414,28.019250011444093,32.614999771118164,25.334285599844794,30.5507139478411,26.39192298742441,24.078333536783855,26.40066649119059,4.4786666611830395,7.6933333608839245,14.817297342661265,19.102777904934353,21.23599967956543,24.81999969482422,19.394285474504745,22.272857121058873,19.22692291553204,17.143333435058594,19.09666659037272,3.929685448873639,3.605670150634481,8.36274193132962,10.223739362918641,10.99110419548223,9.333128706387669,12.443780366298588,11.012981001067143,13.143893966556442,13.593255516139667,12.932988348579407,3.929685448873639,3.605670150634481,8.36274193132962,10.223739362918641,10.99110419548223,9.333128706387669,12.443780366298588,11.012981001067143,13.143893966556442,13.593255516139667,12.932988348579407,0,0,309.42145145919585,493.44875999173127,713.2708439013759,722.6039726077636,809.7104351718536,886.8013021793236,1057.6719237445573,1098.4516902929763,1098.4516902929763,0,0,0.8467837823403849,1,0.9842000007629395,0.7385000228881835,1,0.8838571548461914,0.9852692383986253,1,0.06666666666666667,1,1,1,1,1,1,1,1,1,1,1,0.3263999945918719,0.32438888019985623,0.8467837823403849,1,0.9842000007629395,0.7385000228881835,1,0.8838571548461914,0.9852692383986253,1,1,1,1,1,1,1,1,1,0.9960197590154789,1,1,1,2022-04-15T12:00:00Z,2022-04-30T12:00:00Z,2022-05-09T12:00:00Z,2022-06-15T12:00:00Z,2022-07-03T12:00:00Z,2022-07-23T12:00:00Z,2022-07-24T12:00:00Z,2022-07-31T12:00:00Z,2022-08-07T12:00:00Z,2022-08-20T12:00:00Z,2022-08-23T12:00:00Z,2022-04-29T12:00:00Z,2022-05-08T12:00:00Z,2022-06-14T12:00:00Z,2022-07-02T12:00:00Z,2022-07-22T12:00:00Z,2022-07-23T12:00:00Z,2022-07-30T12:00:00Z,2022-08-06T12:00:00Z,2022-08-19T12:00:00Z,2022-08-22T12:00:00Z,2022-09-06T12:00:00Z,105,120,129,166,184,204,205,212,219,232,235,14,8,36,17,19,0,6,6,12,2,14,119,128,165,183,203,204,211,218,231,234,249
65,mead_ne,41.15785,-96.42075,2.5,2022,2,2022,mid2,1380.3920232861026,11,2022-04-15,2022-04-29,123,2022-08-30,2022-09-03,2022-09-17,Harvested at Maturity.,2.32600001655519,5.0544444306029215,3.72350003272295,2.088571440073706,0.6234782584335493,0,0.7387499930337071,2.65428570471704,1.2416666817540924,0.1474999957717955,1.7359999830524127,2.32600001655519,5.0544444306029215,3.72350003272295,2.088571440073706,0.6234782584335493,0,0.7387499930337071,2.65428570471704,1.2416666817540924,0.1474999957717955,1.7359999830524127,19.429333527882893,12.81111110581292,21.9912499666214,24.847619011288597,25.805217369743016,25.860000610351563,24.97499990463257,19.097142696380615,20.908333619435627,21.875,19.211999893188477,18.508666547139487,17.495555347866482,27.61624994277954,32.6004760378883,34.421304619830586,38.56999969482422,37.742499589920044,33.892857142857146,32.54749997456869,33.91749954223633,31.304000091552734,11.493666604161263,12.594444354375204,21.33624999523163,26.429285685221355,27.404782544011656,30.125,29.75124979019165,26.865714073181152,25.823333382606506,26.142499685287476,23.635000006357828,4.4786666611830395,7.6933333608839245,15.056250047683715,20.258095332554408,20.388260468192723,21.68000030517578,21.759999990463257,19.838571003505162,19.09916679064433,18.367499828338623,15.965999921162924,3.929685448873639,3.605670150634481,7.425212789404694,9.042654059144986,10.048254302904388,10.022434423952344,10.650963050754802,12.502968998826278,14.121081123641911,13.616375943157077,11.358420033804576,3.929685448873639,3.605670150634481,7.425212789404694,9.042654059144986,10.048254302904388,10.022434423952344,10.650963050754802,12.502968998826278,14.121081123641911,13.616375943157077,11.358420033804576,0,0,297.00851157618786,486.9042468182324,718.0140957850334,728.0365302089857,813.2442346150241,900.765017606808,1070.2179910905106,1124.6834948631388,1124.6834948631388,0,0,0.858274998664856,0.9910476185026623,0.9830652195474375,0.9875,0.8785625100135803,0.9970714432852609,1,1,0.06666666666666667,1,1,1,1,1,1,1,1,1,1,1,0.3263999945918719,0.32438888019985623,0.858274998664856,0.9910476185026623,0.9830652195474375,0.9875,0.8785625100135803,0.9970714432852609,1,1,0.9637666670481364,1,1,1,1,0.994237800799845,0.8027026975215994,0.8355949304157929,0.8640688910051629,0.9999999999999999,1,1,2022-04-15T12:00:00Z,2022-04-30T12:00:00Z,2022-05-09T12:00:00Z,2022-06-18T12:00:00Z,2022-07-09T12:00:00Z,2022-08-01T12:00:00Z,2022-08-02T12:00:00Z,2022-08-10T12:00:00Z,2022-08-17T12:00:00Z,2022-08-29T12:00:00Z,2022-09-02T12:00:00Z,2022-04-29T12:00:00Z,2022-05-08T12:00:00Z,2022-06-17T12:00:00Z,2022-07-08T12:00:00Z,2022-07-31T12:00:00Z,2022-08-01T12:00:00Z,2022-08-09T12:00:00Z,2022-08-16T12:00:00Z,2022-08-28T12:00:00Z,2022-09-01T12:00:00Z,2022-09-16T12:00:00Z,105,120,129,169,190,213,214,222,229,241,245,14,8,39,20,22,0,7,6,11,3,14,119,128,168,189,212,213,221,228,240,244,259
66,mead_ne,41.15785,-96.42075,-1.5,2023,2,2023,mid000,194.14739179682456,11,2023-04-06,2023-04-20,76,2023-07-05,2023-07-08,2023-07-22,Harvested at Maturity.,2.679999980330467,0.3446153782021541,NA,1.6088235298281206,1.621764717733159,0.27000001072883606,3.0042857570307597,0.6171428398894412,4.805833394949635,5.616666513184707,4.421333370481928,2.679999980330467,0.3446153782021541,NA,1.6088235298281206,1.621764717733159,0.27000001072883606,3.0042857570307597,0.6171428398894412,4.805833394949635,5.616666513184707,4.421333370481928,21.010000133514403,22.22230764535757,NA,19.443529269274542,24.993529431960162,23.760000228881836,22.729999950953893,25.441428593226842,24.450000047683716,23.44333330790202,21.211333147684734,21.931999905904135,17.362307695242073,NA,26.25,30.052352905273438,35.43000030517578,28.218571526663645,33.66714259556362,32.54500023523966,30.183333079020183,29.970666376749673,13.884999967118105,10.031153864728717,NA,19.667647123336792,22.726176458246567,27.395000457763672,21.743571622031077,25.657856804983957,25.985416809717815,23.258333047231037,23.922666581471763,5.8380000283320745,2.7000000342153587,NA,13.085294246673584,15.400000011219698,19.360000610351563,15.268571717398506,17.648571014404297,19.425833384195965,16.333333015441895,17.87466678619385,5.399545504021893,2.543263116169893,NA,9.687607363534577,11.822252217306268,12.625704126526651,11.119503979364753,12.403740440402066,13.053792168971174,11.321056698636315,12.6620245494771,5.399545504021893,2.543263116169893,NA,9.687607363534577,11.822252217306268,12.625704126526651,11.119503979364753,12.403740440402066,13.053792168971174,11.321056698636315,12.6620245494771,0,0,NA,164.68932518008782,365.6676128742944,378.29331700082105,456.1298448563743,542.9560279391886,699.6015339668427,733.5647040627516,733.5647040627516,0,0,NA,0.8771176520515891,0.9888529412886676,1,0.9640714304787772,1,1,1,0.06666666666666667,1,1,NA,1,1,1,1,1,1,1,1,0.4348333295683066,0.11838461985954872,NA,0.8771176520515891,0.9888529412886676,1,0.9640714304787772,1,1,1,0.9963999970753987,1,1,NA,1,1,1,0.9999999999999999,1,1,0.9999999999999999,1,2023-04-06T12:00:00Z,2023-04-21T12:00:00Z,NA,2023-05-04T12:00:00Z,2023-05-21T12:00:00Z,2023-06-07T12:00:00Z,2023-06-08T12:00:00Z,2023-06-15T12:00:00Z,2023-06-22T12:00:00Z,2023-07-04T12:00:00Z,2023-07-07T12:00:00Z,2023-04-20T12:00:00Z,2023-05-03T12:00:00Z,NA,2023-05-20T12:00:00Z,2023-06-06T12:00:00Z,2023-06-07T12:00:00Z,2023-06-14T12:00:00Z,2023-06-21T12:00:00Z,2023-07-03T12:00:00Z,2023-07-06T12:00:00Z,2023-07-21T12:00:00Z,96,111,NA,124,141,158,159,166,173,185,188,14,12,0,16,16,0,6,6,11,2,14,110,123,NA,140,157,158,165,172,184,187,202
67,mead_ne,41.15785,-96.42075,-0.5,2023,2,2023,mid00,789.6404546598961,11,2023-04-06,2023-04-20,102,2023-07-31,2023-08-02,2023-08-16,Harvested at Maturity.,2.679999980330467,0.3446153782021541,1.6826666736975313,1.9564285930246115,3.549411801402183,12.6899995803833,4.90428577469928,5.08500000834465,2.5208333642221987,10.864999771118164,3.6406666913380223,2.679999980330467,0.3446153782021541,1.6826666736975313,1.9564285930246115,3.549411801402183,12.6899995803833,4.90428577469928,5.08500000834465,2.5208333642221987,10.864999771118164,3.6406666913380223,21.010000133514403,22.22230764535757,21.868666569391888,23.60714292526245,24.89588238211239,20.420000076293945,23.647142546517507,19.998333136240642,22.53666647275289,20.065000534057617,18.87533327738444,21.931999905904135,17.362307695242073,27.468999989827473,30.94214289528983,32.88529418496525,35.61000061035156,28.875713893345424,30.84666633605957,33.59999990463257,29.229999542236328,29.87799975077311,13.884999967118105,10.031153864728717,20.619500041007996,23.78714292390006,25.889411757974063,26.86999988555908,22.499285561697825,25.12249994277954,26.765833377838135,24.22499990463257,24.284666538238525,5.8380000283320745,2.7000000342153587,13.770000092188518,16.63214295251029,18.893529330982883,18.1299991607666,16.122857230050222,19.39833354949951,19.9316668510437,19.22000026702881,18.69133332570394,5.399545504021893,2.543263116169893,10.157429971731268,11.280550369274488,12.117164182489706,11.522098584494984,10.976551889551386,13.436546404786018,13.06068565054256,14.054770841348173,12.678335129752954,5.399545504021893,2.543263116169893,10.157429971731268,11.280550369274488,12.117164182489706,11.522098584494984,10.976551889551386,13.436546404786018,13.06068565054256,14.054770841348173,12.678335129752954,0,0,304.72289915193795,462.65060432178086,668.6423954241059,680.1644940086009,757.0003572354607,837.6196356641767,994.3478634706876,1022.4574051533838,1022.4574051533838,0,0,0.9240500028928121,0.9820357152393886,1,1,0.9922857080187116,1,0.9681250015894572,1,0.06666666666666667,1,1,1,1,1,1,1,1,1,1,1,0.4348333295683066,0.11838461985954872,0.9240500028928121,0.9820357152393886,1,1,0.9922857080187116,1,0.9681250015894572,1,1,1,1,1,0.9999999999999999,1,1,1,0.9999999999999999,1,1,1,2023-04-06T12:00:00Z,2023-04-21T12:00:00Z,2023-05-04T12:00:00Z,2023-06-03T12:00:00Z,2023-06-17T12:00:00Z,2023-07-04T12:00:00Z,2023-07-05T12:00:00Z,2023-07-12T12:00:00Z,2023-07-18T12:00:00Z,2023-07-30T12:00:00Z,2023-08-01T12:00:00Z,2023-04-20T12:00:00Z,2023-05-03T12:00:00Z,2023-06-02T12:00:00Z,2023-06-16T12:00:00Z,2023-07-03T12:00:00Z,2023-07-04T12:00:00Z,2023-07-11T12:00:00Z,2023-07-17T12:00:00Z,2023-07-29T12:00:00Z,2023-07-31T12:00:00Z,2023-08-15T12:00:00Z,96,111,124,154,168,185,186,193,199,211,213,14,12,29,13,16,0,6,5,11,1,14,110,123,153,167,184,185,192,198,210,212,227
68,mead_ne,41.15785,-96.42075,0.5,2023,2,2023,mid0,829.5772831799184,11,2023-04-06,2023-04-20,105,2023-08-03,2023-08-05,2023-08-19,Harvested at Maturity.,2.679999980330467,0.3446153782021541,1.6826666736975313,1.8762500117300078,4.14222223766976,NA,5.838571476084845,3.327142876972045,4.788333332786958,4.56999996304512,2.4340000270555415,2.679999980330467,0.3446153782021541,1.6826666736975313,1.8762500117300078,4.14222223766976,NA,5.838571476084845,3.327142876972045,4.788333332786958,4.56999996304512,2.4340000270555415,21.010000133514403,22.22230764535757,21.868666569391888,23.591250002384186,24.81111118528578,NA,22.97857107434954,18.957142693655832,21.895833253860474,13.099999904632568,21.561999893188478,21.931999905904135,17.362307695242073,27.468999989827473,30.96375000476837,32.63166671329074,NA,30.224285125732422,29.87000002179827,33.61916653315226,29.9399995803833,30.177999623616536,13.884999967118105,10.031153864728717,20.619500041007996,23.790937513113022,25.681111097335815,NA,23.8692855153765,24.156428609575546,26.947083393732708,25.8774995803833,23.9229998588562,5.8380000283320745,2.7000000342153587,13.770000092188518,16.618125021457672,18.730555481380886,NA,17.51428590502058,18.44285719735282,20.275000254313152,21.8149995803833,17.668000094095866,5.399545504021893,2.543263116169893,9.639957764001638,10.48857671797304,11.023596012342866,NA,11.200104048392644,12.264230369229246,12.746664464100819,15.536492152939989,12.087625917741457,5.399545504021893,2.543263116169893,9.639957764001638,10.48857671797304,11.023596012342866,NA,11.200104048392644,12.264230369229246,12.746664464100819,15.536492152939989,12.087625917741457,0,0,289.19873292004917,457.0159604076176,655.4406886297894,NA,733.841416968538,819.6910295531427,972.6510031223528,1003.7239874282328,1003.7239874282328,0,0,0.9240500028928121,0.984281250834465,1,NA,0.9922857080187116,1,0.9681250015894572,1,0.06666666666666667,1,1,1,1,1,NA,1,1,1,1,1,0.4348333295683066,0.11838461985954872,0.9240500028928121,0.984281250834465,1,NA,0.9922857080187116,1,0.9681250015894572,1,1,1,1,1,0.9999999999999999,1,NA,0.9999999999999999,1,1,0.9999999999999999,1,2023-04-06T12:00:00Z,2023-04-21T12:00:00Z,2023-05-04T12:00:00Z,2023-06-03T12:00:00Z,2023-06-19T12:00:00Z,NA,2023-07-07T12:00:00Z,2023-07-14T12:00:00Z,2023-07-21T12:00:00Z,2023-08-02T12:00:00Z,2023-08-04T12:00:00Z,2023-04-20T12:00:00Z,2023-05-03T12:00:00Z,2023-06-02T12:00:00Z,2023-06-18T12:00:00Z,2023-07-06T12:00:00Z,NA,2023-07-13T12:00:00Z,2023-07-20T12:00:00Z,2023-08-01T12:00:00Z,2023-08-03T12:00:00Z,2023-08-18T12:00:00Z,96,111,124,154,170,NA,188,195,202,214,216,14,12,29,15,17,0,6,6,11,1,14,110,123,153,169,187,NA,194,201,213,215,230
69,mead_ne,41.15785,-96.42075,1.5,2023,2,2023,mid1,1122.137537615508,11,2023-04-06,2023-04-20,117,2023-08-15,2023-08-19,2023-09-02,Harvested at Maturity.,2.679999980330467,0.3446153782021541,1.6152941237806397,1.453684219306237,6.05454549159516,3.0399999618530273,1.3014285806566477,6.969999989228589,3.8033333610122404,0.002499999944120645,1.752666673064232,2.679999980330467,0.3446153782021541,1.6152941237806397,1.453684219306237,6.05454549159516,3.0399999618530273,1.3014285806566477,6.969999989228589,3.8033333610122404,0.002499999944120645,1.752666673064232,21.010000133514403,22.22230764535757,22.218529350617352,24.610000058224326,22.395908919247713,20.90999984741211,21.947142601013184,20.87857151031494,18.929166555404663,24.34749984741211,22.68600018819173,21.931999905904135,17.362307695242073,28.15117645263672,31.770526183278935,30.83409092643044,28.299999237060547,32.058571679251536,34.15857097080776,30.34499979019165,29.054999351501465,34.9559996287028,13.884999967118105,10.031153864728717,21.19691179079168,24.559210451025713,24.52295459400524,22.649999618530273,25.330000196184432,27.75142846788679,24.929583231608074,22.09874975681305,27.295666472117105,5.8380000283320745,2.7000000342153587,14.242647128946642,17.347894718772487,18.211818261580035,17,18.601428713117325,21.34428596496582,19.514166673024494,15.142500162124634,19.635333315531412,5.399545504021893,2.543263116169893,9.058086593020798,9.392575761223958,10.19173208451908,10.294212942407178,11.678994594506307,11.948885688000932,13.613230798122771,11.625713222247363,11.647058890101116,5.399545504021893,2.543263116169893,9.058086593020798,9.392575761223958,10.19173208451908,10.294212942407178,11.678994594506307,11.948885688000932,13.613230798122771,11.625713222247363,11.647058890101116,0,0,307.9749441627071,486.4338836259623,710.6519894853823,720.9462024277894,802.6991645893337,886.3413644053402,1049.7001339828134,1096.202986871803,1096.202986871803,0,0,0.9329852966701283,0.9867631585974442,0.9975454525514083,1,1,0.9453571455819266,1,1,0.06666666666666667,1,1,1,1,1,1,1,1,1,1,1,0.4348333295683066,0.11838461985954872,0.9329852966701283,0.9867631585974442,0.9975454525514083,1,1,0.9453571455819266,1,1,0.9213333320617676,1,1,1,1,0.9999999999999999,0.9999999999999998,1,1,1,0.9999999999999999,1,2023-04-06T12:00:00Z,2023-04-21T12:00:00Z,2023-05-04T12:00:00Z,2023-06-07T12:00:00Z,2023-06-26T12:00:00Z,2023-07-18T12:00:00Z,2023-07-19T12:00:00Z,2023-07-26T12:00:00Z,2023-08-02T12:00:00Z,2023-08-14T12:00:00Z,2023-08-18T12:00:00Z,2023-04-20T12:00:00Z,2023-05-03T12:00:00Z,2023-06-06T12:00:00Z,2023-06-25T12:00:00Z,2023-07-17T12:00:00Z,2023-07-18T12:00:00Z,2023-07-25T12:00:00Z,2023-08-01T12:00:00Z,2023-08-13T12:00:00Z,2023-08-17T12:00:00Z,2023-09-01T12:00:00Z,96,111,124,158,177,199,200,207,214,226,230,14,12,33,18,21,0,6,6,11,3,14,110,123,157,176,198,199,206,213,225,229,244
70,mead_ne,41.15785,-96.42075,2.5,2023,2,2023,mid2,1373.603083832118,11,2023-04-06,2023-04-20,129,2023-08-27,2023-08-31,2023-09-14,Harvested at Maturity.,2.679999980330467,0.3446153782021541,1.5405405473366782,3.383750036902105,3.745416670028741,2.0799999237060547,8.322857115949903,2.068571448326111,1.7364286055256213,5.347500000149012,0.688000016907851,2.679999980330467,0.3446153782021541,1.5405405473366782,3.383750036902105,3.745416670028741,2.0799999237060547,8.322857115949903,2.068571448326111,1.7364286055256213,5.347500000149012,0.688000016907851,21.010000133514403,22.22230764535757,21.959729697253252,24.886666655540466,22.107499718666077,25.030000686645508,16.140000207083567,20.85142844063895,22.77785723549979,22.03499984741211,20.25000015894572,21.931999905904135,17.362307695242073,28.381621592753643,31.924583435058594,31.34624981880188,40.88999938964844,30.148571014404297,30.588571275983536,34.57499953678676,30.274999618530273,31.345333353678384,13.884999967118105,10.031153864728717,21.4729730051917,24.884375035762787,24.85604163010915,32.34000015258789,25.324999809265137,24.859285627092635,27.168928384780884,23.454999804496765,23.46699991226196,5.8380000283320745,2.7000000342153587,14.564324417629757,17.84416663646698,18.365833441416424,23.790000915527344,20.501428604125977,19.12999997820173,19.76285723277501,16.634999990463257,15.58866647084554,5.399545504021893,2.543263116169893,8.068374943326823,8.191097404660766,9.411868281014954,8.54266033796998,12.48981673533164,12.388056952851114,11.806632505269608,13.178414453148843,11.006142521353166,5.399545504021893,2.543263116169893,8.068374943326823,8.191097404660766,9.411868281014954,8.54266033796998,12.48981673533164,12.388056952851114,11.806632505269608,13.178414453148843,11.006142521353166,0,0,298.52987290309255,495.1162106149509,721.0010493593097,729.5437096972797,816.9724268446013,903.6888255145592,1068.9816805883336,1121.695338400929,1121.695338400929,0,0,0.9384189212644423,0.9895208338896434,0.9915624996026358,0.7659999847412109,1,1,0.9157142843518938,1,0.06666666666666667,1,1,1,1,1,1,1,1,1,1,1,0.4348333295683066,0.11838461985954872,0.9384189212644423,0.9895208338896434,0.9915624996026358,0.7659999847412109,1,1,0.9157142843518938,1,0.9876666641235352,1,1,1,1,0.9999999999999999,1,0.9999999999999999,0.9999999999999998,1,0.9999999999999999,1,2023-04-06T12:00:00Z,2023-04-21T12:00:00Z,2023-05-04T12:00:00Z,2023-06-10T12:00:00Z,2023-07-04T12:00:00Z,2023-07-28T12:00:00Z,2023-07-29T12:00:00Z,2023-08-05T12:00:00Z,2023-08-12T12:00:00Z,2023-08-26T12:00:00Z,2023-08-30T12:00:00Z,2023-04-20T12:00:00Z,2023-05-03T12:00:00Z,2023-06-09T12:00:00Z,2023-07-03T12:00:00Z,2023-07-27T12:00:00Z,2023-07-28T12:00:00Z,2023-08-04T12:00:00Z,2023-08-11T12:00:00Z,2023-08-25T12:00:00Z,2023-08-29T12:00:00Z,2023-09-13T12:00:00Z,96,111,124,161,185,209,210,217,224,238,242,14,12,36,23,23,0,6,6,13,3,14,110,123,160,184,208,209,216,223,237,241,256
71,phillips_ne,40.8473,-98.177,-1.5,2017,3,2017,mid000,216.58862247698528,11,2017-04-04,2017-04-18,86,2017-07-13,2017-07-16,2017-07-30,Harvested at Maturity.,1.840666721512874,4.485625035013072,NA,5.235833334193255,1.788823546951308,0.02999999932944774,0.8871428705751897,4.180000005289912,1.2691666311584413,8.256666660308838,2.842666691914201,1.840666721512874,4.485625035013072,NA,5.235833334193255,1.788823546951308,0.02999999932944774,0.8871428705751897,4.180000005289912,1.2691666311584413,8.256666660308838,2.842666691914201,19.571333122253417,17.968750059604645,NA,22.640416542689007,27.296470642089844,27.010000228881836,27.311428342546737,25.394286019461497,26.447499752044678,19.733333587646484,24.89666659037272,20.745333417256674,15.806249991059303,NA,22.978333433469135,29.942940992467545,33.130001068115234,31.864286150251115,28.052856717790878,32.835833390553795,30.170000076293945,33.18333358764649,13.601333409051101,9.747812453657389,NA,16.25562508404255,23.365294063792508,24.43000030517578,24.45428603036063,20.96642827987671,25.824583292007446,24.703333218892414,26.90200004577637,6.457333400845528,3.689374916255474,NA,9.532916734615961,16.787647135117474,15.729999542236328,17.044285910470144,13.879999841962542,18.8133331934611,19.236666361490887,20.62066650390625,4.924443046415194,2.4391201535172993,NA,6.684476877550954,12.00652273704806,12.08103966089178,11.956837752394058,10.651807267058295,12.87914971500326,14.203374008582621,12.844621315779687,4.924443046415194,2.4391201535172993,NA,6.684476877550954,12.00652273704806,12.08103966089178,11.956837752394058,10.651807267058295,12.87914971500326,14.203374008582621,12.844621315779687,0,0,NA,160.4274450612229,364.53833159104,376.6193712519318,460.3172355186902,534.8798863880982,689.4296829681374,732.0398049938852,732.0398049938852,0,0,NA,0.604937503238519,0.9494999997756061,1,1,0.9497142655508859,1,1,0.06666666666666667,1,1,NA,1,1,1,1,1,1,1,1,0.42906667153040573,0.15784374549984934,NA,0.604937503238519,0.9494999997756061,1,1,0.9497142655508859,1,1,0.9931666692097981,1,1,NA,1,1,1,1,1,1,1,1,2017-04-04T12:00:00Z,2017-04-19T12:00:00Z,NA,2017-05-05T12:00:00Z,2017-05-29T12:00:00Z,2017-06-15T12:00:00Z,2017-06-16T12:00:00Z,2017-06-23T12:00:00Z,2017-06-30T12:00:00Z,2017-07-12T12:00:00Z,2017-07-15T12:00:00Z,2017-04-18T12:00:00Z,2017-05-04T12:00:00Z,NA,2017-05-28T12:00:00Z,2017-06-14T12:00:00Z,2017-06-15T12:00:00Z,2017-06-22T12:00:00Z,2017-06-29T12:00:00Z,2017-07-11T12:00:00Z,2017-07-14T12:00:00Z,2017-07-29T12:00:00Z,94,109,NA,125,149,166,167,174,181,193,196,14,15,0,23,16,0,6,6,11,2,14,108,124,NA,148,165,166,173,180,192,195,210
72,phillips_ne,40.8473,-98.177,-0.5,2017,3,2017,mid00,831.4870414487926,11,2017-04-04,2017-04-18,112,2017-08-08,2017-08-11,2017-08-25,Harvested at Maturity.,1.840666721512874,4.485625035013072,3.502162165688099,2.3414285914706334,2.6141176242381334,21.420000076293945,2.6900000174840293,0.1683333379526933,3.3423076912474174,0.690000002582868,8.187333469837904,1.840666721512874,4.485625035013072,3.502162165688099,2.3414285914706334,2.6141176242381334,21.420000076293945,2.6900000174840293,0.1683333379526933,3.3423076912474174,0.690000002582868,8.187333469837904,19.571333122253417,17.968750059604645,24.124864784446924,27.325714247567312,26.208823484532974,14.90999984741211,25.18166669209798,26.361666361490887,20.18846159714919,20.116666793823242,22.80400021870931,20.745333417256674,15.806249991059303,25.112973006995947,31.469285828726633,31.608235190896426,30.829999923706055,32.34000015258789,35.87666702270508,27.76999987088717,26.856666564941406,27.596666717529295,13.601333409051101,9.747812453657389,18.37445952119054,24.376428638185775,24.617058697868796,25.5649995803833,26.28583351771037,28.705833276112873,22.409230709075928,21.048333485921223,21.68733336130778,6.457333400845528,3.689374916255474,11.635946035385132,17.283571447644913,17.625882204841165,20.299999237060547,20.231666882832844,21.53499952952067,17.048461547264687,15.240000406901043,15.778000005086263,4.924443046415194,2.4391201535172993,8.05976559209631,11.387550467460551,11.687520969504687,14.244292004030374,13.763204502886449,13.262899540171595,11.941239904804728,11.049319305622578,10.996935090239447,4.924443046415194,2.4391201535172993,8.05976559209631,11.387550467460551,11.687520969504687,14.244292004030374,13.763204502886449,13.262899540171595,11.941239904804728,11.049319305622578,10.996935090239447,0,0,298.2113269075635,457.63703345201134,656.3248899335911,670.5691819376215,753.1484089549401,832.7258061959697,987.9619249584312,1021.1098828752988,1021.1098828752988,0,0,0.7205405425381016,0.9869285685675485,0.9900588175829719,1,1,0.9829166730244955,0.9787307629218468,1,0.06666666666666667,1,1,1,1,1,1,1,1,1,1,1,0.42906667153040573,0.15784374549984934,0.7205405425381016,0.9869285685675485,0.9900588175829719,1,1,0.9829166730244955,0.9787307629218468,1,0.9905666637420655,1,1,1,1,0.9999999999999999,1,0.9999999999999999,1,1,0.9999999999999999,1,2017-04-04T12:00:00Z,2017-04-19T12:00:00Z,2017-05-05T12:00:00Z,2017-06-11T12:00:00Z,2017-06-25T12:00:00Z,2017-07-12T12:00:00Z,2017-07-13T12:00:00Z,2017-07-19T12:00:00Z,2017-07-25T12:00:00Z,2017-08-07T12:00:00Z,2017-08-10T12:00:00Z,2017-04-18T12:00:00Z,2017-05-04T12:00:00Z,2017-06-10T12:00:00Z,2017-06-24T12:00:00Z,2017-07-11T12:00:00Z,2017-07-12T12:00:00Z,2017-07-18T12:00:00Z,2017-07-24T12:00:00Z,2017-08-06T12:00:00Z,2017-08-09T12:00:00Z,2017-08-24T12:00:00Z,94,109,125,162,176,193,194,200,206,219,222,14,15,36,13,16,0,5,5,12,2,14,108,124,161,175,192,193,199,205,218,221,236
73,phillips_ne,40.8473,-98.177,0.5,2017,3,2017,mid0,950.1351758881927,11,2017-04-04,2017-04-18,115,2017-08-11,2017-08-14,2017-08-28,Harvested at Maturity.,1.840666721512874,4.485625035013072,3.502162165688099,2.14000001992099,3.9852940914604593,0,2.293333371480306,4.091428593067186,1.3015384493538968,0.6333333452542623,8.906000130623578,1.840666721512874,4.485625035013072,3.502162165688099,2.14000001992099,3.9852940914604593,0,2.293333371480306,4.091428593067186,1.3015384493538968,0.6333333452542623,8.906000130623578,19.571333122253417,17.968750059604645,24.124864784446924,26.72937500476837,25.4682352402631,26.68000030517578,26.519999821980797,24.53285707746233,19.76307692894569,20.386667251586914,22.957333374023438,20.745333417256674,15.806249991059303,25.112973006995947,30.8125,32.030000013463635,30.90999984741211,34.40000025431315,33.64571462358747,26.86769206707294,26.696666717529297,27.895333353678385,13.601333409051101,9.747812453657389,18.37445952119054,23.72374999523163,25.262941108030432,24.81999969482422,27.92583354314168,27.16857147216797,21.39499990756695,20.67833344141642,22.056666628519693,6.457333400845528,3.689374916255474,11.635946035385132,16.634999990463257,18.495882202597226,18.729999542236328,21.451666831970215,20.691428320748464,15.92230774806096,14.660000165303549,16.217999903361,4.924443046415194,2.4391201535172993,7.605561136942932,10.152712533028236,11.455027099559885,12.786120545740808,13.007200787305015,12.487368483269593,11.245212666938261,10.757809907114506,11.228268282428981,4.924443046415194,2.4391201535172993,7.605561136942932,10.152712533028236,11.455027099559885,12.786120545740808,13.007200787305015,12.487368483269593,11.245212666938261,10.757809907114506,11.228268282428981,0,0,281.40576206688843,443.84916259534015,638.5846232878581,651.3707438335989,729.413948557429,816.8255279403161,963.0132926105136,995.2867223318572,995.2867223318572,0,0,0.7205405425381016,0.9779999911785126,1,1,1,0.9853571483067104,0.9787307629218468,1,0.06666666666666667,1,1,1,1,1,1,1,1,1,1,1,0.42906667153040573,0.15784374549984934,0.7205405425381016,0.9779999911785126,1,1,1,0.9853571483067104,0.9787307629218468,1,0.9905666637420655,1,1,1,1,1,1,1,1,0.9999999999999999,1,1,2017-04-04T12:00:00Z,2017-04-19T12:00:00Z,2017-05-05T12:00:00Z,2017-06-11T12:00:00Z,2017-06-27T12:00:00Z,2017-07-14T12:00:00Z,2017-07-15T12:00:00Z,2017-07-21T12:00:00Z,2017-07-28T12:00:00Z,2017-08-10T12:00:00Z,2017-08-13T12:00:00Z,2017-04-18T12:00:00Z,2017-05-04T12:00:00Z,2017-06-10T12:00:00Z,2017-06-26T12:00:00Z,2017-07-13T12:00:00Z,2017-07-14T12:00:00Z,2017-07-20T12:00:00Z,2017-07-27T12:00:00Z,2017-08-09T12:00:00Z,2017-08-12T12:00:00Z,2017-08-27T12:00:00Z,94,109,125,162,178,195,196,202,209,222,225,14,15,36,15,16,0,5,6,12,2,14,108,124,161,177,194,195,201,208,221,224,239
74,phillips_ne,40.8473,-98.177,1.5,2017,3,2017,mid1,1187.355000909817,11,2017-04-04,2017-04-18,129,2017-08-25,2017-08-29,2017-09-12,Harvested at Maturity.,1.840666721512874,4.485625035013072,3.8065853736295208,2.2589999927207827,2.206000002939254,0,4.321428590321115,1.9087499827146532,8.762857289452638,3.2024999856948853,0.19866666855911413,1.840666721512874,4.485625035013072,3.8065853736295208,2.2589999927207827,2.206000002939254,0,4.321428590321115,1.9087499827146532,8.762857289452638,3.2024999856948853,0.19866666855911413,19.571333122253417,17.968750059604645,24.570975559513744,25.97750005722046,25.896999740600585,26.940000534057617,20.161428587777273,19.34125006198883,22.937143053327286,21.09999990463257,19.70533323287964,20.745333417256674,15.806249991059303,25.866097543297744,30.085499954223632,34.25000028610229,36.790000915527344,27.949999945504324,26.142499685287476,27.531428609575546,28.269999980926514,27.187999979654947,13.601333409051101,9.747812453657389,19.203536612231556,23.027249932289124,27.36200008392334,29.95500087738037,23.029999869210382,20.412499964237213,21.680714300700597,22.338749885559082,20.575333261489867,6.457333400845528,3.689374916255474,12.540975681165369,15.968999910354615,20.473999881744383,23.1200008392334,18.109999792916433,14.68250024318695,15.829999991825648,16.40749979019165,13.962666543324788,4.924443046415194,2.4391201535172993,7.359149801796489,9.108439387772961,11.2340618759896,11.798357979748989,11.650758423188966,10.023212617897391,11.725824495314091,12.338749885559082,9.822811543194055,4.924443046415194,2.4391201535172993,7.359149801796489,9.108439387772961,11.2340618759896,11.798357979748989,11.650758423188966,10.023212617897391,11.725824495314091,12.338749885559082,9.822811543194055,0,0,301.72514187365607,483.8939296291153,708.575167148907,720.373525128656,801.9288340909786,882.1145350341577,1046.276077968555,1095.631077510791,1095.631077510791,0,0,0.7478048798514576,0.9823999929428101,0.9948750019073487,1,1,0.9654374897480011,0.9898928540093558,1,0.06450000127156576,1,1,1,1,1,1,1,1,1,1,1,0.42906667153040573,0.15784374549984934,0.7478048798514576,0.9823999929428101,0.9948750019073487,1,1,0.9654374897480011,0.9898928540093558,1,0.930666667620341,1,1,1,1,0.9999999999999999,1,0.9999999999999999,1,0.9999999999999999,0.9999999999999999,1,2017-04-04T12:00:00Z,2017-04-19T12:00:00Z,2017-05-05T12:00:00Z,2017-06-15T12:00:00Z,2017-07-05T12:00:00Z,2017-07-25T12:00:00Z,2017-07-26T12:00:00Z,2017-08-02T12:00:00Z,2017-08-10T12:00:00Z,2017-08-24T12:00:00Z,2017-08-28T12:00:00Z,2017-04-18T12:00:00Z,2017-05-04T12:00:00Z,2017-06-14T12:00:00Z,2017-07-04T12:00:00Z,2017-07-24T12:00:00Z,2017-07-25T12:00:00Z,2017-08-01T12:00:00Z,2017-08-09T12:00:00Z,2017-08-23T12:00:00Z,2017-08-27T12:00:00Z,2017-09-11T12:00:00Z,94,109,125,166,186,206,207,214,222,236,240,14,15,40,19,19,0,6,7,13,3,14,108,124,165,185,205,206,213,221,235,239,254
75,phillips_ne,40.8473,-98.177,2.5,2017,3,2017,mid2,1466.2885940387246,11,2017-04-04,2017-04-18,140,2017-09-05,2017-09-11,2017-09-25,Harvested at Maturity.,1.840666721512874,4.485625035013072,3.597777786643969,1.9521738967007918,3.224545464850962,1.3300000429153442,1.5244444410006208,14.000000154599547,2.3913333925108113,0.125,1.7539999899764855,1.840666721512874,4.485625035013072,3.597777786643969,1.9521738967007918,3.224545464850962,1.3300000429153442,1.5244444410006208,14.000000154599547,2.3913333925108113,0.125,1.7539999899764855,19.571333122253417,17.968750059604645,24.686888843112524,26.513912947281547,23.2631817297502,23.360000610351563,19.22000026702881,23.341428756713867,21.357333183288574,19.569999933242798,17.13933334350586,20.745333417256674,15.806249991059303,26.30155561235216,31.457391241322394,31.860454732721504,24.649999618530273,26.246666378445095,27.851428713117325,27.82866668701172,25.599999745686848,29.783333206176756,13.601333409051101,9.747812453657389,19.564555621147157,24.31347817959993,25.875227321277965,19.21999979019165,20.393333276112873,22.057142870766775,21.65133326848348,18.9108331600825,22.772666645050048,6.457333400845528,3.689374916255474,12.827555629942152,17.16956511787746,19.88999990983443,13.789999961853027,14.540000173780653,16.262857028416224,15.473999849955241,12.22166657447815,15.76200008392334,4.924443046415194,2.4391201535172993,6.572658915836504,8.194933002981001,10.465534074758851,7.893224351747678,9.504690350037412,11.841379895629544,11.641199593035777,9.65606684496502,10.842605495078962,4.924443046415194,2.4391201535172993,6.572658915836504,8.194933002981001,10.465534074758851,7.893224351747678,9.504690350037412,11.841379895629544,11.641199593035777,9.65606684496502,10.842605495078962,0,0,295.76965121264266,484.25311028120575,714.4948599259004,722.3880842776481,807.9302974279848,890.8199566973917,1065.4379505929282,1123.3743516627185,1123.3743516627185,0,0,0.7702222238646613,0.9846956460372261,0.9953409108248624,0.9219999790191652,0.9779444376627604,1,0.9874666659037272,0.834416663646698,0.06666666666666667,1,1,1,1,1,1,1,1,1,1,1,0.42906667153040573,0.15784374549984934,0.7702222238646613,0.9846956460372261,0.9953409108248624,0.9219999790191652,0.9779444376627604,1,0.9874666659037272,0.834416663646698,0.931766668955485,1,1,1,0.9999999999999999,1,1,0.9999999999999999,0.9999999999999999,0.9999999999999999,0.9999999999999999,1,2017-04-04T12:00:00Z,2017-04-19T12:00:00Z,2017-05-05T12:00:00Z,2017-06-19T12:00:00Z,2017-07-12T12:00:00Z,2017-08-03T12:00:00Z,2017-08-04T12:00:00Z,2017-08-13T12:00:00Z,2017-08-20T12:00:00Z,2017-09-04T12:00:00Z,2017-09-10T12:00:00Z,2017-04-18T12:00:00Z,2017-05-04T12:00:00Z,2017-06-18T12:00:00Z,2017-07-11T12:00:00Z,2017-08-02T12:00:00Z,2017-08-03T12:00:00Z,2017-08-12T12:00:00Z,2017-08-19T12:00:00Z,2017-09-03T12:00:00Z,2017-09-09T12:00:00Z,2017-09-24T12:00:00Z,94,109,125,170,193,215,216,225,232,247,253,14,15,44,22,21,0,8,6,14,5,14,108,124,169,192,214,215,224,231,246,252,267
76,phillips_ne,40.8473,-98.177,-1.5,2018,3,2018,mid000,187.4692961375557,11,2018-05-05,2018-05-19,60,2018-07-18,2018-07-21,2018-08-04,Harvested at Maturity.,3.0799999881535767,0.32999999448657036,NA,3.3730769091500687,3.707058813313351,3.0299999713897705,8.185000224038959,10.691666962268451,0.3190909070386128,9.139999707539877,1.884666695073247,3.0799999881535767,0.32999999448657036,NA,3.3730769091500687,3.707058813313351,3.0299999713897705,8.185000224038959,10.691666962268451,0.3190909070386128,9.139999707539877,1.884666695073247,19.82599989573161,20.607500195503235,NA,25.74999977992131,24.482352873858282,29.700000762939453,24.88333288828532,25.801666259765625,26.896363865245473,23.769999821980797,23.114666684468588,25.50533332824707,24.862499713897705,NA,30.766923317542442,31.135294409359204,29.760000228881836,30.07166639963786,29.371666590372723,32.580909208817914,29.393333435058594,28.680666478474937,18.82433334986369,18.74500000476837,NA,23.817307765667255,25.326176615322336,22.64000034332275,24.572499593098957,24.053333282470703,26.24545461481268,24.671666781107586,22.75933329264323,12.143333371480306,12.627500295639038,NA,16.86769221379207,19.517058821285474,15.520000457763672,19.07333278656006,18.734999974568684,19.91000002080744,19.950000127156574,16.838000106811524,8.82559706268549,8.943811687275769,NA,12.189660294288442,12.403936741581905,11.863166403048318,12.623773878219,12.802640690199455,14.123577985508225,14.419405979576299,11.480785224760373,8.82559706268549,8.943811687275769,NA,12.189660294288442,12.403936741581905,11.863166403048318,12.623773878219,12.802640690199455,14.123577985508225,14.419405979576299,11.480785224760373,0,0,NA,158.46558382574975,369.3325084326421,381.1956748356904,456.9383181050045,533.7541622462012,689.1135200867915,732.3717380255204,732.3717380255204,0,0,NA,0.9934230841123141,0.9736176490783691,1,1,1,1,1,0.06666666666666667,1,1,NA,1,1,1,1,1,1,1,1,0.8446999994913738,0.6997500061988831,NA,0.9934230841123141,0.9736176490783691,1,1,1,1,1,0.9911999988555908,1,1,NA,1,1,1,1,1,1,1,1,2018-05-05T12:00:00Z,2018-05-20T12:00:00Z,NA,2018-05-24T12:00:00Z,2018-06-06T12:00:00Z,2018-06-23T12:00:00Z,2018-06-24T12:00:00Z,2018-06-30T12:00:00Z,2018-07-06T12:00:00Z,2018-07-17T12:00:00Z,2018-07-20T12:00:00Z,2018-05-19T12:00:00Z,2018-05-23T12:00:00Z,NA,2018-06-05T12:00:00Z,2018-06-22T12:00:00Z,2018-06-23T12:00:00Z,2018-06-29T12:00:00Z,2018-07-05T12:00:00Z,2018-07-16T12:00:00Z,2018-07-19T12:00:00Z,2018-08-03T12:00:00Z,125,140,NA,144,157,174,175,181,187,198,201,14,3,0,12,16,0,5,5,10,2,14,139,143,NA,156,173,174,180,186,197,200,215
77,phillips_ne,40.8473,-98.177,-0.5,2018,3,2018,mid00,750.0645456777808,11,2018-05-05,2018-05-19,85,2018-08-12,2018-08-15,2018-08-29,Harvested at Maturity.,3.0799999881535767,0.32999999448657036,2.4456000005453826,9.843333505839109,2.4566666282713414,NA,1.716666632021467,3.6271429232188632,2.547272703356364,0.22666666905085245,4.685999995221694,3.0799999881535767,0.32999999448657036,2.4456000005453826,9.843333505839109,2.4566666282713414,NA,1.716666632021467,3.6271429232188632,2.547272703356364,0.22666666905085245,4.685999995221694,19.82599989573161,20.607500195503235,25.759599800109864,24.191333134969074,26.34400011698405,NA,24.516666730244957,20.012857028416224,24.479999975724652,21.260000228881836,16.918666807810464,25.50533332824707,24.862499713897705,31.69880027770996,28.67866668701172,31.981333414713543,NA,30.166666666666668,26.422857012067524,30.973636107011274,31.386666615804035,27.18466657002767,18.82433334986369,18.74500000476837,25.108800106048584,23.260333251953124,26.05833339691162,NA,24.65333334604899,21.180714334760392,24.6509089903398,25.00499979654948,22.09066651662191,12.143333371480306,12.627500295639038,18.518799934387207,17.841999816894532,20.1353333791097,NA,19.140000025431316,15.938571657453265,18.328181873668324,18.623332977294922,16.996666463216147,8.82559706268549,8.943811687275769,11.952247190636726,11.149673586721804,13.448506292024355,NA,13.931353155051976,11.080681552036681,14.014164181779732,14.085309147588413,11.094260798597336,8.82559706268549,8.943811687275769,11.952247190636726,11.149673586721804,13.448506292024355,NA,13.931353155051976,11.080681552036681,14.014164181779732,14.085309147588413,11.094260798597336,0,0,298.80617976591816,466.0512835667452,667.7788779471107,NA,751.3669968774225,828.9317677416792,983.0875737412562,1025.3435011840215,1025.3435011840215,0,0,0.9862400035858154,0.9873333358764649,1,NA,1,0.9811428546905517,1,1,0.06666666666666667,1,1,1,1,1,NA,1,1,1,1,1,0.8446999994913738,0.6997500061988831,0.9862400035858154,0.9873333358764649,1,NA,1,0.9811428546905517,1,1,0.9467000007629395,1,1,1,1,0.9999999999999999,NA,0.9999999999999999,0.9999999999999999,1,1,1,2018-05-05T12:00:00Z,2018-05-20T12:00:00Z,2018-05-24T12:00:00Z,2018-06-18T12:00:00Z,2018-07-03T12:00:00Z,NA,2018-07-18T12:00:00Z,2018-07-24T12:00:00Z,2018-07-31T12:00:00Z,2018-08-11T12:00:00Z,2018-08-14T12:00:00Z,2018-05-19T12:00:00Z,2018-05-23T12:00:00Z,2018-06-17T12:00:00Z,2018-07-02T12:00:00Z,2018-07-17T12:00:00Z,NA,2018-07-23T12:00:00Z,2018-07-30T12:00:00Z,2018-08-10T12:00:00Z,2018-08-13T12:00:00Z,2018-08-28T12:00:00Z,125,140,144,169,184,NA,199,205,212,223,226,14,3,24,14,14,0,5,6,10,2,14,139,143,168,183,198,NA,204,211,222,225,240
78,phillips_ne,40.8473,-98.177,0.5,2018,3,2018,mid0,836.9183927677933,11,2018-05-05,2018-05-19,88,2018-08-15,2018-08-18,2018-09-01,Harvested at Maturity.,3.0799999881535767,0.32999999448657036,2.5276923052823315,9.538666844243805,2.8306249520974234,0.15000000596046448,1.2583333533257246,2.79285718846534,2.608181794936007,7.99999984105428,3.176000028600295,3.0799999881535767,0.32999999448657036,2.5276923052823315,9.538666844243805,2.8306249520974234,0.15000000596046448,1.2583333533257246,2.79285718846534,2.608181794936007,7.99999984105428,3.176000028600295,19.82599989573161,20.607500195503235,25.754230609306923,24.30666643778483,26.107500076293945,23.15999984741211,23.124999841054283,22.72000013078962,22.67181821302934,18.676666577657063,16.75600004196167,25.50533332824707,24.862499713897705,31.821923402639534,28.523333231608074,31.69000005722046,31.020000457763672,29.233333269755047,27.197142464773997,31.28545448996804,26.566666920979817,27.541333134969076,18.82433334986369,18.74500000476837,25.248269356214085,23.119999885559082,25.876562535762787,25.51500034332275,23.450833320617676,21.20785699571882,25.264090884815563,21.863333384195965,22.057666492462157,12.143333371480306,12.627500295639038,18.67461530978863,17.71666653951009,20.063125014305115,20.010000228881836,17.668333371480305,15.218571526663643,19.242727279663086,17.15999984741211,16.573999849955243,8.82559706268549,8.943811687275769,11.152691328190647,10.35431412136504,12.61973234588734,13.779376100973549,12.372099664225761,10.651061552504776,14.470233909664358,11.863333384195963,10.844719848999977,8.82559706268549,8.943811687275769,11.152691328190647,10.35431412136504,12.61973234588734,13.779376100973549,12.372099664225761,10.651061552504776,14.470233909664358,11.863333384195963,10.844719848999977,0,0,289.9699745329568,445.28468635343233,647.2004038876296,660.9797799886031,735.2123779739576,809.7698088414909,968.9423818477989,1004.5323820003866,1004.5323820003866,0,0,0.9867692342171303,0.9873333358764649,1,1,1,0.9811428546905517,1,1,0.06666666666666667,1,1,1,1,1,1,1,1,1,1,1,0.8446999994913738,0.6997500061988831,0.9867692342171303,0.9873333358764649,1,1,1,0.9811428546905517,1,1,0.9344999980926514,1,1,1,1,1,1,0.9999999999999999,0.9999999999999999,1,1,1,2018-05-05T12:00:00Z,2018-05-20T12:00:00Z,2018-05-24T12:00:00Z,2018-06-19T12:00:00Z,2018-07-04T12:00:00Z,2018-07-20T12:00:00Z,2018-07-21T12:00:00Z,2018-07-27T12:00:00Z,2018-08-03T12:00:00Z,2018-08-14T12:00:00Z,2018-08-17T12:00:00Z,2018-05-19T12:00:00Z,2018-05-23T12:00:00Z,2018-06-18T12:00:00Z,2018-07-03T12:00:00Z,2018-07-19T12:00:00Z,2018-07-20T12:00:00Z,2018-07-26T12:00:00Z,2018-08-02T12:00:00Z,2018-08-13T12:00:00Z,2018-08-16T12:00:00Z,2018-08-31T12:00:00Z,125,140,144,170,185,201,202,208,215,226,229,14,3,25,14,15,0,5,6,10,2,14,139,143,169,184,200,201,207,214,225,228,243
79,phillips_ne,40.8473,-98.177,1.5,2018,3,2018,mid1,1166.5188307536578,11,2018-05-05,2018-05-19,101,2018-08-28,2018-09-01,2018-09-15,Harvested at Maturity.,3.0799999881535767,0.32999999448657036,3.5451612779570203,6.293333506522079,2.9074999772943557,0,4.631666622124612,0.15166666855414707,5.396923071203323,0.032500000670552254,5.3733334785948195,3.0799999881535767,0.32999999448657036,3.5451612779570203,6.293333506522079,2.9074999772943557,0,4.631666622124612,0.15166666855414707,5.396923071203323,0.032500000670552254,5.3733334785948195,19.82599989573161,20.607500195503235,25.182257959919593,26.60055531395806,22.925500059127806,27.329999923706055,22.838333288828533,23.323333422342937,16.913846272688644,17.444999933242798,15.39066670735677,25.50533332824707,24.862499713897705,30.936451881162583,30.62999990251329,29.258500003814696,31.260000228881836,31.404999415079754,31.328333536783855,26.98076923076923,27.78499937057495,26.33199996948242,18.82433334986369,18.74500000476837,24.606774314757317,24.84611103269789,23.70625,23.085000038146973,25.498332977294922,24.9366668065389,21.96730760427622,21.2249995470047,21.459333260854084,12.143333371480306,12.627500295639038,18.27709674835205,19.062222162882488,18.153999996185302,14.90999984741211,19.59166653951009,18.545000076293945,16.953845977783203,14.664999723434448,16.58666655222575,8.82559706268549,8.943811687275769,9.770444237699374,10.381797978587732,11.083248021751036,11.731711294534414,13.82583803277011,14.092601605006868,11.828688718784313,11.079023216579856,10.351696662743885,8.82559706268549,8.943811687275769,9.770444237699374,10.381797978587732,11.083248021751036,11.731711294534414,13.82583803277011,14.092601605006868,11.828688718784313,11.079023216579856,10.351696662743885,0,0,302.8837713686806,489.7561349832597,711.4210954182803,723.1528067128147,806.1078349094354,890.6634445394766,1044.4363978836727,1088.7524907499924,1088.7524907499924,0,0,0.9827741976707213,1,0.9933999991416931,1,1,1,0.9515000049884503,0.9119999766349793,0.06666666666666667,1,1,1,1,1,1,1,1,1,1,1,0.8446999994913738,0.6997500061988831,0.9827741976707213,1,0.9933999991416931,1,1,1,0.9515000049884503,0.9119999766349793,0.9387666670481364,1,1,1,0.9999999999999999,1,1,0.9999999999999999,0.9999999999999999,1,1,1,2018-05-05T12:00:00Z,2018-05-20T12:00:00Z,2018-05-24T12:00:00Z,2018-06-24T12:00:00Z,2018-07-12T12:00:00Z,2018-08-01T12:00:00Z,2018-08-02T12:00:00Z,2018-08-08T12:00:00Z,2018-08-14T12:00:00Z,2018-08-27T12:00:00Z,2018-08-31T12:00:00Z,2018-05-19T12:00:00Z,2018-05-23T12:00:00Z,2018-06-23T12:00:00Z,2018-07-11T12:00:00Z,2018-07-31T12:00:00Z,2018-08-01T12:00:00Z,2018-08-07T12:00:00Z,2018-08-13T12:00:00Z,2018-08-26T12:00:00Z,2018-08-30T12:00:00Z,2018-09-14T12:00:00Z,125,140,144,175,193,213,214,220,226,239,243,14,3,30,17,19,0,5,5,12,3,14,139,143,174,192,212,213,219,225,238,242,257
80,phillips_ne,40.8473,-98.177,2.5,2018,3,2018,mid2,1311.8342312273326,11,2018-05-05,2018-05-19,112,2018-09-08,2018-09-13,2018-09-27,Harvested at Maturity.,3.0799999881535767,0.32999999448657036,4.537142884678074,4.342000053077936,2.895909090526402,NA,2.9257142458643233,6.020000034244731,5.813571582681367,0.30799999237060544,1.4559999783833821,3.0799999881535767,0.32999999448657036,4.537142884678074,4.342000053077936,2.895909090526402,NA,2.9257142458643233,6.020000034244731,5.813571582681367,0.30799999237060544,1.4559999783833821,19.82599989573161,20.607500195503235,24.998571259634836,26.353499984741212,22.94318181818182,NA,21.401428631373815,15.462500035762787,15.632857186453684,16.532000160217287,19.27000001271566,25.50533332824707,24.862499713897705,30.59685734340123,31.574000072479247,29.24909071488814,NA,29.890000207083567,25.446250200271606,27.717142513820104,24.911999893188476,27.417333602905273,18.82433334986369,18.74500000476837,24.400571482522146,25.674000024795532,23.540681752291594,NA,23.84214292253767,20.671250104904175,22.84428538594927,18.808999919891356,21.027000125249227,12.143333371480306,12.627500295639038,18.204285621643066,19.773999977111817,17.832272789695047,NA,17.79428563799177,15.896250009536743,17.97142825807844,12.705999946594238,14.63666664759318,8.82559706268549,8.943811687275769,8.384786613663083,9.568110083812158,10.734675799261103,NA,12.489400110643507,10.76800652527482,12.604171809167948,9.253912464227676,10.061506003630758,8.82559706268549,8.943811687275769,8.384786613663083,9.568110083812158,10.734675799261103,NA,12.489400110643507,10.76800652527482,12.604171809167948,9.253912464227676,10.061506003630758,0,0,293.46753147820795,484.8297331544511,720.9926007381955,NA,808.4184015126999,894.5624537148984,1071.0208590432496,1117.2904213643878,1117.2904213643878,0,0,0.9847428607940674,1,0.993999999219721,NA,1,0.9211875081062317,0.9608928510120938,0.8553999996185303,0.06666666666666667,1,1,1,1,1,NA,1,1,1,1,1,0.8446999994913738,0.6997500061988831,0.9847428607940674,1,0.993999999219721,NA,1,0.9211875081062317,0.9608928510120938,0.8553999996185303,0.8121666765213013,1,1,1,1,1,NA,0.9999999999999999,0.9999999999999999,1,1,1,2018-05-05T12:00:00Z,2018-05-20T12:00:00Z,2018-05-24T12:00:00Z,2018-06-28T12:00:00Z,2018-07-18T12:00:00Z,NA,2018-08-09T12:00:00Z,2018-08-16T12:00:00Z,2018-08-24T12:00:00Z,2018-09-07T12:00:00Z,2018-09-12T12:00:00Z,2018-05-19T12:00:00Z,2018-05-23T12:00:00Z,2018-06-27T12:00:00Z,2018-07-17T12:00:00Z,2018-08-08T12:00:00Z,NA,2018-08-15T12:00:00Z,2018-08-23T12:00:00Z,2018-09-06T12:00:00Z,2018-09-11T12:00:00Z,2018-09-26T12:00:00Z,125,140,144,179,199,NA,221,228,236,250,255,14,3,34,19,21,0,6,7,13,4,14,139,143,178,198,220,NA,227,235,249,254,269
81,phillips_ne,40.8473,-98.177,-1.5,2019,3,2019,mid000,203.51670497930184,11,2019-04-23,2019-05-07,76,2019-07-22,2019-07-26,2019-08-09,Harvested at Maturity.,2.471333332359791,2.5750000451225787,NA,7.485909141684798,5.694285624793598,0,0.2459999918937683,6.135000139474869,3.611818152056499,4.660000152420253,2.4513332825154066,2.471333332359791,2.5750000451225787,NA,7.485909141684798,5.694285624793598,0,0.2459999918937683,6.135000139474869,3.611818152056499,4.660000152420253,2.4513332825154066,19.592666816711425,22.551250219345093,NA,21.691363768144086,24.033809502919514,29.15999984741211,26.76400032043457,20.880000114440918,28.022726925936613,24.929999828338623,21.239333407084146,18.092666753133138,19.452500224113464,NA,23.394545511765912,25.83999997093564,31.739999771118164,30.584000396728516,28.298332850138348,31.188181963833895,24.827500343322754,28.647333272298177,11.548333391547203,12.903750136494637,NA,17.563863667574797,20.112618945893786,25.675000190734863,26.078000259399413,24.133333047231037,25.709091013128106,20.100000143051147,23.590333239237467,5.004000029961268,6.355000048875809,NA,11.733181823383678,14.385237920851935,19.610000610351563,21.572000122070314,19.96833324432373,20.23000006242232,15.372499942779541,18.533333206176756,3.1385492635294296,4.413821467874758,NA,7.608185787245433,9.51545946619689,14.059394803787963,14.809394412454536,13.53397441941326,14.40061210624671,10.107818787992,12.671090095716318,3.1385492635294296,4.413821467874758,NA,7.608185787245433,9.51545946619689,14.059394803787963,14.809394412454536,13.53397441941326,14.40061210624671,10.107818787992,12.671090095716318,0,0,NA,167.38008731939948,367.2047361095341,381.2641309133221,455.3111029755947,536.5149494920742,694.921682660788,735.3529578127559,735.3529578127559,0,0,NA,0.6850227312608199,0.8827380929674421,1,1,1,1,0.9917500138282775,0.06666666666666667,1,1,NA,1,1,1,1,1,1,1,1,0.22983333746592205,0.3551875025033951,NA,0.6850227312608199,0.8827380929674421,1,1,1,1,0.9917500138282775,1,1,1,NA,1,0.9999999999999999,1,0.9999999999999999,1,1,1,1,2019-04-23T12:00:00Z,2019-05-08T12:00:00Z,NA,2019-05-16T12:00:00Z,2019-06-07T12:00:00Z,2019-06-28T12:00:00Z,2019-06-29T12:00:00Z,2019-07-04T12:00:00Z,2019-07-10T12:00:00Z,2019-07-21T12:00:00Z,2019-07-25T12:00:00Z,2019-05-07T12:00:00Z,2019-05-15T12:00:00Z,NA,2019-06-06T12:00:00Z,2019-06-27T12:00:00Z,2019-06-28T12:00:00Z,2019-07-03T12:00:00Z,2019-07-09T12:00:00Z,2019-07-20T12:00:00Z,2019-07-24T12:00:00Z,2019-08-08T12:00:00Z,113,128,NA,136,158,179,180,185,191,202,206,14,7,0,21,20,0,4,5,10,3,14,127,135,NA,157,178,179,184,190,201,205,220
82,phillips_ne,40.8473,-98.177,-0.5,2019,3,2019,mid00,802.6601952869205,11,2019-04-23,2019-05-07,101,2019-08-16,2019-08-20,2019-09-03,Harvested at Maturity.,2.471333332359791,2.5750000451225787,6.544871788424177,3.8416666525105634,4.046000008533398,18.610000610351563,0.1242857099111591,2.838333266787231,5.364545453509146,4.847500152885914,4.81866662564377,2.471333332359791,2.5750000451225787,6.544871788424177,3.8416666525105634,4.046000008533398,18.610000610351563,0.1242857099111591,2.838333266787231,5.364545453509146,4.847500152885914,4.81866662564377,19.592666816711425,22.551250219345093,22.23871799615713,26.015833536783855,26.595333099365234,13.40999984741211,25.114285605294363,20.358333428700764,21.8009090423584,21.509999752044678,15.92466672261556,18.092666753133138,19.452500224113464,24.19179488451053,29.61750014623006,30.39666659037272,22.899999618530273,27.838571548461914,27.586666425069172,28.21363639831543,26.52500009536743,25.91066665649414,11.548333391547203,12.903750136494637,18.406282033675755,24.68916670481364,25.221333312988282,20.324999809265137,22.465714318411692,22.829999923706055,23.568636243993588,21.90625023841858,20.95733331044515,5.004000029961268,6.355000048875809,12.620769182840982,19.760833263397217,20.046000035603843,17.75,17.092857088361466,18.073333422342937,18.923636089671742,17.287500381469727,16.003999964396158,3.1385492635294296,4.413821467874758,7.791882102941184,12.939239571949678,13.473360175163466,9.943724806152794,12.200513645548313,12.829999923706055,13.564988989828391,11.906250238418579,10.039778878285091,3.1385492635294296,4.413821467874758,7.791882102941184,12.939239571949678,13.473360175163466,9.943724806152794,12.200513645548313,12.829999923706055,13.564988989828391,11.906250238418579,10.039778878285091,0,0,303.88340201470623,459.1542768781025,661.2546795055543,671.1984043117071,756.6019998305454,833.5819993727818,982.796878260894,1030.4218792145684,1030.4218792145684,0,0,0.7612692319429838,0.9932083328564961,1,1,0.9952857221875872,1,0.9944090886549516,1,0.06666666666666667,1,1,1,1,1,1,1,1,1,1,1,0.22983333746592205,0.3551875025033951,0.7612692319429838,0.9932083328564961,1,1,0.9952857221875872,1,0.9944090886549516,1,0.9501333363850912,1,1,1,1,0.9999999999999999,1,0.9999999999999999,0.9999999999999999,0.9999999999999999,0.9999999999999999,1,2019-04-23T12:00:00Z,2019-05-08T12:00:00Z,2019-05-16T12:00:00Z,2019-06-24T12:00:00Z,2019-07-06T12:00:00Z,2019-07-21T12:00:00Z,2019-07-22T12:00:00Z,2019-07-29T12:00:00Z,2019-08-04T12:00:00Z,2019-08-15T12:00:00Z,2019-08-19T12:00:00Z,2019-05-07T12:00:00Z,2019-05-15T12:00:00Z,2019-06-23T12:00:00Z,2019-07-05T12:00:00Z,2019-07-20T12:00:00Z,2019-07-21T12:00:00Z,2019-07-28T12:00:00Z,2019-08-03T12:00:00Z,2019-08-14T12:00:00Z,2019-08-18T12:00:00Z,2019-09-02T12:00:00Z,113,128,136,175,187,202,203,210,216,227,231,14,7,38,11,14,0,6,5,10,3,14,127,135,174,186,201,202,209,215,226,230,245
83,phillips_ne,40.8473,-98.177,0.5,2019,3,2019,mid0,773.0565544730034,11,2019-04-23,2019-05-07,104,2019-08-19,2019-08-22,2019-09-05,Harvested at Maturity.,2.471333332359791,2.5750000451225787,6.387249993579462,3.542307679469769,4.655294161180363,NA,0.15833332855254412,2.8233332665016255,6.531666716715942,0.13333333532015482,4.791999958579739,2.471333332359791,2.5750000451225787,6.387249993579462,3.542307679469769,4.655294161180363,NA,0.15833332855254412,2.8233332665016255,6.531666716715942,0.13333333532015482,4.791999958579739,19.592666816711425,22.551250219345093,22.461750042438506,25.090769400963417,26.676470363841336,NA,23.708333333333336,18.166666825612385,22.049166520436604,21.769999821980793,15.972666803995768,18.092666753133138,19.452500224113464,24.251750016212462,29.50230774512658,29.44411771437701,NA,29.206666310628258,28.130000114440918,27.66250006357829,28.516666412353516,25.41200002034505,11.548333391547203,12.903750136494637,18.42574998140335,24.860769235170803,24.271470630870144,NA,23.705833276112873,23.47249984741211,23.137500007947285,23.221666495005287,20.419333330790202,5.004000029961268,6.355000048875809,12.599749946594239,20.21923072521503,19.09882354736328,NA,18.205000241597492,18.8149995803833,18.612499952316284,17.926666577657063,15.426666641235352,3.1385492635294296,4.413821467874758,7.259963321435222,12.186601171916458,12.013174550684239,NA,12.89779875898622,13.277988546228567,13.13750219084372,13.01750739645163,9.725944083463352,3.1385492635294296,4.413821467874758,7.259963321435222,12.186601171916458,12.013174550684239,NA,12.89779875898622,13.277988546228567,13.13750219084372,13.01750739645163,9.725944083463352,0,0,290.39853285740884,448.8243480923229,653.0483154539551,NA,730.4351080078723,810.1030392852437,967.7530655753684,1006.8055877647232,1006.8055877647232,0,0,0.7652000010013581,1,0.9980588267831242,NA,1,1,0.9948749979337057,1,0.0665999984741211,1,1,1,1,1,NA,1,1,1,1,1,0.22983333746592205,0.3551875025033951,0.7652000010013581,1,0.9980588267831242,NA,1,1,0.9948749979337057,1,0.9448333358764649,1,1,1,0.9999999999999999,0.9999999999999999,NA,1,0.9999999999999999,0.9999999999999998,0.9999999999999998,1,2019-04-23T12:00:00Z,2019-05-08T12:00:00Z,2019-05-16T12:00:00Z,2019-06-25T12:00:00Z,2019-07-08T12:00:00Z,NA,2019-07-25T12:00:00Z,2019-07-31T12:00:00Z,2019-08-06T12:00:00Z,2019-08-18T12:00:00Z,2019-08-21T12:00:00Z,2019-05-07T12:00:00Z,2019-05-15T12:00:00Z,2019-06-24T12:00:00Z,2019-07-07T12:00:00Z,2019-07-24T12:00:00Z,NA,2019-07-30T12:00:00Z,2019-08-05T12:00:00Z,2019-08-17T12:00:00Z,2019-08-20T12:00:00Z,2019-09-04T12:00:00Z,113,128,136,176,189,NA,206,212,218,230,233,14,7,39,12,16,0,5,5,11,2,14,127,135,175,188,205,NA,211,217,229,232,247
84,phillips_ne,40.8473,-98.177,1.5,2019,3,2019,mid1,1060.0107702748985,11,2019-04-23,2019-05-07,119,2019-09-03,2019-09-06,2019-09-20,Harvested at Maturity.,2.471333332359791,2.5750000451225787,6.460681800857525,2.568750043399632,3.6589999977499246,NA,4.395714221788304,7.885000175796449,4.536874961107969,0.0033333332588275266,0.9339999963839849,2.471333332359791,2.5750000451225787,6.460681800857525,2.568750043399632,3.6589999977499246,NA,4.395714221788304,7.885000175796449,4.536874961107969,0.0033333332588275266,0.9339999963839849,19.592666816711425,22.551250219345093,22.979090961542997,25.142500042915344,23.821499872207642,NA,21.761428560529435,21.1349999109904,16.409374952316284,22.470000584920246,18.066666666666666,18.092666753133138,19.452500224113464,24.75136364590038,29.303749918937683,29.010500049591066,NA,28.978571483067103,26.616666793823242,25.706249952316284,28.290000279744465,28.31266670227051,11.548333391547203,12.903750136494637,18.96465906229886,24.610937535762787,23.93899998664856,NA,23.97214276450021,22.360000054041546,20.8728124499321,22.193333466847736,22.89699993133545,5.004000029961268,6.355000048875809,13.177954478697343,19.91812515258789,18.867499923706056,NA,18.965714045933314,18.103333314259846,16.039374947547913,16.09666665395101,17.48133316040039,3.1385492635294296,4.413821467874758,6.917824903693209,11.090134062022452,11.499053102370002,NA,13.49099616560902,12.360004419834414,10.895690600445494,12.145798885019621,11.866086427482765,3.1385492635294296,4.413821467874758,6.917824903693209,11.090134062022452,11.499053102370002,NA,13.49099616560902,12.360004419834414,10.895690600445494,12.145798885019621,11.866086427482765,0,0,304.38429576250115,481.8264407548603,711.80750280226,NA,806.2444759615232,880.4045024805297,1054.7355520876577,1091.1729487427165,1091.1729487427165,0,0,0.78654545545578,1,0.9983500027656556,NA,1,0.9897499958674113,0.953250002861023,0.9734999974568685,0.06666666666666667,1,1,1,1,1,NA,1,1,1,1,1,0.22983333746592205,0.3551875025033951,0.78654545545578,1,0.9983500027656556,NA,1,0.9897499958674113,0.953250002861023,0.9734999974568685,0.9885999997456869,1,1,1,0.9999999999999999,1,NA,1,1,1,0.9999999999999999,1,2019-04-23T12:00:00Z,2019-05-08T12:00:00Z,2019-05-16T12:00:00Z,2019-06-29T12:00:00Z,2019-07-15T12:00:00Z,NA,2019-08-04T12:00:00Z,2019-08-11T12:00:00Z,2019-08-17T12:00:00Z,2019-09-02T12:00:00Z,2019-09-05T12:00:00Z,2019-05-07T12:00:00Z,2019-05-15T12:00:00Z,2019-06-28T12:00:00Z,2019-07-14T12:00:00Z,2019-08-03T12:00:00Z,NA,2019-08-10T12:00:00Z,2019-08-16T12:00:00Z,2019-09-01T12:00:00Z,2019-09-04T12:00:00Z,2019-09-19T12:00:00Z,113,128,136,180,196,NA,216,223,229,245,248,14,7,43,15,19,0,6,5,15,2,14,127,135,179,195,215,NA,222,228,244,247,262
85,phillips_ne,40.8473,-98.177,2.5,2019,3,2019,mid2,1329.8247421058577,11,2019-04-23,2019-05-07,128,2019-09-12,2019-09-17,2019-10-01,Harvested at Maturity.,2.471333332359791,2.5750000451225787,6.052978707160404,4.80800005402416,2.4334999561309814,13.020000457763672,4.944285798551781,7.776249933987856,1.3219999981423218,0.6039999853819609,2.4773333091288805,2.471333332359791,2.5750000451225787,6.052978707160404,4.80800005402416,2.4334999561309814,13.020000457763672,4.944285798551781,7.776249933987856,1.3219999981423218,0.6039999853819609,2.4773333091288805,19.592666816711425,22.551250219345093,23.35510644506901,24.70749988555908,22.51399998664856,20.8700008392334,21.807142530168807,14.451249957084656,17.400666745503745,20.822000122070314,17.076666831970215,18.092666753133138,19.452500224113464,25.181276625775276,29.710999965667725,28.16199998855591,27.459999084472656,26.591428756713867,26.09499979019165,26.574666849772136,28.439999771118163,26.860666783650718,11.548333391547203,12.903750136494637,19.45712765226973,24.913749980926514,23.102249956130983,24.649999618530273,22.060714381081716,21.588124811649323,21.138666725158693,22.10599994659424,21.152000013987223,5.004000029961268,6.355000048875809,13.732978678764182,20.116499996185304,18.042499923706053,21.84000015258789,17.53000000544957,17.081249833106995,15.702666600545248,15.772000122070313,15.44333324432373,3.1385492635294296,4.413821467874758,6.25497287202217,9.897294891702767,10.966686584460328,13.686528077796169,11.74933953321951,11.511565149691702,11.124680173811516,12.159858017514946,10.106897658561865,3.1385492635294296,4.413821467874758,6.25497287202217,9.897294891702767,10.966686584460328,13.686528077796169,11.74933953321951,11.511565149691702,11.124680173811516,12.159858017514946,10.106897658561865,0,0,293.983724985042,491.92962281909735,711.2633545083039,724.9498825861001,807.1952593186368,899.2877805161704,1066.157983123343,1126.9572732109175,1126.9572732109175,0,0,0.8001702136181771,1,0.9983500027656556,1,0.9912142821720669,0.9965624928474427,0.9458666737874349,0.9681999969482422,0.06666666666666667,1,1,1,1,1,1,1,1,1,1,1,0.22983333746592205,0.3551875025033951,0.8001702136181771,1,0.9983500027656556,1,0.9912142821720669,0.9965624928474427,0.9458666737874349,0.9681999969482422,0.8919333362579346,1,1,1,0.9999999999999999,0.9999999999999999,1,1,0.9999999999999999,0.9999999999999999,0.9999999999999999,1,2019-04-23T12:00:00Z,2019-05-08T12:00:00Z,2019-05-16T12:00:00Z,2019-07-02T12:00:00Z,2019-07-22T12:00:00Z,2019-08-11T12:00:00Z,2019-08-12T12:00:00Z,2019-08-19T12:00:00Z,2019-08-27T12:00:00Z,2019-09-11T12:00:00Z,2019-09-16T12:00:00Z,2019-05-07T12:00:00Z,2019-05-15T12:00:00Z,2019-07-01T12:00:00Z,2019-07-21T12:00:00Z,2019-08-10T12:00:00Z,2019-08-11T12:00:00Z,2019-08-18T12:00:00Z,2019-08-26T12:00:00Z,2019-09-10T12:00:00Z,2019-09-15T12:00:00Z,2019-09-30T12:00:00Z,113,128,136,183,203,223,224,231,239,254,259,14,7,46,19,19,0,6,7,14,4,14,127,135,182,202,222,223,230,238,253,258,273
86,phillips_ne,40.8473,-98.177,-1.5,2020,3,2020,mid000,217.0214881303001,11,2020-05-08,2020-05-22,62,2020-07-23,2020-07-25,2020-08-08,Harvested at Maturity.,4.676666738962134,6.745999965816736,NA,2.06266664887468,1.7387500162003562,3.759999990463257,3.562000073865056,5.30333325235794,3.7608334720134735,0.20999999716877937,2.3819999996572734,4.676666738962134,6.745999965816736,NA,2.06266664887468,1.7387500162003562,3.759999990463257,3.562000073865056,5.30333325235794,3.7608334720134735,0.20999999716877937,2.3819999996572734,18.31000000635783,19.60399971008301,NA,25.790666548411053,25.563750207424164,27.170000076293945,27.257999801635744,27.914999961853027,25.15999984741211,22.350000381469727,22.773999977111817,18.959999910990398,20.953999519348145,NA,28.983999888102215,30.038125038146973,31.440000534057617,28.99200019836426,30.64833418528239,30.12250010172526,29.420000076293945,28.456666819254558,13.10599992275238,16.654999828338624,NA,22.49166660308838,23.859375029802322,26.15999984741211,25.101000022888183,25.6841672261556,24.40125000476837,24.019999980926514,23.178000100453694,7.251999934514363,12.3560001373291,NA,15.999333318074545,17.680625021457672,20.8799991607666,21.20999984741211,20.72000026702881,18.67999990781148,18.619999885559082,17.899333381652834,4.347866441521049,6.654999828338624,NA,11.26361459785602,12.520704150725669,14.681477287927986,14.322534171560216,14.667533645185362,13.30183152618131,13.750821222078798,12.007663120064736,4.347866441521049,6.654999828338624,NA,11.26361459785602,12.520704150725669,14.681477287927986,14.322534171560216,14.667533645185362,13.30183152618131,13.750821222078798,12.007663120064736,0,0,NA,168.95421896784026,369.28548537945096,383.96696266737894,455.57963352518,543.5848353962922,703.2068137104679,730.7084561546255,730.7084561546255,0,0,NA,0.9211999956766764,1,1,1,1,0.9993750015894572,1,0.06666666666666667,1,1,NA,1,1,1,1,1,1,1,1,0.3920666599273682,0.6654999828338624,NA,0.9211999956766764,1,1,1,1,0.9993750015894572,1,0.9889333311716716,1,1,NA,1,1,1,0.9999999999999999,1,1,1,1,2020-05-08T12:00:00Z,2020-05-23T12:00:00Z,NA,2020-05-28T12:00:00Z,2020-06-12T12:00:00Z,2020-06-28T12:00:00Z,2020-06-29T12:00:00Z,2020-07-04T12:00:00Z,2020-07-10T12:00:00Z,2020-07-22T12:00:00Z,2020-07-24T12:00:00Z,2020-05-22T12:00:00Z,2020-05-27T12:00:00Z,NA,2020-06-11T12:00:00Z,2020-06-27T12:00:00Z,2020-06-28T12:00:00Z,2020-07-03T12:00:00Z,2020-07-09T12:00:00Z,2020-07-21T12:00:00Z,2020-07-23T12:00:00Z,2020-08-07T12:00:00Z,129,144,NA,149,164,180,181,186,192,204,206,14,4,0,14,15,0,4,5,11,1,14,143,148,NA,163,179,180,185,191,203,205,220
87,phillips_ne,40.8473,-98.177,-0.5,2020,3,2020,mid00,749.4491277433464,11,2020-05-08,2020-05-22,86,2020-08-16,2020-08-19,2020-09-02,Harvested at Maturity.,4.676666738962134,6.745999965816736,1.8681481516471614,2.49166668811813,4.808750073658302,NA,2.9550000491241613,2.6983332776774964,0.8916666560495893,4.033333271741867,0.33800000535945096,4.676666738962134,6.745999965816736,1.8681481516471614,2.49166668811813,4.808750073658302,NA,2.9550000491241613,2.6983332776774964,0.8916666560495893,4.033333271741867,0.33800000535945096,18.31000000635783,19.60399971008301,25.387407391159623,27.140833377838135,26.09999990463257,NA,23.22000026702881,22.258333047231037,23.628333409627277,24.883333206176758,22.28199996948242,18.959999910990398,20.953999519348145,29.52518512584545,29.510833581288654,30.363750338554382,NA,30.08666706085205,27.929999987284344,29.81083345413208,30.863333384195965,31.369999821980795,13.10599992275238,16.654999828338624,23.10907400978936,24.699166854222614,24.835937649011612,NA,25.327500343322754,22.36749990781148,23.888333320617676,23.19000005722046,24.63133322397868,7.251999934514363,12.3560001373291,16.692962893733274,19.887500127156574,19.30812495946884,NA,20.568333625793457,16.804999828338623,17.96583318710327,15.516666730244955,17.892666625976563,4.347866441521049,6.654999828338624,11.161914854962054,13.08521629747165,13.109147586350275,NA,14.766984963640287,12.367499907811482,13.454639238486191,12.904395907980204,12.156388324015936,4.347866441521049,6.654999828338624,11.161914854962054,13.08521629747165,13.109147586350275,NA,14.766984963640287,12.367499907811482,13.454639238486191,12.904395907980204,12.156388324015936,0,0,301.3717010839755,458.3942966536353,668.1406580352399,NA,756.7425678170817,830.9475672639506,992.4032381257848,1031.1164258497256,1031.1164258497256,0,0,0.9562222198203758,1,0.9995312511920929,NA,1,1,0.9861666639645894,1,0.06666666666666667,1,1,1,1,1,NA,1,1,1,1,1,0.3920666599273682,0.6654999828338624,0.9562222198203758,1,0.9995312511920929,NA,1,1,0.9861666639645894,1,0.9906666660308838,1,1,1,1,1,NA,0.9999999999999999,1,0.9999999999999999,1,1,2020-05-08T12:00:00Z,2020-05-23T12:00:00Z,2020-05-28T12:00:00Z,2020-06-24T12:00:00Z,2020-07-06T12:00:00Z,NA,2020-07-22T12:00:00Z,2020-07-28T12:00:00Z,2020-08-03T12:00:00Z,2020-08-15T12:00:00Z,2020-08-18T12:00:00Z,2020-05-22T12:00:00Z,2020-05-27T12:00:00Z,2020-06-23T12:00:00Z,2020-07-05T12:00:00Z,2020-07-21T12:00:00Z,NA,2020-07-27T12:00:00Z,2020-08-02T12:00:00Z,2020-08-14T12:00:00Z,2020-08-17T12:00:00Z,2020-09-01T12:00:00Z,129,144,149,176,188,NA,204,210,216,228,231,14,4,26,11,15,0,5,5,11,2,14,143,148,175,187,203,NA,209,215,227,230,245
88,phillips_ne,40.8473,-98.177,0.5,2020,3,2020,mid0,815.1448236737866,11,2020-05-08,2020-05-22,88,2020-08-18,2020-08-21,2020-09-04,Harvested at Maturity.,4.676666738962134,6.745999965816736,1.8017857176517802,2.39538463892845,4.7568750702776015,0.2800000011920929,5.631999998539687,0.9371428532259805,1.9363636079836974,0.04333333174387614,0.32933333901067574,4.676666738962134,6.745999965816736,1.8017857176517802,2.39538463892845,4.7568750702776015,0.2800000011920929,5.631999998539687,0.9371428532259805,1.9363636079836974,0.04333333174387614,0.32933333901067574,18.31000000635783,19.60399971008301,25.559285725866047,27.130000041081356,25.31874990463257,24.850000381469727,23.663999938964842,21.921428544180735,23.970909118652344,22.296666463216145,22.817333221435547,18.959999910990398,20.953999519348145,29.5003570829119,29.871538895827072,30.10187518596649,29.68000030517578,30.22000045776367,26.548571177891322,31.113636710427024,27.53000005086263,31.75066630045573,13.10599992275238,16.654999828338624,23.038214223725454,25.201923370361328,24.56593754887581,26.02500057220459,25.244000244140626,20.841428416115896,24.8245455568487,21.803333441416424,24.774999809265136,7.251999934514363,12.3560001373291,16.57607136453901,20.532307844895584,19.029999911785126,22.3700008392334,20.26800003051758,15.134285654340472,18.535454403270375,16.076666831970215,17.799333318074545,4.347866441521049,6.654999828338624,10.300883694089588,12.520670150116125,12.22984815853309,14.93421742132227,14.193938209536443,10.753088750336842,14.24946255053336,11.771151613501708,12.077345936333339,4.347866441521049,6.654999828338624,10.300883694089588,12.520670150116125,12.22984815853309,14.93421742132227,14.193938209536443,10.753088750336842,14.24946255053336,11.771151613501708,12.077345936333339,0,0,288.4247434345085,451.1934553860181,646.8710259225475,661.8052433438697,732.7749343915519,808.0465556439098,964.7906436997768,1000.1040985402818,1000.1040985402818,0,0,0.9577857119696481,1,0.9995312511920929,1,1,0.9762857096535819,1,1,0.06666666666666667,1,1,1,1,1,1,1,1,1,1,1,0.3920666599273682,0.6654999828338624,0.9577857119696481,1,0.9995312511920929,1,1,0.9762857096535819,1,1,0.9906666660308838,1,1,1,1,1,1,1,0.9999999999999999,1,0.9999999999999999,1,2020-05-08T12:00:00Z,2020-05-23T12:00:00Z,2020-05-28T12:00:00Z,2020-06-25T12:00:00Z,2020-07-08T12:00:00Z,2020-07-24T12:00:00Z,2020-07-25T12:00:00Z,2020-07-30T12:00:00Z,2020-08-06T12:00:00Z,2020-08-17T12:00:00Z,2020-08-20T12:00:00Z,2020-05-22T12:00:00Z,2020-05-27T12:00:00Z,2020-06-24T12:00:00Z,2020-07-07T12:00:00Z,2020-07-23T12:00:00Z,2020-07-24T12:00:00Z,2020-07-29T12:00:00Z,2020-08-05T12:00:00Z,2020-08-16T12:00:00Z,2020-08-19T12:00:00Z,2020-09-03T12:00:00Z,129,144,149,177,190,206,207,212,219,230,233,14,4,27,12,15,0,4,6,10,2,14,143,148,176,189,205,206,211,218,229,232,247
89,phillips_ne,40.8473,-98.177,1.5,2020,3,2020,mid1,1212.840790121763,11,2020-05-08,2020-05-22,100,2020-08-30,2020-09-03,2020-09-17,Harvested at Maturity.,4.676666738962134,6.745999965816736,1.9537499994621612,3.125882348155274,4.1966667549891605,0.4850000143051148,0.5499999929840366,3.0883332835510373,0.012499999565382797,1.2300000214017928,2.588666605452697,4.676666738962134,6.745999965816736,1.9537499994621612,3.125882348155274,4.1966667549891605,0.4850000143051148,0.5499999929840366,3.0883332835510373,0.012499999565382797,1.2300000214017928,2.588666605452697,18.31000000635783,19.60399971008301,25.720312550663948,26.743529263664694,23.55166663063897,20.600000381469727,24.878333409627277,23.609999974568684,22.71916675567627,21.91499948501587,16.870000028610228,18.959999910990398,20.953999519348145,29.5878124833107,29.60941224939683,29.725555631849502,24.739999771118164,30.503333409627277,31.1850004196167,32.42666641871134,28.03499984741211,24.141999689737958,13.10599992275238,16.654999828338624,23.290156230330467,24.67529437121223,24.395277818044026,19.169999837875366,24.69666663805644,24.425833463668823,25.645416537920635,21.21999990940094,17.655999819437664,7.251999934514363,12.3560001373291,16.992499977350235,19.74117649302763,19.065000004238552,13.599999904632568,18.889999866485596,17.666666507720947,18.864166657129925,14.40499997138977,11.16999994913737,4.347866441521049,6.654999828338624,9.459367796820967,11.161366026922389,11.9334626207537,8.66213394945675,13.829901213812958,13.946289961847663,13.48122364353935,11.38758127374649,6.833670881404082,4.347866441521049,6.654999828338624,9.459367796820967,11.161366026922389,11.9334626207537,8.66213394945675,13.829901213812958,13.946289961847663,13.48122364353935,11.38758127374649,6.833670881404082,0,0,302.6997694982709,492.4429919559514,707.2453191295181,724.5695870284317,807.5489943113093,891.2267340823953,1053.0014178048673,1098.5517428998537,1098.5517428998537,0,0,0.9630624979734421,1,0.9995833343929714,0.9169999837875367,1,1,1,0.9649999976158142,0.06666666666666667,1,1,1,1,1,1,1,1,1,1,1,0.3920666599273682,0.6654999828338624,0.9630624979734421,1,0.9995833343929714,0.9169999837875367,1,1,1,0.9649999976158142,0.6818333196640015,1,1,1,1,1,1,1,1,0.9999999999999999,1,1,2020-05-08T12:00:00Z,2020-05-23T12:00:00Z,2020-05-28T12:00:00Z,2020-06-29T12:00:00Z,2020-07-16T12:00:00Z,2020-08-03T12:00:00Z,2020-08-05T12:00:00Z,2020-08-11T12:00:00Z,2020-08-17T12:00:00Z,2020-08-29T12:00:00Z,2020-09-02T12:00:00Z,2020-05-22T12:00:00Z,2020-05-27T12:00:00Z,2020-06-28T12:00:00Z,2020-07-15T12:00:00Z,2020-08-02T12:00:00Z,2020-08-04T12:00:00Z,2020-08-10T12:00:00Z,2020-08-16T12:00:00Z,2020-08-28T12:00:00Z,2020-09-01T12:00:00Z,2020-09-16T12:00:00Z,129,144,149,181,198,216,218,224,230,242,246,14,4,31,16,17,1,5,5,11,3,14,143,148,180,197,215,217,223,229,241,245,260
90,phillips_ne,40.8473,-98.177,2.5,2020,3,2020,mid2,1329.2273806076698,11,2020-05-08,2020-05-22,111,2020-09-10,2020-09-17,2020-10-01,Harvested at Maturity.,4.676666738962134,6.745999965816736,2.2208333432467446,4.070000061765313,1.8209523784794979,NA,2.658571385113256,0,1.7466666240245106,2.50999997236899,0.020000000049670535,4.676666738962134,6.745999965816736,2.2208333432467446,4.070000061765313,1.8209523784794979,NA,2.658571385113256,0,1.7466666240245106,2.50999997236899,0.020000000049670535,18.31000000635783,19.60399971008301,25.910833372010124,26.103157746164424,23.310476257687522,NA,22.70428548540388,23.145000457763672,20.686666504542032,15.064285687037877,15.86199982961019,18.959999910990398,20.953999519348145,29.56166670057509,30.15315818786621,29.087142944335938,NA,30.33571461268834,32.34499994913737,29.661999702453613,20.69428539276123,25.38599993387858,13.10599992275238,16.654999828338624,23.511666655540466,24.804737015774375,23.620000044504803,NA,23.90571437563215,25.46999986966451,22.587999884287516,14.819999762943814,18.496999979019165,7.251999934514363,12.3560001373291,17.461666610505844,19.45631584368254,18.152857144673664,NA,17.475714138575963,18.59499979019165,15.514000066121419,8.945714133126396,11.608000024159749,4.347866441521049,6.654999828338624,8.313936144212636,9.82918030711245,11.32250367623409,NA,13.227854984036028,13.583753123166165,11.826299323064088,7.531843941830737,7.957922457143466,4.347866441521049,6.654999828338624,8.313936144212636,9.82918030711245,11.32250367623409,NA,13.227854984036028,13.583753123166165,11.826299323064088,7.531843941830737,7.957922457143466,0,0,299.30170119165496,486.0561270267915,723.8287042277072,NA,816.4236891159594,897.9262078549563,1075.3206977009177,1128.0436052937328,1128.0436052937328,0,0,0.9671666648652818,0.9996052641617624,0.9920952365511939,NA,1,1,0.9061333306630452,0.5283571209226336,0.053133331934611006,1,1,1,1,1,NA,1,1,1,1,1,0.3920666599273682,0.6654999828338624,0.9671666648652818,0.9996052641617624,0.9920952365511939,NA,1,1,0.9061333306630452,0.5283571209226336,0.781233328183492,1,1,1,0.9999999999999999,1,NA,1,0.9999999999999999,1,0.9999999999999999,1,2020-05-08T12:00:00Z,2020-05-23T12:00:00Z,2020-05-28T12:00:00Z,2020-07-03T12:00:00Z,2020-07-22T12:00:00Z,NA,2020-08-12T12:00:00Z,2020-08-19T12:00:00Z,2020-08-25T12:00:00Z,2020-09-09T12:00:00Z,2020-09-16T12:00:00Z,2020-05-22T12:00:00Z,2020-05-27T12:00:00Z,2020-07-02T12:00:00Z,2020-07-21T12:00:00Z,2020-08-11T12:00:00Z,NA,2020-08-18T12:00:00Z,2020-08-24T12:00:00Z,2020-09-08T12:00:00Z,2020-09-15T12:00:00Z,2020-09-30T12:00:00Z,129,144,149,185,204,NA,225,232,238,253,260,14,4,35,18,20,0,6,5,14,6,14,143,148,184,203,224,NA,231,237,252,259,274
91,phillips_ne,40.8473,-98.177,-1.5,2021,3,2021,mid000,203.38188814618067,11,2021-03-26,2021-04-09,93,2021-07-11,2021-07-15,2021-07-29,Harvested at Maturity.,2.015333365897338,0.7600000068349274,NA,2.5161538229395566,2.8280000491067767,0,0.7499999829257528,6.23714292182454,1.063333317482223,5.7124999687075615,1.0600000221282244,2.015333365897338,0.7600000068349274,NA,2.5161538229395566,2.8280000491067767,0,0.7499999829257528,6.23714292182454,1.063333317482223,5.7124999687075615,1.0600000221282244,19.089333375295002,20.329473646063555,NA,20.00923072374784,25.850000143051147,28.219999313354492,26.046666463216145,22.888571194240026,24.955833276112873,24.170000076293945,21.93999989827474,17.227333323160806,14.486842180553236,NA,21.911923041710487,26.43199987411499,32.2599983215332,33.221666971842446,28.158571243286133,29.980833371480305,27.885000228881836,31.17466672261556,9.6976666820546,8.061052678054885,NA,15.743461485092457,20.19374997615814,25.019999504089355,26.762500286102295,22.434999874659947,24.334166765213013,21.80750000476837,25.223999977111816,2.168000040948391,1.635263175556534,NA,9.574999928474426,13.955500078201293,17.780000686645508,20.30333360036214,16.711428506033762,18.68750015894572,15.729999780654907,19.273333231608074,2.918946914233398,1.9893030665111875,NA,6.408751114281439,9.714297339426112,13.134710942496715,13.311734435838535,11.347916516720176,13.18886062736759,11.390304680560593,12.839552832716306,2.918946914233398,1.9893030665111875,NA,6.408751114281439,9.714297339426112,13.134710942496715,13.311734435838535,11.347916516720176,13.18886062736759,11.390304680560593,12.839552832716306,0,0,NA,166.62752897131742,360.9134757598397,374.0481867023364,453.9185933173676,533.3540089344087,691.6203364628199,737.1815551850622,737.1815551850622,0,0,NA,0.563519227046233,0.8183499956130982,1,1,1,1,1,0.06666666666666667,1,1,NA,1,1,1,1,1,1,1,1,0.2165000022451083,0.12886842677467747,NA,0.563519227046233,0.8183499956130982,1,1,1,1,1,0.9991333325703938,1,1,NA,1,1,1,1,0.9999999999999999,1,1,1,2021-03-26T12:00:00Z,2021-04-10T12:00:00Z,NA,2021-04-29T12:00:00Z,2021-05-25T12:00:00Z,2021-06-14T12:00:00Z,2021-06-15T12:00:00Z,2021-06-21T12:00:00Z,2021-06-28T12:00:00Z,2021-07-10T12:00:00Z,2021-07-14T12:00:00Z,2021-04-09T12:00:00Z,2021-04-28T12:00:00Z,NA,2021-05-24T12:00:00Z,2021-06-13T12:00:00Z,2021-06-14T12:00:00Z,2021-06-20T12:00:00Z,2021-06-27T12:00:00Z,2021-07-09T12:00:00Z,2021-07-13T12:00:00Z,2021-07-28T12:00:00Z,85,100,NA,119,145,165,166,172,179,191,195,14,18,0,25,19,0,5,6,11,3,14,99,118,NA,144,164,165,171,178,190,194,209
92,phillips_ne,40.8473,-98.177,-0.5,2021,3,2021,mid00,801.821526025996,11,2021-03-26,2021-04-09,118,2021-08-05,2021-08-08,2021-08-22,Harvested at Maturity.,2.015333365897338,0.7600000068349274,2.4792857028632644,2.147692361416725,2.9911764894119077,21.579999923706055,2.1071429039750784,0.07666666619479656,1.4200000175359575,0.7433333297570547,3.1173332797984283,2.015333365897338,0.7600000068349274,2.4792857028632644,2.147692361416725,2.9911764894119077,21.579999923706055,2.1071429039750784,0.07666666619479656,1.4200000175359575,0.7433333297570547,3.1173332797984283,19.089333375295002,20.329473646063555,22.006190481640044,27.29000003521259,23.670588044559253,21.88999938964844,20.555714334760395,24.736666361490887,22.190909038890492,22.47333335876465,21.978000005086262,17.227333323160806,14.486842180553236,23.321190425327845,31.26384603060209,29.464705859913547,26.290000915527344,28.48714283534459,30.35333315531413,32.49181851473722,33.53333282470703,31.559333419799806,9.6976666820546,8.061052678054885,17.185595197337015,24.641923134143536,23.86558827231912,21.11500024795532,22.720714160374232,24.47416671117147,26.17727275328203,26.56666628519694,25.486666615804037,2.168000040948391,1.635263175556534,11.049999969346183,18.020000237684982,18.266470684724695,15.9399995803833,16.95428548540388,18.59500026702881,19.86272699182684,19.599999745686848,19.413999811808267,2.918946914233398,1.9893030665111875,7.213596594891743,11.768842466242361,12.04887398176042,10.22552172260665,11.848727902544404,13.107416553280117,13.71926411314419,14.278959984664123,13.383066761653422,2.918946914233398,1.9893030665111875,7.213596594891743,11.768842466242361,12.04887398176042,10.22552172260665,11.848727902544404,13.107416553280117,13.71926411314419,14.278959984664123,13.383066761653422,0,0,302.9710569854532,455.96600904660386,660.796866736531,671.0223884591377,753.9634837769485,832.6079830966291,983.5198883412152,1026.3567682952075,1026.3567682952075,0,0,0.6432976146539052,1,1,1,1,1,0.9988181807778098,1,0.06666666666666667,1,1,1,1,1,1,1,1,1,1,1,0.2165000022451083,0.12886842677467747,0.6432976146539052,1,1,1,1,1,0.9988181807778098,1,1,1,1,0.9999999999999999,1,1,1,0.9999999999999999,1,1,1,1,2021-03-26T12:00:00Z,2021-04-10T12:00:00Z,2021-04-29T12:00:00Z,2021-06-10T12:00:00Z,2021-06-23T12:00:00Z,2021-07-10T12:00:00Z,2021-07-11T12:00:00Z,2021-07-18T12:00:00Z,2021-07-24T12:00:00Z,2021-08-04T12:00:00Z,2021-08-07T12:00:00Z,2021-04-09T12:00:00Z,2021-04-28T12:00:00Z,2021-06-09T12:00:00Z,2021-06-22T12:00:00Z,2021-07-09T12:00:00Z,2021-07-10T12:00:00Z,2021-07-17T12:00:00Z,2021-07-23T12:00:00Z,2021-08-03T12:00:00Z,2021-08-06T12:00:00Z,2021-08-21T12:00:00Z,85,100,119,161,174,191,192,199,205,216,219,14,18,41,12,16,0,6,5,10,2,14,99,118,160,173,190,191,198,204,215,218,233
93,phillips_ne,40.8473,-98.177,0.5,2021,3,2021,mid0,781.177534221552,11,2021-03-26,2021-04-09,121,2021-08-08,2021-08-10,2021-08-24,Harvested at Maturity.,2.015333365897338,0.7600000068349274,2.4792857028632644,3.5753333824376266,2.6077777891316347,1.0499999523162842,2.323333395645023,0.21166665852069855,1.3816666859202087,12.174999713897705,1.5913333165148895,2.015333365897338,0.7600000068349274,2.4792857028632644,3.5753333824376266,2.6077777891316347,1.0499999523162842,2.323333395645023,0.21166665852069855,1.3816666859202087,12.174999713897705,1.5913333165148895,19.089333375295002,20.329473646063555,22.006190481640044,26.30733331044515,24.413888719346787,19.790000915527344,19.014999866485596,22.071666558583576,23.543333212534588,17.9350004196167,22.496666717529298,17.227333323160806,14.486842180553236,23.321190425327845,31.22533327738444,28.84833335876465,31.219999313354492,28.421666463216145,31.839999834696453,32.72666692733765,33.47500038146973,31.521333440144858,9.6976666820546,8.061052678054885,17.185595197337015,24.662333393096922,23.308611181047226,23.799999237060547,23.231666564941406,25.681666533152264,26.16208334763845,27.59500026702881,25.217666657765704,2.168000040948391,1.635263175556534,11.049999969346183,18.09933350880941,17.768889003329807,16.3799991607666,18.041666666666668,19.523333231608074,19.59749976793925,21.71500015258789,18.913999875386555,2.918946914233398,1.9893030665111875,6.836049325741212,10.926973027391284,10.910324000816257,11.75984012991343,11.729144612943955,13.136868429837053,13.29892435102153,15.127887561488151,13.256447925712267,2.918946914233398,1.9893030665111875,6.836049325741212,10.926973027391284,10.910324000816257,11.75984012991343,11.729144612943955,13.136868429837053,13.29892435102153,15.127887561488151,13.256447925712267,0,0,287.11407168113095,451.0186670920002,647.4044991066927,659.1643392366061,729.5392069142697,808.3604174932921,967.9475097055504,998.2032848285264,998.2032848285264,0,0,0.6432976146539052,1,1,1,1,1,0.9989166657129923,1,0.06666666666666667,1,1,1,1,1,1,1,1,1,1,1,0.2165000022451083,0.12886842677467747,0.6432976146539052,1,1,1,1,1,0.9989166657129923,1,1,1,1,1,1,0.9999999999999999,1,0.9999999999999999,0.9999999999999999,1,1,1,2021-03-26T12:00:00Z,2021-04-10T12:00:00Z,2021-04-29T12:00:00Z,2021-06-10T12:00:00Z,2021-06-25T12:00:00Z,2021-07-13T12:00:00Z,2021-07-14T12:00:00Z,2021-07-20T12:00:00Z,2021-07-26T12:00:00Z,2021-08-07T12:00:00Z,2021-08-09T12:00:00Z,2021-04-09T12:00:00Z,2021-04-28T12:00:00Z,2021-06-09T12:00:00Z,2021-06-24T12:00:00Z,2021-07-12T12:00:00Z,2021-07-13T12:00:00Z,2021-07-19T12:00:00Z,2021-07-25T12:00:00Z,2021-08-06T12:00:00Z,2021-08-08T12:00:00Z,2021-08-23T12:00:00Z,85,100,119,161,176,194,195,201,207,219,221,14,18,41,14,17,0,5,5,11,1,14,99,118,160,175,193,194,200,206,218,220,235
94,phillips_ne,40.8473,-98.177,1.5,2021,3,2021,mid1,1129.2885922704545,11,2021-03-26,2021-04-09,132,2021-08-19,2021-08-23,2021-09-06,Harvested at Maturity.,2.015333365897338,0.7600000068349274,2.6517391386644347,2.6415789673398984,2.2628571442550136,NA,0.8185714070818254,1.7314286189419883,2.639999946071343,4.429999947547913,5.7599999323487285,2.015333365897338,0.7600000068349274,2.6517391386644347,2.6415789673398984,2.2628571442550136,NA,0.8185714070818254,1.7314286189419883,2.639999946071343,4.429999947547913,5.7599999323487285,19.089333375295002,20.329473646063555,22.54869568866232,24.409999897605495,23.552380743480864,NA,23.05142879486084,21.451428277151926,22.60636364329945,20.25,19.669333585103352,17.227333323160806,14.486842180553236,23.877173838408098,29.894736842105264,29.918571381341845,NA,34.62000029427664,30.810000010899135,32.310909097844906,29.49250030517578,30.356666310628256,9.6976666820546,8.061052678054885,17.678369524686232,24.09000005220112,23.997380960555304,NA,28.21214280809675,24.309285640716553,25.98954538865523,24.103749990463257,24.645999908447266,2.168000040948391,1.635263175556534,11.479565210964369,18.28526326229698,18.076190539768763,NA,21.804285321916854,17.80857127053397,19.668181679465555,18.714999675750732,18.935333506266275,2.918946914233398,1.9893030665111875,6.56118844178698,9.656456935785299,10.72298963070387,NA,12.731138435946347,12.444741974964467,14.48266214295033,13.774214182245732,12.453392355579535,2.918946914233398,1.9893030665111875,6.56118844178698,9.656456935785299,10.72298963070387,NA,12.731138435946347,12.444741974964467,14.48266214295033,13.774214182245732,12.453392355579535,0,0,301.81466832220116,485.2873501021218,710.4701323469034,NA,799.5881013985277,886.7012952232787,1046.0105787957325,1101.1074355247154,1101.1074355247154,0,0,0.6743152133796526,1,1,NA,0.9981428555079869,1,1,1,0.06666666666666667,1,1,1,1,1,NA,1,1,1,1,1,0.2165000022451083,0.12886842677467747,0.6743152133796526,1,1,NA,0.9981428555079869,1,1,1,1,1,1,1,0.9999999999999999,1,NA,1,0.9999999999999999,0.9999999999999999,1,1,2021-03-26T12:00:00Z,2021-04-10T12:00:00Z,2021-04-29T12:00:00Z,2021-06-14T12:00:00Z,2021-07-03T12:00:00Z,NA,2021-07-24T12:00:00Z,2021-07-31T12:00:00Z,2021-08-07T12:00:00Z,2021-08-18T12:00:00Z,2021-08-22T12:00:00Z,2021-04-09T12:00:00Z,2021-04-28T12:00:00Z,2021-06-13T12:00:00Z,2021-07-02T12:00:00Z,2021-07-23T12:00:00Z,NA,2021-07-30T12:00:00Z,2021-08-06T12:00:00Z,2021-08-17T12:00:00Z,2021-08-21T12:00:00Z,2021-09-05T12:00:00Z,85,100,119,165,184,NA,205,212,219,230,234,14,18,45,18,20,0,6,6,10,3,14,99,118,164,183,204,NA,211,218,229,233,248
95,phillips_ne,40.8473,-98.177,2.5,2021,3,2021,mid2,1468.1431710776767,11,2021-03-26,2021-04-09,141,2021-08-28,2021-09-01,2021-09-15,Harvested at Maturity.,2.015333365897338,0.7600000068349274,2.4918367424029477,2.643478267866632,2.3822727473452687,0,3.7971427738666534,0.6614285686186382,2.4436363520270046,13.489999681711197,1.576000011836489,2.015333365897338,0.7600000068349274,2.4918367424029477,2.643478267866632,2.3822727473452687,0,3.7971427738666534,0.6614285686186382,2.4436363520270046,13.489999681711197,1.576000011836489,19.089333375295002,20.329473646063555,22.909387783128388,24.298695481341817,22.195909066633746,26.1299991607666,21.021428516932897,23.494285583496094,21.780909278176047,20.642500400543213,18.146666781107584,17.227333323160806,14.486842180553236,24.514285613079462,29.809565253879715,30.848636453801937,28.110000610351563,32.285714285714285,32.08000019618443,31.970908945257012,30.422499179840088,28.353333028157554,9.6976666820546,8.061052678054885,18.265510152797308,24.036739224972933,24.914772705598313,22.414999961853027,25.614999975476945,25.614285741533553,25.698636271736838,25.53624963760376,22.163666502634683,2.168000040948391,1.635263175556534,12.01673469251516,18.263913196066152,18.980908957394686,16.719999313354492,18.944285665239608,19.148571286882675,19.426363598216664,20.65000009536743,15.973999977111816,2.918946914233398,1.9893030665111875,5.984508391187523,8.57651155467144,10.117204182001098,10.400771295500547,12.211978127956582,13.589081623483667,14.114049319703467,13.994532002678515,11.00447340222915,2.918946914233398,1.9893030665111875,5.984508391187523,8.57651155467144,10.117204182001098,10.400771295500547,12.211978127956582,13.589081623483667,14.114049319703467,13.994532002678515,11.00447340222915,0,0,293.24091116818863,490.5006769256318,713.0791689296558,723.4799402251564,808.9637871208524,904.0873584852382,1059.3419010019763,1115.3200290126904,1115.3200290126904,0,0,0.6942550982747759,1,0.9994090903889049,1,1,1,1,1,0.06666666666666667,1,1,1,1,1,1,1,1,1,1,1,0.2165000022451083,0.12886842677467747,0.6942550982747759,1,0.9994090903889049,1,1,1,1,1,0.9978000005086263,1,1,1,1,1,1,1,1,0.9999999999999999,1,1,2021-03-26T12:00:00Z,2021-04-10T12:00:00Z,2021-04-29T12:00:00Z,2021-06-17T12:00:00Z,2021-07-10T12:00:00Z,2021-08-01T12:00:00Z,2021-08-02T12:00:00Z,2021-08-09T12:00:00Z,2021-08-16T12:00:00Z,2021-08-27T12:00:00Z,2021-08-31T12:00:00Z,2021-04-09T12:00:00Z,2021-04-28T12:00:00Z,2021-06-16T12:00:00Z,2021-07-09T12:00:00Z,2021-07-31T12:00:00Z,2021-08-01T12:00:00Z,2021-08-08T12:00:00Z,2021-08-15T12:00:00Z,2021-08-26T12:00:00Z,2021-08-30T12:00:00Z,2021-09-14T12:00:00Z,85,100,119,168,191,213,214,221,228,239,243,14,18,48,22,21,0,6,6,10,3,14,99,118,167,190,212,213,220,227,238,242,257
96,phillips_ne,40.8473,-98.177,-1.5,2022,3,2022,mid000,210.0831991581579,11,2022-04-15,2022-04-29,75,2022-07-13,2022-07-16,2022-07-30,Harvested at Maturity.,2.708666558936238,7.676666583038038,NA,3.0376190160889003,3.972105254664233,NA,0.0699999975040555,0.7157143027122532,4.355454513972456,0.4633333409825961,1.5633333399891853,2.708666558936238,7.676666583038038,NA,3.0376190160889003,3.972105254664233,NA,0.0699999975040555,0.7157143027122532,4.355454513972456,0.4633333409825961,1.5633333399891853,23.324000040690105,14.786666764153376,NA,22.374761808486213,25.979473716334294,NA,25.81000010172526,25.305714470999582,24.521818161010742,29.28333346048991,23.91933339436849,19.465999921162922,16.676666895548504,NA,25.09904752458845,28.84421057450144,NA,33.25,32.43285724094936,32.301817807284266,35.540000915527344,33.73000030517578,11.913666631778081,11.503333502345615,NA,18.32999991235279,22.333947407571895,NA,27.430000146230064,25.10714292526245,26.366817994551226,27.42666721343994,27.29366683959961,4.361333342393239,6.330000109142728,NA,11.56095230011713,15.823684240642347,NA,21.610000292460125,17.781428609575546,20.431818181818183,19.31333351135254,20.857333374023437,4.241611545094202,3.107435702966154,NA,8.392239619584927,10.826030666770693,NA,13.896930265296527,12.083815298979923,13.92295307535568,12.458317468563944,12.60282427002271,4.241611545094202,3.107435702966154,NA,8.392239619584927,10.826030666770693,NA,13.896930265296527,12.083815298979923,13.92295307535568,12.458317468563944,12.60282427002271,0,0,NA,176.2370320112835,381.93161467992667,NA,465.31319627170586,549.8999033645653,703.0523871934778,740.4273395991696,740.4273395991696,0,0,NA,0.7221666642597744,0.9530000009034809,NA,0.9923333168029785,1,0.996499997919256,0.9754999796549478,0.0581666628519694,1,1,NA,1,1,NA,1,1,1,1,1,0.3307666677236557,0.2600555711322361,NA,0.7221666642597744,0.9530000009034809,NA,0.9923333168029785,1,0.996499997919256,0.9754999796549478,0.9662333234151205,1,1,NA,0.9999999999999999,1,NA,1,1,0.9999999999999999,0.9999999999999998,1,2022-04-15T12:00:00Z,2022-04-30T12:00:00Z,NA,2022-05-09T12:00:00Z,2022-05-30T12:00:00Z,NA,2022-06-18T12:00:00Z,2022-06-24T12:00:00Z,2022-07-01T12:00:00Z,2022-07-12T12:00:00Z,2022-07-15T12:00:00Z,2022-04-29T12:00:00Z,2022-05-08T12:00:00Z,NA,2022-05-29T12:00:00Z,2022-06-17T12:00:00Z,NA,2022-06-23T12:00:00Z,2022-06-30T12:00:00Z,2022-07-11T12:00:00Z,2022-07-14T12:00:00Z,2022-07-29T12:00:00Z,105,120,NA,129,150,NA,169,175,182,193,196,14,8,0,20,18,0,5,6,10,2,14,119,128,NA,149,168,NA,174,181,192,195,210
97,phillips_ne,40.8473,-98.177,-0.5,2022,3,2022,mid00,808.4959395036528,11,2022-04-15,2022-04-29,100,2022-08-07,2022-08-10,2022-08-24,Harvested at Maturity.,2.708666558936238,7.676666583038038,3.2702856870102033,2.23153847670899,3.0706249807262793,0,1.4016666505485773,0.5383333197484413,1.2500000296471019,1.443333293000857,0.9953333547959725,2.708666558936238,7.676666583038038,3.2702856870102033,2.23153847670899,3.0706249807262793,0,1.4016666505485773,0.5383333197484413,1.2500000296471019,1.443333293000857,0.9953333547959725,23.324000040690105,14.786666764153376,23.451142856052943,26.36461536700909,25.1056250333786,30.299999237060547,26.955000241597492,26.69166660308838,23.540833314259846,23.06999969482422,23.128666623433432,19.465999921162922,16.676666895548504,26.0031428200858,32.82076923663799,32.51187479496002,31.5,35.59666760762533,37.28666687011719,33.142499923706055,33.2300001780192,32.97533315022786,11.913666631778081,11.503333502345615,19.42442853791373,26.480769304128795,25.97093740105629,24.25500011444092,28.505833784739178,29.714166800181072,26.286666711171467,26.638333638509113,25.602333291371664,4.361333342393239,6.330000109142728,12.845714255741665,20.14076937161959,19.430000007152557,17.010000228881836,21.414999961853027,22.141666730244953,19.430833498636883,20.046667098999023,18.229333432515464,4.241611545094202,3.107435702966154,8.784806626114001,12.597854588414384,12.509275373831104,12.769459971109988,12.919422863028732,12.452608610179544,12.894067272233677,13.600223902376493,12.411229339084624,4.241611545094202,3.107435702966154,8.784806626114001,12.597854588414384,12.509275373831104,12.769459971109988,12.919422863028732,12.452608610179544,12.894067272233677,13.600223902376493,12.411229339084624,0,0,307.46823191399,471.2403415633769,671.3887475446749,684.1582075157849,761.6747446939572,836.3903963550345,991.1192036218388,1031.919875328968,1031.919875328968,0,0,0.8099000011171613,0.9907692175645095,0.9975937485694886,1,0.9664999802907308,0.9368333180745443,0.990791662534078,0.9481666564941407,0.06666666666666667,1,1,1,1,1,1,1,1,1,1,1,0.3307666677236557,0.2600555711322361,0.8099000011171613,0.9907692175645095,0.9975937485694886,1,0.9664999802907308,0.9368333180745443,0.990791662534078,0.9481666564941407,1,1,1,0.9999999999999999,0.9999999999999999,1,1,0.9999999999999999,0.9999999999999999,1,1,1,2022-04-15T12:00:00Z,2022-04-30T12:00:00Z,2022-05-09T12:00:00Z,2022-06-13T12:00:00Z,2022-06-26T12:00:00Z,2022-07-12T12:00:00Z,2022-07-13T12:00:00Z,2022-07-19T12:00:00Z,2022-07-25T12:00:00Z,2022-08-06T12:00:00Z,2022-08-09T12:00:00Z,2022-04-29T12:00:00Z,2022-05-08T12:00:00Z,2022-06-12T12:00:00Z,2022-06-25T12:00:00Z,2022-07-11T12:00:00Z,2022-07-12T12:00:00Z,2022-07-18T12:00:00Z,2022-07-24T12:00:00Z,2022-08-05T12:00:00Z,2022-08-08T12:00:00Z,2022-08-23T12:00:00Z,105,120,129,164,177,193,194,200,206,218,221,14,8,34,12,15,0,5,5,11,2,14,119,128,163,176,192,193,199,205,217,220,235
98,phillips_ne,40.8473,-98.177,0.5,2022,3,2022,mid0,848.6453350687648,11,2022-04-15,2022-04-29,103,2022-08-10,2022-08-13,2022-08-27,Harvested at Maturity.,2.708666558936238,7.676666583038038,3.1916666400825813,2.041428585669824,2.971176453811281,NA,1.0042856971600227,2.6983333692575493,0.5299999948280553,0.0033333332588275266,1.0160000218699377,2.708666558936238,7.676666583038038,3.1916666400825813,2.041428585669824,2.971176453811281,NA,1.0042856971600227,2.6983333692575493,0.5299999948280553,0.0033333332588275266,1.0160000218699377,23.324000040690105,14.786666764153376,23.49333331320021,26.12999997820173,25.97000009873334,NA,27.498571395874023,20.63166681925456,24.979166507720947,27.336666107177734,22.203333346048993,19.465999921162922,16.676666895548504,26.352500014834934,31.75857135227748,33.54588228113511,NA,35.52714320591518,33.050000508626304,34.382499853769936,36.25999959309896,32.919333140055336,11.913666631778081,11.503333502345615,19.73874998754925,25.46357148034232,26.754999974194696,NA,28.55071449279785,27.087500254313152,27.022500038146973,27.55999978383382,25.726999950408935,4.361333342393239,6.330000109142728,13.12499996026357,19.168571608407156,19.96411766725428,NA,21.574285779680526,21.125,19.662500222524006,18.859999974568684,18.534666760762533,4.241611545094202,3.107435702966154,8.304470171685214,11.440419722806874,11.786986873378616,NA,12.447201282770049,12.028069753314174,12.782460609626423,12.716295616968473,12.56212811461846,4.241611545094202,3.107435702966154,8.304470171685214,11.440419722806874,11.786986873378616,NA,12.447201282770049,12.028069753314174,12.782460609626423,12.716295616968473,12.56212811461846,0,0,298.96092618066774,459.126802299964,659.5055791474002,NA,746.6359881267905,818.8044066466755,972.1939339621924,1010.342820813098,1010.342820813098,0,0,0.8131249990728167,0.996714278629848,0.9934117597692153,NA,0.981785706111363,0.9368333180745443,0.9778333266576131,1,0.06666666666666667,1,1,1,1,1,NA,1,1,1,1,1,0.3307666677236557,0.2600555711322361,0.8131249990728167,0.996714278629848,0.9934117597692153,NA,0.981785706111363,0.9368333180745443,0.9778333266576131,1,1,1,1,1,1,0.9999999999999999,NA,1,1,0.9999999999999999,0.9999999999999999,1,2022-04-15T12:00:00Z,2022-04-30T12:00:00Z,2022-05-09T12:00:00Z,2022-06-14T12:00:00Z,2022-06-28T12:00:00Z,NA,2022-07-15T12:00:00Z,2022-07-22T12:00:00Z,2022-07-28T12:00:00Z,2022-08-09T12:00:00Z,2022-08-12T12:00:00Z,2022-04-29T12:00:00Z,2022-05-08T12:00:00Z,2022-06-13T12:00:00Z,2022-06-27T12:00:00Z,2022-07-14T12:00:00Z,NA,2022-07-21T12:00:00Z,2022-07-27T12:00:00Z,2022-08-08T12:00:00Z,2022-08-11T12:00:00Z,2022-08-26T12:00:00Z,105,120,129,165,179,NA,196,203,209,221,224,14,8,35,13,16,0,6,5,11,2,14,119,128,164,178,195,NA,202,208,220,223,238
99,phillips_ne,40.8473,-98.177,1.5,2022,3,2022,mid1,1172.1157919417212,11,2022-04-15,2022-04-29,116,2022-08-23,2022-08-26,2022-09-09,Harvested at Maturity.,2.708666558936238,7.676666583038038,3.4814999794121833,1.8711111135780811,1.7424999743700027,NA,1.2187500433064997,1.0049999893332522,1.1461538709700108,0.01999999955296516,0.33266666494309904,2.708666558936238,7.676666583038038,3.4814999794121833,1.8711111135780811,1.7424999743700027,NA,1.2187500433064997,1.0049999893332522,1.1461538709700108,0.01999999955296516,0.33266666494309904,23.324000040690105,14.786666764153376,24.08699996471405,25.0377779006958,25.449499988555907,NA,24.632500171661377,24.8149995803833,22.760000008803146,25.019999821980797,21.46400000254313,19.465999921162922,16.676666895548504,26.87799997329712,32.91166665818956,34.1020001411438,NA,32.861249923706055,35.11833349863688,32.85153814462515,34.38666661580404,34.36133371988932,11.913666631778081,11.503333502345615,20.231874972581863,26.37138893869188,27.546250104904175,NA,25.891250014305115,27.759166876475014,25.608076865856464,26.3233331044515,26.306000232696533,4.361333342393239,6.330000109142728,13.585749971866608,19.8311112191942,20.990500068664552,NA,18.921250104904175,20.400000254313152,18.364615587087776,18.25999959309896,18.250666745503743,4.241611545094202,3.107435702966154,7.835493396596629,10.281568544119713,11.073176935558521,NA,11.776529562454884,12.611958005198128,13.191580194820997,13.378184501787027,12.096874390653769,4.241611545094202,3.107435702966154,7.835493396596629,10.281568544119713,11.073176935558521,NA,11.776529562454884,12.611958005198128,13.191580194820997,13.378184501787027,12.096874390653769,0,0,313.4197358638652,498.48796965802,719.9515083691904,NA,814.1637448688296,889.8354929000183,1061.3260354326912,1101.4605889380523,1101.4605889380523,0,0,0.831812499165535,0.9953055487738716,0.9709999895095826,NA,0.9861874938011169,0.9740833282470703,1,1,0.06666666666666667,1,1,1,1,1,NA,1,1,1,1,1,0.3307666677236557,0.2600555711322361,0.831812499165535,0.9953055487738716,0.9709999895095826,NA,0.9861874938011169,0.9740833282470703,1,1,1,1,1,1,1,1,NA,1,1,1,0.9999999999999999,1,2022-04-15T12:00:00Z,2022-04-30T12:00:00Z,2022-05-09T12:00:00Z,2022-06-18T12:00:00Z,2022-07-06T12:00:00Z,NA,2022-07-26T12:00:00Z,2022-08-03T12:00:00Z,2022-08-09T12:00:00Z,2022-08-22T12:00:00Z,2022-08-25T12:00:00Z,2022-04-29T12:00:00Z,2022-05-08T12:00:00Z,2022-06-17T12:00:00Z,2022-07-05T12:00:00Z,2022-07-25T12:00:00Z,NA,2022-08-02T12:00:00Z,2022-08-08T12:00:00Z,2022-08-21T12:00:00Z,2022-08-24T12:00:00Z,2022-09-08T12:00:00Z,105,120,129,169,187,NA,207,215,221,234,237,14,8,39,17,19,0,7,5,12,2,14,119,128,168,186,206,NA,214,220,233,236,251
100,phillips_ne,40.8473,-98.177,2.5,2022,3,2022,mid2,1464.7946675364528,11,2022-04-15,2022-04-29,125,2022-09-01,2022-09-05,2022-09-19,Harvested at Maturity.,2.708666558936238,7.676666583038038,3.23883719014567,2.539523797996697,1.1578260946856893,0,0.6214285540793624,1.8828571835266692,0.49583333420256775,0.20000000018626451,2.4366666745394467,2.708666558936238,7.676666583038038,3.23883719014567,2.539523797996697,1.1578260946856893,0,0.6214285540793624,1.8828571835266692,0.49583333420256775,0.20000000018626451,2.4366666745394467,23.324000040690105,14.786666764153376,24.448139523350914,24.473809560139973,25.230869624925695,27.219999313354492,25.479999542236328,20.545714378356934,22.130833387374878,22.355000019073486,19.1660000483195,19.465999921162922,16.676666895548504,27.472093005513035,32.1747617267427,34.46608717545219,35.970001220703125,35.184285572596956,32.4757137298584,33.525833447774254,34.44250011444092,30.496666971842448,11.913666631778081,11.503333502345615,20.855348814365477,25.850476151420956,27.49108712569527,27.475000381469727,27.405714307512554,25.435714108603342,26.289166688919067,26.24500024318695,22.91733350753784,4.361333342393239,6.330000109142728,14.238604623217915,19.526190576099214,20.516087075938348,18.979999542236328,19.627143042428152,18.395714487348283,19.052499930063885,18.047500371932983,15.338000043233237,4.241611545094202,3.107435702966154,7.025199611432632,9.10447594763545,10.097775279233579,11.220519280286274,11.797370010234612,12.778424955819345,13.663898321288825,12.898262763190267,10.959688682569663,4.241611545094202,3.107435702966154,7.025199611432632,9.10447594763545,10.097775279233579,11.220519280286274,11.797370010234612,12.778424955819345,13.663898321288825,12.898262763190267,10.959688682569663,0,0,302.08358329160313,493.2775781919475,725.5264096143198,736.7469288946061,819.3285189662482,908.7774936569838,1072.7442735124496,1124.3373245652108,1124.3373245652108,0,0,0.8424767411032389,0.9981666655767532,0.9699782495913298,1,0.9777857099260603,1,1,1,0.06666666666666667,1,1,1,1,1,1,1,1,1,1,1,0.3307666677236557,0.2600555711322361,0.8424767411032389,0.9981666655767532,0.9699782495913298,1,0.9777857099260603,1,1,1,0.9535999965667724,1,1,1,0.9999999999999999,0.9960266951526355,0.8818432985443366,0.8631033225005447,0.931667516800155,1,1,1,2022-04-15T12:00:00Z,2022-04-30T12:00:00Z,2022-05-09T12:00:00Z,2022-06-21T12:00:00Z,2022-07-12T12:00:00Z,2022-08-04T12:00:00Z,2022-08-05T12:00:00Z,2022-08-12T12:00:00Z,2022-08-19T12:00:00Z,2022-08-31T12:00:00Z,2022-09-04T12:00:00Z,2022-04-29T12:00:00Z,2022-05-08T12:00:00Z,2022-06-20T12:00:00Z,2022-07-11T12:00:00Z,2022-08-03T12:00:00Z,2022-08-04T12:00:00Z,2022-08-11T12:00:00Z,2022-08-18T12:00:00Z,2022-08-30T12:00:00Z,2022-09-03T12:00:00Z,2022-09-18T12:00:00Z,105,120,129,172,193,216,217,224,231,243,247,14,8,42,20,22,0,6,6,11,3,14,119,128,171,192,215,216,223,230,242,246,261
106,stpauls_ont,43.32515,-81.1402,-1.5,2017,4,2017,mid000,218.0109937156198,11,2017-04-06,2017-04-20,116,2017-08-14,2017-08-18,2017-09-01,Harvested at Maturity.,4.029333255191644,3.441153871325346,NA,2.207741952711536,6.111200135052204,7.130000114440918,2.7800000300630927,3.296249961713329,1.8660000051061312,1.2524999976158142,1.2806666880846023,4.029333255191644,3.441153871325346,NA,2.207741952711536,6.111200135052204,7.130000114440918,2.7800000300630927,3.296249961713329,1.8660000051061312,1.2524999976158142,1.2806666880846023,15.323333422342936,18.96230783829322,NA,21.14225813650316,21.74200008392334,10.34000015258789,19.52625000476837,16.80875015258789,20.279333559672036,21.482500076293945,16.750000063578288,13.337333377202352,13.099230711276714,NA,20.87516123248685,23.479600067138673,26.8700008392334,25.37874984741211,24.78624987602234,25.183333587646484,26.612500190734863,23.454666646321616,7.582333358128865,8.23826919725308,NA,15.751290275204566,18.74600004196167,22.670000076293945,20.78562492132187,20.197499990463257,19.97833344141642,20.318750143051147,18.543666648864747,1.8273333390553792,3.3773076832294464,NA,10.627419317922284,14.012400016784667,18.469999313354492,16.19249999523163,15.608750104904175,14.77333329518636,14.025000095367432,13.632666651407877,1.4670464844038587,1.2646667768821407,NA,5.541206463590511,7.968890361983774,11.870060351096644,10.280866661690736,10.136775656724996,10.154873582790295,10.426358449539542,7.787619655377864,1.4670464844038587,1.2646667768821407,NA,5.541206463590511,7.968890361983774,11.870060351096644,10.280866661690736,10.136775656724996,10.154873582790295,10.426358449539542,7.787619655377864,0,0,NA,171.77740037130584,370.99965942090023,382.86971977199687,465.1166530655228,546.2108583193228,698.5339620611774,740.2393958593356,740.2393958593356,0,0,NA,0.5461451568911153,0.8307400016784668,1,0.9913124978542328,0.9178749978542329,0.9129333400726318,0.9830000042915344,0.06666666666666667,1,1,NA,1,1,1,1,1,1,1,1,0.0828666663169861,0.0637692323097816,NA,0.5461451568911153,0.8307400016784668,1,0.9913124978542328,0.9178749978542329,0.9129333400726318,0.9830000042915344,0.8019333267211914,1,1,NA,1,1,1,1,1,1,0.9999999999999999,1,2017-04-06T12:00:00Z,2017-04-21T12:00:00Z,NA,2017-05-17T12:00:00Z,2017-06-17T12:00:00Z,2017-07-12T12:00:00Z,2017-07-13T12:00:00Z,2017-07-21T12:00:00Z,2017-07-29T12:00:00Z,2017-08-13T12:00:00Z,2017-08-17T12:00:00Z,2017-04-20T12:00:00Z,2017-05-16T12:00:00Z,NA,2017-06-16T12:00:00Z,2017-07-11T12:00:00Z,2017-07-12T12:00:00Z,2017-07-20T12:00:00Z,2017-07-28T12:00:00Z,2017-08-12T12:00:00Z,2017-08-16T12:00:00Z,2017-08-31T12:00:00Z,96,111,NA,137,168,193,194,202,210,225,229,14,25,0,30,24,0,7,7,14,3,14,110,136,NA,167,192,193,201,209,224,228,243
107,stpauls_ont,43.32515,-81.1402,-0.5,2017,4,2017,mid00,803.7987624664673,11,2017-04-06,2017-04-20,153,2017-09-20,2017-09-23,2017-10-07,Harvested at Maturity.,4.029333255191644,3.441153871325346,4.029804000813587,3.515624988358468,2.0561904847799313,0.9800000190734864,1.7000000391687666,1.0429999992251395,2.291578961242186,1.2833332767089207,0.8519999876618385,4.029333255191644,3.441153871325346,4.029804000813587,3.515624988358468,2.0561904847799313,0.9800000190734864,1.7000000391687666,1.0429999992251395,2.291578961242186,1.2833332767089207,0.8519999876618385,15.323333422342936,18.96230783829322,21.389607906341553,19.127500116825104,19.39333352588472,23.540000915527344,17.251428604125977,17.297000026702882,16.860526310770137,13.053333441416422,14.15333334604899,13.337333377202352,13.099230711276714,21.770588239034016,25.460624933242798,24.875714438302175,25.920000076293945,25.818571635654994,23.14499988555908,22.485789248817845,27.696666717529297,24.020000076293947,7.582333358128865,8.23826919725308,16.774411753112194,20.985312461853027,19.804285798754012,19.320000171661377,20.772857325417654,17.999499893188478,16.562894607845106,21.823333581288654,18.353666655222575,1.8273333390553792,3.3773076832294464,11.778235267190372,16.509999990463257,14.732857159205846,12.720000267028809,15.727143015180316,12.853999900817872,10.639999966872367,15.950000445048014,12.687333234151204,1.4670464844038587,1.2646667768821407,5.955854506983969,9.865680623073713,9.622533869975486,9.320000171661375,10.785848509614809,8.612825428059697,7.951057712409214,11.823333581288656,7.496555179845094,1.4670464844038587,1.2646667768821407,5.955854506983969,9.865680623073713,9.622533869975486,9.320000171661375,10.785848509614809,8.612825428059697,7.951057712409214,11.823333581288656,7.496555179845094,0,0,303.74857985618246,461.5994698253618,663.6726810948469,672.9926812665083,748.493620833812,834.6218751144089,985.6919716501842,1021.1619723940502,1021.1619723940502,0,0,0.645911764163597,0.9804999947547912,0.9065238135201591,0.9320000171661378,0.987999997820173,0.7642499923706055,0.648184202846728,1,0.06666666666666667,1,1,0.9983580709839586,1,1,1,1,1,1,1,1,0.0828666663169861,0.0637692323097816,0.645911764163597,0.9804999947547912,0.9065238135201591,0.9320000171661378,0.987999997820173,0.7642499923706055,0.648184202846728,1,0.66993332862854,1,1,1,1,1,1,1,1,1,1,1,2017-04-06T12:00:00Z,2017-04-21T12:00:00Z,2017-05-17T12:00:00Z,2017-07-07T12:00:00Z,2017-07-23T12:00:00Z,2017-08-13T12:00:00Z,2017-08-14T12:00:00Z,2017-08-21T12:00:00Z,2017-08-31T12:00:00Z,2017-09-19T12:00:00Z,2017-09-22T12:00:00Z,2017-04-20T12:00:00Z,2017-05-16T12:00:00Z,2017-07-06T12:00:00Z,2017-07-22T12:00:00Z,2017-08-12T12:00:00Z,2017-08-13T12:00:00Z,2017-08-20T12:00:00Z,2017-08-30T12:00:00Z,2017-09-18T12:00:00Z,2017-09-21T12:00:00Z,2017-10-06T12:00:00Z,96,111,137,188,204,225,226,233,243,262,265,14,25,50,15,20,0,6,9,18,2,14,110,136,187,203,224,225,232,242,261,264,279
108,stpauls_ont,43.32515,-81.1402,0.5,2017,4,2017,mid0,839.3704842148741,11,2017-04-06,2017-04-20,155,2017-09-22,2017-09-25,2017-10-09,Harvested at Maturity.,4.029333255191644,3.441153871325346,3.9718868700119683,3.619999999509138,1.7871428537404253,0.3799999952316284,1.6962500363588333,1.1340000078082084,2.3888235304723766,0.8766666327913603,0.8773333301146825,4.029333255191644,3.441153871325346,3.9718868700119683,3.619999999509138,1.7871428537404253,0.3799999952316284,1.6962500363588333,1.1340000078082084,2.3888235304723766,0.8766666327913603,0.8773333301146825,15.323333422342936,18.96230783829322,21.532452898205452,18.254117741304285,19.766666911897204,23.459999084472656,15.697500109672546,18.3539999961853,15.483529427472282,17.920000076293945,13.307333374023438,13.337333377202352,13.099230711276714,21.8345283112436,25.45941173329073,25.195238204229447,27.3700008392334,24.24875020980835,22.171999740600587,23.331764445585364,30.440000534057617,23.088666661580405,7.582333358128865,8.23826919725308,16.871886793172585,20.917941149543314,19.90880957103911,20.52500057220459,19.851875126361847,16.522999811172486,17.446176374659817,23.968333562215168,17.712999947865804,1.8273333390553792,3.3773076832294464,11.909245275101572,16.3764705657959,14.622380937848773,13.68000030517578,15.455000042915344,10.873999881744385,11.560588303734274,17.496666590372723,12.337333234151204,1.4670464844038587,1.2646667768821407,5.532687522910344,9.213335681746093,9.529285162640035,10.52500057220459,10.063170021157712,7.691110356379747,8.571875770247509,13.851523721988997,6.837947180578311,1.4670464844038587,1.2646667768821407,5.532687522910344,9.213335681746093,9.529285162640035,10.52500057220459,10.063170021157712,7.691110356379747,8.571875770247509,13.851523721988997,6.837947180578311,0,0,293.23243871424825,449.85914530393177,649.9741337193726,660.4991342915772,741.0044944608389,817.9155980246364,963.6374861188442,1005.1920572848112,1005.1920572848112,0,0,0.6552830178782625,0.9759411755730124,0.9179761932009742,1,0.8868750035762787,0.6522999811172485,0.7209411719266107,1,0.06666666666666667,1,1,0.998416199012289,1,1,1,1,1,1,1,1,0.0828666663169861,0.0637692323097816,0.6552830178782625,0.9759411755730124,0.9179761932009742,1,0.8868750035762787,0.6522999811172485,0.7209411719266107,1,0.6623666604359945,1,1,1,1,1,0.9999999999999998,1,1,1,1,1,2017-04-06T12:00:00Z,2017-04-21T12:00:00Z,2017-05-17T12:00:00Z,2017-07-09T12:00:00Z,2017-07-26T12:00:00Z,2017-08-16T12:00:00Z,2017-08-17T12:00:00Z,2017-08-25T12:00:00Z,2017-09-04T12:00:00Z,2017-09-21T12:00:00Z,2017-09-24T12:00:00Z,2017-04-20T12:00:00Z,2017-05-16T12:00:00Z,2017-07-08T12:00:00Z,2017-07-25T12:00:00Z,2017-08-15T12:00:00Z,2017-08-16T12:00:00Z,2017-08-24T12:00:00Z,2017-09-03T12:00:00Z,2017-09-20T12:00:00Z,2017-09-23T12:00:00Z,2017-10-08T12:00:00Z,96,111,137,190,207,228,229,237,247,264,267,14,25,52,16,20,0,7,9,16,2,14,110,136,189,206,227,228,236,246,263,266,281
109,stpauls_ont,43.32515,-81.1402,1.5,2017,4,2017,mid1,974.8864076246768,11,2017-04-06,2017-04-20,171,2017-10-08,2017-10-15,2017-10-29,Harvested at Maturity.,4.029333255191644,3.441153871325346,4.071186511319572,2.464285702311567,1.426400017142296,0.6499999761581421,2.946666688347856,1.186249993275851,0.9011764530749882,2.7785713842936923,2.5519999458144107,4.029333255191644,3.441153871325346,4.071186511319572,2.464285702311567,1.426400017142296,0.6499999761581421,2.946666688347856,1.186249993275851,0.9011764530749882,2.7785713842936923,2.5519999458144107,15.323333422342936,18.96230783829322,20.96101701865762,19.814762070065452,17.99000015258789,18.8799991607666,17.605000019073486,14.378749966621399,14.442352968103744,8.782857179641724,9.207999881108602,13.337333377202352,13.099230711276714,22.198305113840913,25.609999974568684,24.24080009460449,24.6299991607666,20.430833021799724,25.96624994277954,24.57176477768842,20.930000032697404,16.568666585286458,7.582333358128865,8.23826919725308,17.31347457433151,20.65976195108323,19.10880002975464,18.804999351501465,14.73749985297521,19.749999940395355,18.860000021317425,16.212142876216344,11.802666584650675,1.8273333390553792,3.3773076832294464,12.428644034822108,15.709523927597772,13.976799964904785,12.979999542236328,9.044166684150696,13.53374993801117,13.148235264946432,11.494285719735283,7.036666584014893,1.4670464844038587,1.2646667768821407,5.226115900716797,8.73229710376945,8.94272908095384,8.804999351501465,6.782011200692008,9.980120292159915,9.843333451801714,7.599009295074855,2.833152120424906,1.4670464844038587,1.2646667768821407,5.226115900716797,8.73229710376945,8.94272908095384,8.804999351501465,6.782011200692008,9.980120292159915,9.843333451801714,7.599009295074855,2.833152120424906,0,0,308.34083814229086,491.71907732144933,715.2873043452953,724.0923036967968,805.476438105101,885.3174004423804,1052.6540691230095,1105.8471341885331,1105.8471341885331,0,0,0.6887711852283801,0.9592619055793399,0.8597800006866455,0.8804999351501466,0.473749985297521,0.9538125038146973,0.7087647017310648,0.6148571491241456,0.0375333309173584,1,1,0.9985639929063519,1,1,1,1,1,1,1,1,0.0828666663169861,0.0637692323097816,0.6887711852283801,0.9592619055793399,0.8597800006866455,0.8804999351501466,0.473749985297521,0.9538125038146973,0.7087647017310648,0.6148571491241456,0.2800999927520752,1,1,1,1,0.996328287676134,1,1,1,1,0.9999999999999999,1,2017-04-06T12:00:00Z,2017-04-21T12:00:00Z,2017-05-17T12:00:00Z,2017-07-15T12:00:00Z,2017-08-05T12:00:00Z,2017-08-30T12:00:00Z,2017-08-31T12:00:00Z,2017-09-12T12:00:00Z,2017-09-20T12:00:00Z,2017-10-07T12:00:00Z,2017-10-14T12:00:00Z,2017-04-20T12:00:00Z,2017-05-16T12:00:00Z,2017-07-14T12:00:00Z,2017-08-04T12:00:00Z,2017-08-29T12:00:00Z,2017-08-30T12:00:00Z,2017-09-11T12:00:00Z,2017-09-19T12:00:00Z,2017-10-06T12:00:00Z,2017-10-13T12:00:00Z,2017-10-28T12:00:00Z,96,111,137,196,217,242,243,255,263,280,287,14,25,58,20,24,0,11,7,16,6,14,110,136,195,216,241,242,254,262,279,286,301
110,stpauls_ont,43.32515,-81.1402,2.5,2017,4,2017,mid2,1019.0836070484517,11,2017-04-06,2017-04-20,189,2017-10-26,2017-11-06,2017-11-20,Harvested at Maturity.,4.029333255191644,3.441153871325346,3.8552308348508983,2.3058333245571703,1.8616129201987097,0.07000000029802322,1.7057142619575774,0.9966666537026564,2.0320832857396454,3.300000003793023,3.3519999511539935,4.029333255191644,3.441153871325346,3.8552308348508983,2.3058333245571703,1.8616129201987097,0.07000000029802322,1.7057142619575774,0.9966666537026564,2.0320832857396454,3.300000003793023,3.3519999511539935,15.323333422342936,18.96230783829322,21.00784622339102,19.258333563804626,17.486774229234264,15.789999961853027,13.622857093811035,14.538889037238226,10.524999916553497,5.453636277805676,5.202666711807251,13.337333377202352,13.099230711276714,22.523384607755222,25.081666787465412,22.921290243825606,25.3799991607666,26.651428495134628,25.514444563123917,20.09333328406016,9.030909061431885,5.314666736125946,7.582333358128865,8.23826919725308,17.629153831188496,20.023958404858906,17.412741899490356,19.834999561309814,20.84857143674578,20.11000000105964,14.90166661143303,5.748636332001876,2.0130000334233045,1.8273333390553792,3.3773076832294464,12.73492305462177,14.966250022252401,11.904193555155109,14.289999961853027,15.045714378356934,14.705555438995361,9.709999938805899,2.466363602571867,-1.288666669279337,1.4670464844038587,1.2646667768821407,4.64345971561157,7.9428283357227745,7.455960488986851,9.834999561309816,10.873520508001532,10.884985253000922,6.929939040127893,5.008005427159911,0,1.4670464844038587,1.2646667768821407,4.64345971561157,7.9428283357227745,7.455960488986851,9.834999561309816,10.873520508001532,10.884985253000922,6.929939040127893,5.008005427159911,0,0,0,301.82488151475206,492.45276157209867,723.587536730691,733.4225362920008,809.5371798480115,907.5020471250195,1073.820584088089,1128.908643786848,1128.908643786848,0,0,0.7173769213603093,0.9153750042120616,0.7095967669640818,0.9834999561309816,0.9847142900739397,0.7352777719497681,0.4973749965429306,0,0.007366666793823242,1,1,0.9986895761782941,1,1,1,1,1,1,1,1,0.0828666663169861,0.0637692323097816,0.7173769213603093,0.9153750042120616,0.7095967669640818,0.9834999561309816,0.9847142900739397,0.7352777719497681,0.4973749965429306,0,0.007366666793823242,1,1,1,1,0.989683114849816,1,0.8639078400802446,0.8310275007533384,1,1,1,2017-04-06T12:00:00Z,2017-04-21T12:00:00Z,2017-05-17T12:00:00Z,2017-07-21T12:00:00Z,2017-08-14T12:00:00Z,2017-09-14T12:00:00Z,2017-09-15T12:00:00Z,2017-09-22T12:00:00Z,2017-10-01T12:00:00Z,2017-10-25T12:00:00Z,2017-11-05T12:00:00Z,2017-04-20T12:00:00Z,2017-05-16T12:00:00Z,2017-07-20T12:00:00Z,2017-08-13T12:00:00Z,2017-09-13T12:00:00Z,2017-09-14T12:00:00Z,2017-09-21T12:00:00Z,2017-09-30T12:00:00Z,2017-10-24T12:00:00Z,2017-11-04T12:00:00Z,2017-11-19T12:00:00Z,96,111,137,202,226,257,258,265,274,298,309,14,25,64,23,30,0,6,8,23,10,14,110,136,201,225,256,257,264,273,297,308,323
111,stpauls_ont,43.32515,-81.1402,-1.5,2018,4,2018,mid000,236.53054925959907,11,2018-05-05,2018-05-19,79,2018-08-06,2018-08-09,2018-08-23,Harvested at Maturity.,2.65533330415686,1.0885714476129837,NA,0.7404545416886156,2.6269999613985417,0.25,0.245714292462383,4.428571398769106,4.166923104570462,2.749999936670065,4.8046666874239845,2.65533330415686,1.0885714476129837,NA,0.7404545416886156,2.6269999613985417,0.25,0.245714292462383,4.428571398769106,4.166923104570462,2.749999936670065,4.8046666874239845,21.1113333384196,22.60285677228655,NA,22.733636422590777,23.474500036239625,30.510000228881836,23.65285723549979,19.748571668352398,20.25615384028508,19.05666669209798,17.799999936421713,19.209999974568685,20.55285712650844,NA,24.35636359995062,27.654000091552735,30.030000686645508,29.21714265005929,26.735714231218612,26.560769154475285,29.71000035603841,26.995333099365233,12.119666660577058,13.902857167380196,NA,18.245681827718563,21.390500020980834,21.74500036239624,22.859285627092635,21.678571224212646,21.728461595681996,25.179999987284344,22.184666538238524,5.029333346585433,7.252857208251953,NA,12.135000055486506,15.126999950408935,13.460000038146973,16.501428604125977,16.62142821720668,16.89615403688871,20.649999618530273,17.373999977111815,3.5131733067399264,4.777389105248026,NA,7.5986047461074255,10.016895221289813,10.862779725050284,11.857116297762365,11.269568598552269,11.676818743525393,14.973951273242633,11.472666581471762,3.5131733067399264,4.777389105248026,NA,7.5986047461074255,10.016895221289813,10.862779725050284,11.857116297762365,11.269568598552269,11.676818743525393,14.973951273242633,11.472666581471762,0,0,NA,167.16930441436332,367.50720884015954,378.36998856520984,461.3698026495464,540.2567828394122,692.0554265052422,736.97728032497,736.97728032497,0,0,NA,0.7654860569329084,0.9244250059127808,1,1,0.9739999975476946,0.9899230810312124,1,0.06666666666666667,1,1,NA,0.9984783503048508,1,1,1,1,1,1,1,0.25249999682108565,0.3927142909594945,NA,0.7667727275328203,0.9244250059127808,1,1,0.9739999975476946,0.9899230810312124,1,0.9837999979654948,1,1,NA,1,1,1,0.9999999999999999,1,1,1,1,2018-05-05T12:00:00Z,2018-05-20T12:00:00Z,NA,2018-05-27T12:00:00Z,2018-06-18T12:00:00Z,2018-07-08T12:00:00Z,2018-07-09T12:00:00Z,2018-07-16T12:00:00Z,2018-07-23T12:00:00Z,2018-08-05T12:00:00Z,2018-08-08T12:00:00Z,2018-05-19T12:00:00Z,2018-05-26T12:00:00Z,NA,2018-06-17T12:00:00Z,2018-07-07T12:00:00Z,2018-07-08T12:00:00Z,2018-07-15T12:00:00Z,2018-07-22T12:00:00Z,2018-08-04T12:00:00Z,2018-08-07T12:00:00Z,2018-08-22T12:00:00Z,125,140,NA,147,169,189,190,197,204,217,220,14,6,0,21,19,0,6,6,12,2,14,139,146,NA,168,188,189,196,203,216,219,234
112,stpauls_ont,43.32515,-81.1402,-0.5,2018,4,2018,mid00,753.2927103298521,11,2018-05-05,2018-05-19,106,2018-09-02,2018-09-05,2018-09-19,Harvested at Maturity.,2.65533330415686,1.0885714476129837,1.6939473457046246,1.3053333314756554,4.236470602014485,0.05000000074505806,4.499999915560087,4.053333468114336,3.541428557996239,1.7066666682561238,1.313999997327725,2.65533330415686,1.0885714476129837,1.6939473457046246,1.3053333314756554,4.236470602014485,0.05000000074505806,4.499999915560087,4.053333468114336,3.541428557996239,1.7066666682561238,1.313999997327725,21.1113333384196,22.60285677228655,22.601315824609053,25.49733346303304,19.17470595415901,24.219999313354492,19.30833339691162,17.77499993642171,16.080714225769043,16.733333269755047,15.175999927520753,19.209999974568685,20.55285712650844,25.556315798508493,28.935333251953125,26.514117633595188,31.540000915527344,27.55666669209798,28.323333104451496,25.386428560529435,27.650000254313152,25.271333440144858,12.119666660577058,13.902857167380196,19.499078951383893,22.388999938964844,21.67029414457433,25.5600004196167,22.849166552225746,23.411666552225746,21.07178568840027,23.230000178019207,20.064333375295003,5.029333346585433,7.252857208251953,13.44184210425929,15.842666625976563,16.826470655553482,19.579999923706055,18.141666412353516,18.5,16.757142816271102,18.81000010172526,14.85733331044515,3.5131733067399264,4.777389105248026,8.069030603662135,10.623696834764461,11.194373893536605,14.941854277491572,12.849166552225748,13.41166655222575,11.12214048489843,13.230000178019205,9.075141470034122,3.5131733067399264,4.777389105248026,8.069030603662135,10.623696834764461,11.194373893536605,14.941854277491572,12.849166552225748,13.41166655222575,11.12214048489843,13.230000178019205,9.075141470034122,0,0,306.62316293916115,465.9786154606279,656.2829716507503,671.2248259282418,748.3198252415963,828.7898245549508,984.4997913435288,1024.1897918775865,1024.1897918775865,0,0,0.8299873112905748,0.976699997584025,0.9829117690815645,1,1,1,0.9554285730634416,1,0.06666666666666667,1,1,0.9960554893124337,1,1,1,1,1,1,1,1,0.25249999682108565,0.3927142909594945,0.833802634791324,0.976699997584025,0.9829117690815645,1,1,1,0.9554285730634416,1,0.8383333396911621,1,1,1,1,1,0.9999999999999998,1,0.9999999999999999,1,0.9999999999999999,1,2018-05-05T12:00:00Z,2018-05-20T12:00:00Z,2018-05-27T12:00:00Z,2018-07-04T12:00:00Z,2018-07-19T12:00:00Z,2018-08-05T12:00:00Z,2018-08-06T12:00:00Z,2018-08-12T12:00:00Z,2018-08-18T12:00:00Z,2018-09-01T12:00:00Z,2018-09-04T12:00:00Z,2018-05-19T12:00:00Z,2018-05-26T12:00:00Z,2018-07-03T12:00:00Z,2018-07-18T12:00:00Z,2018-08-04T12:00:00Z,2018-08-05T12:00:00Z,2018-08-11T12:00:00Z,2018-08-17T12:00:00Z,2018-08-31T12:00:00Z,2018-09-03T12:00:00Z,2018-09-18T12:00:00Z,125,140,147,185,200,217,218,224,230,244,247,14,6,37,14,16,0,5,5,13,2,14,139,146,184,199,216,217,223,229,243,246,261
113,stpauls_ont,43.32515,-81.1402,0.5,2018,4,2018,mid0,812.1088496442715,11,2018-05-05,2018-05-19,108,2018-09-04,2018-09-07,2018-09-21,Harvested at Maturity.,2.65533330415686,1.0885714476129837,1.673846132384661,1.7443750121165067,3.946111099794507,10.31999969482422,1.446666664754351,4.561666803124051,3.9015384452560773,0.8866666654745737,1.3066666660209496,2.65533330415686,1.0885714476129837,1.673846132384661,1.7443750121165067,3.946111099794507,10.31999969482422,1.446666664754351,4.561666803124051,3.9015384452560773,0.8866666654745737,1.3066666660209496,21.1113333384196,22.60285677228655,22.75487183301877,24.948125183582306,18.768888897365994,15.59000015258789,22.486666679382324,15.164999802907307,15.832307668832632,19.06000010172526,14.251333236694336,19.209999974568685,20.55285712650844,25.788461562914726,28.565624952316284,26.791111098395454,24.149999618530273,28.361666679382324,27.513333002726238,25.4253846682035,29.083333333333332,24.226000213623045,12.119666660577058,13.902857167380196,19.681794875707382,22.089062452316284,22.2066666815016,20.679999351501465,22.670000076293945,22.827499787012737,21.210000038146973,24.499999999999996,19.129333400726317,5.029333346585433,7.252857208251953,13.575128188500038,15.612499952316284,17.622222264607746,17.209999084472656,16.978333473205566,18.141666571299236,16.994615408090446,19.916666666666668,14.03266658782959,3.5131733067399264,4.777389105248026,7.46159989814408,9.825255876675012,11.264901902567866,10.6043503654748,12.670000076293945,12.827499787012735,11.26422828052961,14.300522837376594,8.47837022317648,3.5131733067399264,4.777389105248026,7.46159989814408,9.825255876675012,11.264901902567866,10.6043503654748,12.670000076293945,12.827499787012735,11.26422828052961,14.300522837376594,8.47837022317648,0,0,291.00239602761917,448.20649005441936,650.9747243006409,661.5790746661157,737.5990751238794,814.5640738459558,960.9990414928408,1003.9006100049704,1003.9006100049704,0,0,0.834331923267898,0.9781562477350235,0.9838611152436998,1,1,1,0.9520000017606295,1,0.06513333638509115,1,1,0.9961482167107161,1,1,1,1,1,1,1,1,0.25249999682108565,0.3927142909594945,0.8380641056941106,0.9781562477350235,0.9838611152436998,1,1,1,0.9520000017606295,1,0.8156000073750814,1,1,1,1,1,1,0.9999999999999999,1,1,0.9999999999999999,1,2018-05-05T12:00:00Z,2018-05-20T12:00:00Z,2018-05-27T12:00:00Z,2018-07-05T12:00:00Z,2018-07-21T12:00:00Z,2018-08-08T12:00:00Z,2018-08-09T12:00:00Z,2018-08-15T12:00:00Z,2018-08-21T12:00:00Z,2018-09-03T12:00:00Z,2018-09-06T12:00:00Z,2018-05-19T12:00:00Z,2018-05-26T12:00:00Z,2018-07-04T12:00:00Z,2018-07-20T12:00:00Z,2018-08-07T12:00:00Z,2018-08-08T12:00:00Z,2018-08-14T12:00:00Z,2018-08-20T12:00:00Z,2018-09-02T12:00:00Z,2018-09-05T12:00:00Z,2018-09-20T12:00:00Z,125,140,147,186,202,220,221,227,233,246,249,14,6,38,15,17,0,5,5,12,2,14,139,146,185,201,219,220,226,232,245,248,263
114,stpauls_ont,43.32515,-81.1402,1.5,2018,4,2018,mid1,1047.303351882668,11,2018-05-05,2018-05-19,123,2018-09-19,2018-09-25,2018-10-09,Harvested at Maturity.,2.65533330415686,1.0885714476129837,1.5202173732383095,3.518947374075651,3.919444464974933,2.5,4.184999947436154,2.570000031164714,1.3419999984403452,1.0850000207622845,3.7693333735068637,2.65533330415686,1.0885714476129837,1.5202173732383095,3.518947374075651,3.919444464974933,2.5,4.184999947436154,2.570000031164714,1.3419999984403452,1.0850000207622845,3.7693333735068637,21.1113333384196,22.60285677228655,23.623043537139893,20.125263163917943,19.164444499545628,19.540000915527344,15.84624981880188,15.92285714830671,15.34799992243449,15.028333266576132,8.62866668701172,19.209999974568685,20.55285712650844,26.18978261947632,27.14368418643349,27.903888808356392,28.010000228881836,25.06874990463257,26.24000004359654,25.285333506266277,23.268333435058594,18.963999875386556,12.119666660577058,13.902857167380196,19.90695653791013,22.003684119174356,23.02944442960951,23.020000457763672,20.614374935626984,21.982142857142858,20.218666744232177,17.647499958674114,14.046999939282735,5.029333346585433,7.252857208251953,13.624130456343941,16.863684051915218,18.15500005086263,18.030000686645508,16.1599999666214,17.724285670689174,15.15199998219808,12.026666482289633,9.130000003178914,3.5131733067399264,4.777389105248026,6.775268051489877,9.375859277106969,12.2296030751143,13.020000457763672,10.658332681453228,12.032615026337758,10.641193202561539,8.531932363886636,3.9700725668606163,3.5131733067399264,4.777389105248026,6.775268051489877,9.375859277106969,12.2296030751143,13.020000457763672,10.658332681453228,12.032615026337758,10.641193202561539,8.531932363886636,3.9700725668606163,0,0,311.66233036853447,489.803656633567,709.9365119856245,722.9565124433882,808.223173895014,892.4514790793784,1052.0693771178017,1103.2609713011211,1103.2609713011211,0,0,0.8523954541863812,0.9835263176968223,1,1,0.956375002861023,0.9607142857142857,0.8383333396911621,0.7417500098546347,0.044266668955485027,1,1,0.9967123156340694,1,1,1,1,1,1,1,1,0.25249999682108565,0.3927142909594945,0.8555978287821231,0.9835263176968223,1,1,0.956375002861023,0.9607142857142857,0.8383333396911621,0.7417500098546347,0.41446665763854984,1,1,1,1,0.998639702124643,1,0.9999999999999999,0.9999999999999999,1,1,1,2018-05-05T12:00:00Z,2018-05-20T12:00:00Z,2018-05-27T12:00:00Z,2018-07-12T12:00:00Z,2018-07-31T12:00:00Z,2018-08-18T12:00:00Z,2018-08-19T12:00:00Z,2018-08-27T12:00:00Z,2018-09-03T12:00:00Z,2018-09-18T12:00:00Z,2018-09-24T12:00:00Z,2018-05-19T12:00:00Z,2018-05-26T12:00:00Z,2018-07-11T12:00:00Z,2018-07-30T12:00:00Z,2018-08-17T12:00:00Z,2018-08-18T12:00:00Z,2018-08-26T12:00:00Z,2018-09-02T12:00:00Z,2018-09-17T12:00:00Z,2018-09-23T12:00:00Z,2018-10-08T12:00:00Z,125,140,147,193,212,230,231,239,246,261,267,14,6,45,18,17,0,7,6,14,5,14,139,146,192,211,229,230,238,245,260,266,281
115,stpauls_ont,43.32515,-81.1402,2.5,2018,4,2018,mid2,1163.447024825248,11,2018-05-05,2018-05-19,138,2018-10-04,2018-10-11,2018-10-25,Harvested at Maturity.,2.65533330415686,1.0885714476129837,1.4159999838471413,4.177272726358338,4.031000002659857,5.860000133514404,1.837142871958869,1.3588889001144304,2.7020000198856,2.457142880984715,1.3246666848659516,2.65533330415686,1.0885714476129837,1.4159999838471413,4.177272726358338,4.031000002659857,5.860000133514404,1.837142871958869,1.3588889001144304,2.7020000198856,2.457142880984715,1.3246666848659516,21.1113333384196,22.60285677228655,23.3142000579834,19.95681823383678,17.777499961853028,11.039999961853027,16.854285648890905,15.155555566151937,12.245999956130982,9.049999986376081,8.7,19.209999974568685,20.55285712650844,26.469400005340578,26.966363646767356,26.727999877929687,27.34000015258789,26.06571442740304,23.341111289130318,22.319000053405762,21.032856941223145,11.296666653951009,12.119666660577058,13.902857167380196,20.219500007629396,22.06431818008423,21.993249917030333,24.074999809265137,21.8121429170881,18.485000080532497,17.27925000190735,15.385714139257159,7.423666678865751,5.029333346585433,7.252857208251953,13.969600009918214,17.1622727134011,17.258499956130983,20.809999465942383,17.558571406773158,13.628888871934679,12.239499950408936,9.738571337291173,3.550666703780492,3.5131733067399264,4.777389105248026,5.894523771614468,8.919558609087153,11.302581968927205,14.074999809265137,11.862615086283002,9.17999812377029,8.618054615347981,7.652716032740899,0.4566988226324568,3.5131733067399264,4.777389105248026,5.894523771614468,8.919558609087153,11.302581968927205,14.074999809265137,11.862615086283002,9.17999812377029,8.618054615347981,7.652716032740899,0.4566988226324568,0,0,294.7261885807234,490.9564779806408,717.008117359185,731.0831171684501,814.1214227724312,896.7414058863639,1069.1024981933235,1122.6715104225098,1122.6715104225098,0,0,0.8641811986291362,0.9857727289199829,0.9825500011444092,1,0.9607142857142857,0.7305555661519368,0.6498750019073487,0.5242856979370117,0.06666666666666667,1,1,0.9969622893696456,1,1,1,1,1,1,1,1,0.25249999682108565,0.3927142909594945,0.8671500024795532,0.9857727289199829,0.9825500011444092,1,0.9607142857142857,0.7305555661519368,0.6498750019073487,0.5242856979370117,0.08839999993642171,1,1,1,1,0.9951931609200041,1,1,0.9999999999999999,1,1,1,2018-05-05T12:00:00Z,2018-05-20T12:00:00Z,2018-05-27T12:00:00Z,2018-07-16T12:00:00Z,2018-08-07T12:00:00Z,2018-08-27T12:00:00Z,2018-08-28T12:00:00Z,2018-09-04T12:00:00Z,2018-09-13T12:00:00Z,2018-10-03T12:00:00Z,2018-10-10T12:00:00Z,2018-05-19T12:00:00Z,2018-05-26T12:00:00Z,2018-07-15T12:00:00Z,2018-08-06T12:00:00Z,2018-08-26T12:00:00Z,2018-08-27T12:00:00Z,2018-09-03T12:00:00Z,2018-09-12T12:00:00Z,2018-10-02T12:00:00Z,2018-10-09T12:00:00Z,2018-10-24T12:00:00Z,125,140,147,197,219,239,240,247,256,276,283,14,6,49,21,19,0,6,8,19,6,14,139,146,196,218,238,239,246,255,275,282,297
116,stpauls_ont,43.32515,-81.1402,-1.5,2019,4,2019,mid000,216.19359505569156,11,2019-05-11,2019-05-25,83,2019-08-16,2019-08-19,2019-09-02,Harvested at Maturity.,2.2333333174387615,1.608181833204898,NA,1.7800000058859586,2.028333315625787,NA,2.380000030355794,1.1500000187328885,0.7615384787607652,2.9600000182787576,1.64600001052022,2.2333333174387615,1.608181833204898,NA,1.7800000058859586,2.028333315625787,NA,2.380000030355794,1.1500000187328885,0.7615384787607652,2.9600000182787576,1.64600001052022,16.863333257039386,17.93909098885276,NA,21.961599979400635,24.08166684044732,NA,22.77571405683245,23.050000054495676,22.278461603017956,17.206666946411133,19.082000001271567,15.9086669921875,18.186363653703168,NA,22.65239990234375,28.663888931274414,NA,27.28285734994071,28.4514285496303,27.963076958289513,26.686665852864586,25.455333201090493,10.395000120004019,12.465454600074075,NA,17.070399904251097,22.466666618982952,NA,22.081428732190812,22.737142903464182,22.09192312680758,21.3916662534078,19.990666548411053,4.881333247820536,6.7445455464449795,NA,11.488399906158447,16.269444306691486,NA,16.880000114440918,17.02285725729806,16.220769295325645,16.09666665395101,14.525999895731609,2.3384043163446586,3.3228984709544616,NA,6.453105565174555,11.546740284088441,NA,11.838412284470767,12.761895181975333,12.100063661190639,11.391666253407797,9.053666591644287,2.3384043163446586,3.3228984709544616,NA,6.453105565174555,11.546740284088441,NA,11.838412284470767,12.761895181975333,12.100063661190639,11.391666253407797,9.053666591644287,0,0,NA,161.32763912936392,369.1689642429559,NA,452.03785023425127,541.3711165080786,698.6719441035568,732.8469428637802,732.8469428637802,0,0,NA,0.6866799955368043,0.9946388880411784,NA,0.9769285815102714,1,0.9853461595681997,1,0.06666666666666667,1,1,NA,1,1,NA,1,1,1,1,1,0.1536666758855184,0.2600909168070013,NA,0.6866799955368043,0.9946388880411784,NA,0.9769285815102714,1,0.9853461595681997,1,0.8966666666666667,1,1,NA,1,1,NA,1,1,1,0.9999999999999999,1,2019-05-11T12:00:00Z,2019-05-26T12:00:00Z,NA,2019-06-06T12:00:00Z,2019-07-01T12:00:00Z,NA,2019-07-19T12:00:00Z,2019-07-26T12:00:00Z,2019-08-02T12:00:00Z,2019-08-15T12:00:00Z,2019-08-18T12:00:00Z,2019-05-25T12:00:00Z,2019-06-05T12:00:00Z,NA,2019-06-30T12:00:00Z,2019-07-18T12:00:00Z,NA,2019-07-25T12:00:00Z,2019-08-01T12:00:00Z,2019-08-14T12:00:00Z,2019-08-17T12:00:00Z,2019-09-01T12:00:00Z,131,146,NA,157,182,NA,200,207,214,227,230,14,10,0,24,17,0,6,6,12,2,14,145,156,NA,181,199,NA,206,213,226,229,244
117,stpauls_ont,43.32515,-81.1402,-0.5,2019,4,2019,mid00,802.44121363921,11,2019-05-11,2019-05-25,116,2019-09-18,2019-09-22,2019-10-06,Harvested at Maturity.,2.2333333174387615,1.608181833204898,1.6894871856635199,2.391428556293249,1.0125000228872523,0.05000000074505806,2.6328571694237843,1.0824999804608524,2.4688889268371796,0.25750000728294253,3.040666655699412,2.2333333174387615,1.608181833204898,1.6894871856635199,2.391428556293249,1.0125000228872523,0.05000000074505806,2.6328571694237843,1.0824999804608524,2.4688889268371796,0.25750000728294253,3.040666655699412,16.863333257039386,17.93909098885276,22.9938461963947,22.277857167380198,22.476250052452087,24.63999938964844,18.27857153756278,19.989999890327454,13.853333393732706,18.605000019073486,11.2253333568573,15.9086669921875,18.186363653703168,24.762051215538612,28.134285926818848,28.004374980926514,28.25,27.979999542236328,24.829999685287476,23.47999996609158,26.22249984741211,21.442000071207683,10.395000120004019,12.465454600074075,18.919743519562942,22.738214356558665,22.12812504172325,21.829999923706055,22.487856796809606,19.326249837875366,17.908888896306355,19.992499947547913,16.525,4.881333247820536,6.7445455464449795,13.07743582358727,17.342142786298478,16.25187510251999,15.40999984741211,16.995714051382883,13.822499990463257,12.337777826521132,13.762500047683716,11.607999928792317,2.3384043163446586,3.3228984709544616,7.668028904992808,11.814547161555959,12.040253999458832,11.829999923706056,12.487856796809606,9.643715908370911,8.57666374674042,10.109771179991961,5.958375869822105,2.3384043163446586,3.3228984709544616,7.668028904992808,11.814547161555959,12.040253999458832,11.829999923706056,12.487856796809606,9.643715908370911,8.57666374674042,10.109771179991961,5.958375869822105,0,0,299.0531272947195,464.4567875565029,657.1008515478441,668.9308514715501,756.3458490492173,833.4955763161847,987.8755237575124,1028.31460847748,1028.31460847748,0,0,0.7966794839272132,0.9884642907551356,0.9880937546491623,1,1,0.9061249911785125,0.7766944408416748,0.9741249918937683,0.06666666666666667,1,1,0.9981983006363965,1,1,1,1,1,1,1,1,0.1536666758855184,0.2600909168070013,0.7966794839272132,0.9884642907551356,0.9880937546491623,1,1,0.9061249911785125,0.7766944408416748,0.9741249918937683,0.6016666666666667,1,1,1,1,0.9883435063940158,0.8714415924818135,0.9947985464099338,1,1,1,1,2019-05-11T12:00:00Z,2019-05-26T12:00:00Z,2019-06-06T12:00:00Z,2019-07-15T12:00:00Z,2019-07-29T12:00:00Z,2019-08-14T12:00:00Z,2019-08-15T12:00:00Z,2019-08-22T12:00:00Z,2019-08-30T12:00:00Z,2019-09-17T12:00:00Z,2019-09-21T12:00:00Z,2019-05-25T12:00:00Z,2019-06-05T12:00:00Z,2019-07-14T12:00:00Z,2019-07-28T12:00:00Z,2019-08-13T12:00:00Z,2019-08-14T12:00:00Z,2019-08-21T12:00:00Z,2019-08-29T12:00:00Z,2019-09-16T12:00:00Z,2019-09-20T12:00:00Z,2019-10-05T12:00:00Z,131,146,157,196,210,226,227,234,242,260,264,14,10,38,13,15,0,6,7,17,3,14,145,156,195,209,225,226,233,241,259,263,278
118,stpauls_ont,43.32515,-81.1402,0.5,2019,4,2019,mid0,804.8827511027894,11,2019-05-11,2019-05-25,118,2019-09-20,2019-09-23,2019-10-07,Harvested at Maturity.,2.2333333174387615,1.608181833204898,1.6487804931565755,2.6707692197882213,0.8872222408859266,NA,2.2828571666032076,1.6577777810808685,2.291764737052076,0.6466666553169489,3.0066666563351947,2.2333333174387615,1.608181833204898,1.6487804931565755,2.6707692197882213,0.8872222408859266,NA,2.2828571666032076,1.6577777810808685,2.291764737052076,0.6466666553169489,3.0066666563351947,16.863333257039386,17.93909098885276,22.853170778693222,22.274615361140324,22.035000059339737,NA,20.272857121058873,18.40777783923679,14.059411834268008,17.546666463216145,10.785333331425985,15.9086669921875,18.186363653703168,24.933170690769103,28.230769377488357,27.72277768452962,NA,27.1757139478411,24.36777771843804,23.919999851899988,27.43999989827474,20.802000045776367,10.395000120004019,12.465454600074075,19.093902372732394,22.954615482917198,21.77388885286119,NA,21.689999716622488,19.01111110051473,18.19499994726742,21.28666655222575,16.042000007629394,4.881333247820536,6.7445455464449795,13.254634054695687,17.678461588346043,15.825000021192762,NA,16.20428548540388,13.654444482591417,12.470000042634853,15.133333206176758,11.281999969482422,2.3384043163446586,3.3228984709544616,7.186043263586844,11.359757584660962,11.478943683266456,NA,11.850981473826511,9.382030989490614,8.814151798155379,11.299342563974857,5.431709165008465,2.3384043163446586,3.3228984709544616,7.186043263586844,11.359757584660962,11.478943683266456,NA,11.850981473826511,9.382030989490614,8.814151798155379,11.299342563974857,5.431709165008465,0,0,294.6277738070606,442.30462240765314,648.9256087064493,NA,731.882479023235,816.3207579286506,966.161338497292,1000.0593661892163,1000.0593661892163,0,0,0.8065975578819833,0.9875769285055307,0.9894166707992553,NA,0.9359999929155622,0.8775555610656739,0.80447057836196,1,0.06666666666666667,1,1,0.9982805470568225,1,1,NA,1,1,1,1,1,0.1536666758855184,0.2600909168070013,0.8065975578819833,0.9875769285055307,0.9894166707992553,NA,0.9359999929155622,0.8775555610656739,0.80447057836196,1,0.5723999977111817,1,1,1,1,0.979384553733926,NA,0.9566219342124127,0.9992915332401424,1,1,1,2019-05-11T12:00:00Z,2019-05-26T12:00:00Z,2019-06-06T12:00:00Z,2019-07-17T12:00:00Z,2019-07-30T12:00:00Z,NA,2019-08-17T12:00:00Z,2019-08-24T12:00:00Z,2019-09-02T12:00:00Z,2019-09-19T12:00:00Z,2019-09-22T12:00:00Z,2019-05-25T12:00:00Z,2019-06-05T12:00:00Z,2019-07-16T12:00:00Z,2019-07-29T12:00:00Z,2019-08-16T12:00:00Z,NA,2019-08-23T12:00:00Z,2019-09-01T12:00:00Z,2019-09-18T12:00:00Z,2019-09-21T12:00:00Z,2019-10-06T12:00:00Z,131,146,157,198,211,NA,229,236,245,262,265,14,10,40,12,17,0,6,8,16,2,14,145,156,197,210,228,NA,235,244,261,264,279
119,stpauls_ont,43.32515,-81.1402,1.5,2019,4,2019,mid1,888.0932483812995,11,2019-05-11,2019-05-25,135,2019-10-07,2019-10-16,2019-10-30,Harvested at Maturity.,2.2333333174387615,1.608181833204898,2.1060000012732214,0.9352941310361904,1.442857149101439,NA,1.7981818508018148,2.933333370420668,2.4547368349801553,1.1377777641432152,2.669999997317791,2.2333333174387615,1.608181833204898,2.1060000012732214,0.9352941310361904,1.442857149101439,NA,1.7981818508018148,2.933333370420668,2.4547368349801553,1.1377777641432152,2.669999997317791,16.863333257039386,17.93909098885276,22.63866671456231,23.141764696906595,20.28571433112735,NA,16.37545451250943,12.428888956705729,12.778947391008076,13.353333367241753,8.724666754404703,15.9086669921875,18.186363653703168,25.367333306206596,27.95764709921444,26.81761886959984,NA,23.1627271825617,24.25444433424208,22.448421076724404,17.337777879503037,13.635999933878582,10.395000120004019,12.465454600074075,19.6258888191647,22.106470640967874,21.191428479694185,NA,17.75818178870461,18.570555528004963,17.254999988957454,12.203888972600302,9.196333279212316,4.881333247820536,6.7445455464449795,13.884444332122802,16.255294182721308,15.565238089788528,NA,12.353636394847523,12.886666721767849,12.061578901190506,7.070000065697564,4.756666624546051,2.3384043163446586,3.3228984709544616,6.818025834236543,10.30870322763232,11.012233308129343,NA,8.39360965572162,9.133194085950985,8.506952975197528,5.851202503252692,1.0961592012650023,2.3384043163446586,3.3228984709544616,6.818025834236543,10.30870322763232,11.012233308129343,NA,8.39360965572162,9.133194085950985,8.506952975197528,5.851202503252692,1.0961592012650023,0,0,306.81116254064443,482.0591174103939,713.3160168811103,NA,805.6457230940481,887.8444698676069,1049.47657639636,1102.1373989256344,1102.1373989256344,0,0,0.8237888860702515,0.9905000041512882,0.9565476213182722,NA,0.7721363631161777,0.8286666552225749,0.680078945661846,0.26577778392367896,0,1,1,0.9984192411029508,1,1,NA,1,1,1,1,1,0.1536666758855184,0.2600909168070013,0.8237888860702515,0.9905000041512882,0.9565476213182722,NA,0.7721363631161777,0.8286666552225749,0.680078945661846,0.26577778392367896,0.05319999853769939,1,1,1,0.9959888710104924,0.8858904740012001,NA,0.8507162480079135,0.9798624834362671,0.9908288132416935,1,1,2019-05-11T12:00:00Z,2019-05-26T12:00:00Z,2019-06-06T12:00:00Z,2019-07-21T12:00:00Z,2019-08-07T12:00:00Z,NA,2019-08-28T12:00:00Z,2019-09-08T12:00:00Z,2019-09-17T12:00:00Z,2019-10-06T12:00:00Z,2019-10-15T12:00:00Z,2019-05-25T12:00:00Z,2019-06-05T12:00:00Z,2019-07-20T12:00:00Z,2019-08-06T12:00:00Z,2019-08-27T12:00:00Z,NA,2019-09-07T12:00:00Z,2019-09-16T12:00:00Z,2019-10-05T12:00:00Z,2019-10-14T12:00:00Z,2019-10-29T12:00:00Z,131,146,157,202,219,NA,240,251,260,279,288,14,10,44,16,20,0,10,8,18,8,14,145,156,201,218,239,NA,250,259,278,287,302
120,stpauls_ont,43.32515,-81.1402,2.5,2019,4,2019,mid2,965.141692754132,11,2019-05-11,2019-05-25,154,2019-10-26,2019-11-06,2019-11-20,Harvested at Maturity.,2.2333333174387615,1.608181833204898,1.9534000008180739,0.942105281803953,1.6408333412061136,3.19500008225441,2.9411111540264554,1.5355555744220812,2.386428572836199,3.9581817774610086,1.6053333333383004,2.2333333174387615,1.608181833204898,1.9534000008180739,0.942105281803953,1.6408333412061136,3.19500008225441,2.9411111540264554,1.5355555744220812,2.386428572836199,3.9581817774610086,1.6053333333383004,16.863333257039386,17.93909098885276,22.838800020217896,22.438421149002878,18.034583310286205,15.365000247955322,13.185555669996473,15.846666547987196,10.560714381081718,5.456363612955267,5.24266668955485,15.9086669921875,18.186363653703168,25.464799995422364,28.127894752903988,25.212083101272583,21.414999961853027,24.82555537753635,24.858889049953884,16.853928600038802,9.860909028486772,1.1026666651169459,10.395000120004019,12.465454600074075,19.714599957466127,22.343421107844303,19.695416510105133,15.667500019073486,19.104444397820366,19.67833333545261,11.965892877961908,6.4627272436733945,-1.5573333432277043,4.881333247820536,6.7445455464449795,13.964399919509887,16.558947462784616,14.178749918937683,9.920000076293945,13.383333418104383,14.497777620951334,7.077857155885015,3.064545458860018,-4.217333351572354,2.3384043163446586,3.3228984709544616,5.91322485531457,10.0823552100833,9.566598592108495,5.690778944396973,9.477274969351955,9.91875313693881,5.957921403413266,5.0212730440578675,0,2.3384043163446586,3.3228984709544616,5.91322485531457,10.0823552100833,9.566598592108495,5.690778944396973,9.477274969351955,9.91875313693881,5.957921403413266,5.0212730440578675,0,0,0,295.6612427657285,487.22599175731114,716.824357967915,728.205915856709,813.5013905808765,902.770168813326,1069.5919681088976,1124.8259715935342,1124.8259715935342,0,0,0.8381799988746643,0.9899736881256104,0.8805208305517832,0.5667500019073487,0.8820555422041152,0.8837777773539226,0.2522321445601327,0.010909091342579235,0,1,1,0.9985686105334654,1,1,1,1,1,1,1,1,0.1536666758855184,0.2600909168070013,0.8381799988746643,0.9899736881256104,0.8805208305517832,0.5667500019073487,0.8820555422041152,0.8837777773539226,0.2522321445601327,0.010909091342579235,0,1,1,1,0.981850457116868,0.8005331650586079,0.8235330759006181,0.8574301318978693,0.7951696724532037,1,1,1,2019-05-11T12:00:00Z,2019-05-26T12:00:00Z,2019-06-06T12:00:00Z,2019-07-26T12:00:00Z,2019-08-14T12:00:00Z,2019-09-07T12:00:00Z,2019-09-09T12:00:00Z,2019-09-18T12:00:00Z,2019-09-27T12:00:00Z,2019-10-25T12:00:00Z,2019-11-05T12:00:00Z,2019-05-25T12:00:00Z,2019-06-05T12:00:00Z,2019-07-25T12:00:00Z,2019-08-13T12:00:00Z,2019-09-06T12:00:00Z,2019-09-08T12:00:00Z,2019-09-17T12:00:00Z,2019-09-26T12:00:00Z,2019-10-24T12:00:00Z,2019-11-04T12:00:00Z,2019-11-19T12:00:00Z,131,146,157,207,226,250,252,261,270,298,309,14,10,49,18,23,1,8,8,27,10,14,145,156,206,225,249,251,260,269,297,308,323
141,woodstock_ont,43.14542,-80.78348,-1.5,2017,5,2017,mid000,233.59142951302596,11,2017-04-07,2017-04-21,105,2017-08-04,2017-08-08,2017-08-22,Harvested at Maturity.,2.6220000613480807,2.8433333339635283,NA,2.6549999761794294,5.016363702375781,0.01999999955296516,4.8542856999806,2.510000025620684,2.416923077060626,2.695000022649765,1.3446666498978932,2.6220000613480807,2.8433333339635283,NA,2.6549999761794294,5.016363702375781,0.01999999955296516,4.8542856999806,2.510000025620684,2.416923077060626,2.695000022649765,1.3446666498978932,16.156666580835978,18.73958335320155,NA,21.4160715341568,21.186363567005504,30.59000015258789,21.065714291163854,19.497500121593475,19.966153951791618,16.304999589920044,18.22600008646647,14.637333520253499,14.311666627724966,NA,21.49035699026925,24.739091006192293,27.940000534057617,26.48000008719308,26.865000009536743,26.721538543701172,24.505000114440918,26.758666483561196,8.865666756033898,9.303124989072481,NA,16.225178463118418,19.9072727506811,21.13000011444092,21.84500013078962,21.990000128746033,21.74961552253136,19.925000071525574,21.52266648610433,3.0939999918142953,4.294583350419998,NA,10.959999935967582,15.0754544951699,14.31999969482422,17.21000017438616,17.115000247955322,16.777692501361553,15.34500002861023,16.286666488647462,1.826900650552114,1.560494521679807,NA,5.9334750901517594,8.979397622271433,10.240716022812949,11.025561957358617,11.461117404376091,11.686851355136621,10.027588661944865,10.879912887862524,1.826900650552114,1.560494521679807,NA,5.9334750901517594,8.979397622271433,10.240716022812949,11.025561957358617,11.461117404376091,11.686851355136621,10.027588661944865,10.879912887862524,0,0,NA,166.13730252424926,363.68405021422075,373.9247662370337,451.103699938544,542.7926391735527,694.7217067903288,734.8320614381082,734.8320614381082,0,0,NA,0.5937230792715756,0.8969090981916948,1,0.9889999934605189,1,0.9748076915740967,0.9181250095367433,0.06356666564941407,1,1,NA,0.9998053392415905,1,1,1,1,1,1,1,0.11903334299723307,0.085958331823349,NA,0.593732133933476,0.8969090981916948,1,0.9889999934605189,1,0.9748076915740967,0.9181250095367433,0.9924333318074544,1,1,NA,1,1,0.9999999999999998,1,1,1,1,1,2017-04-07T12:00:00Z,2017-04-22T12:00:00Z,NA,2017-05-16T12:00:00Z,2017-06-13T12:00:00Z,2017-07-05T12:00:00Z,2017-07-06T12:00:00Z,2017-07-13T12:00:00Z,2017-07-21T12:00:00Z,2017-08-03T12:00:00Z,2017-08-07T12:00:00Z,2017-04-21T12:00:00Z,2017-05-15T12:00:00Z,NA,2017-06-12T12:00:00Z,2017-07-04T12:00:00Z,2017-07-05T12:00:00Z,2017-07-12T12:00:00Z,2017-07-20T12:00:00Z,2017-08-02T12:00:00Z,2017-08-06T12:00:00Z,2017-08-21T12:00:00Z,97,112,NA,136,164,186,187,194,202,215,219,14,23,0,27,21,0,6,7,12,3,14,111,135,NA,163,185,186,193,201,214,218,233
142,woodstock_ont,43.14542,-80.78348,-0.5,2017,5,2017,mid00,768.0219262349395,11,2017-04-07,2017-04-21,137,2017-09-05,2017-09-11,2017-09-25,Harvested at Maturity.,2.6220000613480807,2.8433333339635283,3.700000018874804,3.9850000009173527,2.2188888904121185,0.8899999856948853,2.3037499971687794,1.3557142657893044,1.3993749883957207,3.2949999570846558,2.926666662717859,2.6220000613480807,2.8433333339635283,3.700000018874804,3.9850000009173527,2.2188888904121185,0.8899999856948853,2.3037499971687794,1.3557142657893044,1.3993749883957207,3.2949999570846558,2.926666662717859,16.156666580835978,18.73958335320155,21.076666673024494,21.69875004887581,20.206111272176106,17.979999542236328,17.168750166893005,17.531428609575546,18.646250009536743,16.348333199818928,17.148666699727375,14.637333520253499,14.311666627724966,22.59866663614909,26.24749994277954,26.927222357855904,26.719999313354492,25.210000038146973,26.744285583496094,24.00499975681305,20.403333346048992,26.81000010172526,8.865666756033898,9.303124989072481,17.520111062791614,21.438437521457672,21.864166842566597,22.854999542236328,20.13999992609024,21.497142791748047,18.884062334895134,15.46833332379659,21.127000125249225,3.0939999918142953,4.294583350419998,12.441555489434137,16.629375100135803,16.80111132727729,18.989999771118164,15.069999814033508,16.25,13.763124912977219,10.53333330154419,15.444000148773194,1.826900650552114,1.560494521679807,6.576116156925812,10.00946009483265,11.25025157167601,12.854999542236328,10.243903498780728,11.52213332387209,9.376067680601404,7.032153973952929,10.779017066523632,1.826900650552114,1.560494521679807,6.576116156925812,10.00946009483265,11.25025157167601,12.854999542236328,10.243903498780728,11.52213332387209,9.376067680601404,7.032153973952929,10.779017066523632,0,0,295.9252270616615,456.07658857898383,658.581116869152,671.4361164113883,753.3873444016341,834.0422776687386,984.0593605583608,1026.2522844020784,1026.2522844020784,0,0,0.6968909685019705,0.9876562476158142,0.9818055550257365,1,0.9448750019073486,1,0.8274999931454659,0.5372499942779542,0.029466665585835775,1,1,0.9972907549643595,1,1,1,1,1,1,1,1,0.11903334299723307,0.085958331823349,0.6994888867272271,0.9876562476158142,0.9818055550257365,1,0.9448750019073486,1,0.8274999931454659,0.5372499942779542,0.9311333386103312,1,1,1,0.9999999999999999,1,1,1,1,1,1,1,2017-04-07T12:00:00Z,2017-04-22T12:00:00Z,2017-05-16T12:00:00Z,2017-06-30T12:00:00Z,2017-07-16T12:00:00Z,2017-08-03T12:00:00Z,2017-08-04T12:00:00Z,2017-08-12T12:00:00Z,2017-08-19T12:00:00Z,2017-09-04T12:00:00Z,2017-09-10T12:00:00Z,2017-04-21T12:00:00Z,2017-05-15T12:00:00Z,2017-06-29T12:00:00Z,2017-07-15T12:00:00Z,2017-08-02T12:00:00Z,2017-08-03T12:00:00Z,2017-08-11T12:00:00Z,2017-08-18T12:00:00Z,2017-09-03T12:00:00Z,2017-09-09T12:00:00Z,2017-09-24T12:00:00Z,97,112,136,181,197,215,216,224,231,247,253,14,23,44,15,17,0,7,6,15,5,14,111,135,180,196,214,215,223,230,246,252,267
143,woodstock_ont,43.14542,-80.78348,0.5,2017,5,2017,mid0,793.334812562968,11,2017-04-07,2017-04-21,142,2017-09-10,2017-09-14,2017-09-28,Harvested at Maturity.,2.6220000613480807,2.8433333339635283,3.8178723546418736,3.4770588363137316,2.2331578998189223,1.7799999713897705,1.1957142693655831,1.5266666462024052,2.117368398920486,0.16499999398365617,3.4153333137432735,2.6220000613480807,2.8433333339635283,3.8178723546418736,3.4770588363137316,2.2331578998189223,1.7799999713897705,1.1957142693655831,1.5266666462024052,2.117368398920486,0.16499999398365617,3.4153333137432735,16.156666580835978,18.73958335320155,20.89744680485827,22.319411922903623,19.10263156890869,10.670000076293944,20.55714307512556,15.990000089009603,17.71789470471834,21.110000133514404,15.91933339436849,14.637333520253499,14.311666627724966,22.74808506255454,26.22647061067469,26.55789485730623,23.989999771118164,26.514285496303014,26.859999974568684,22.848420896028216,22.5,27.91066665649414,8.865666756033898,9.303124989072481,17.71840420175106,21.315882458406335,21.55473696558099,19.53499984741211,21.042856897626603,21.859999974568687,17.83026304997896,15.652500092983246,22.540000025431315,3.0939999918142953,4.294583350419998,12.688723340947577,16.405294306137982,16.551579073855752,15.079999923706056,15.571428298950195,16.859999974568684,12.8121052039297,8.805000185966492,17.16933339436849,1.826900650552114,1.560494521679807,6.185351284153936,9.230249830061513,10.541951608084469,9.41506521145778,11.119738302978604,11.862070580595732,8.575322089294698,7.571329505443573,11.804163482585748,1.826900650552114,1.560494521679807,6.185351284153936,9.230249830061513,10.541951608084469,9.41506521145778,11.119738302978604,11.862070580595732,8.575322089294698,7.571329505443573,11.804163482585748,0,0,290.7115103552351,447.62575746628073,647.9228380198857,657.3379032313435,735.1760713521936,806.348494835768,969.2796145323672,999.5649325541414,999.5649325541414,0,0,0.709781024877348,0.9883823506972369,0.9655263172952753,0.953499984741211,0.9904285703386579,1,0.7457631525240447,0.5652500092983246,0.06666666666666667,1,1,0.9974015564347022,1,1,1,1,1,1,1,1,0.11903334299723307,0.085958331823349,0.7122765936750047,0.9883823506972369,0.9655263172952753,0.953499984741211,0.9904285703386579,1,0.7457631525240447,0.5652500092983246,1,1,1,1,0.9999999999999999,1,1,1,1,1,1,1,2017-04-07T12:00:00Z,2017-04-22T12:00:00Z,2017-05-16T12:00:00Z,2017-07-02T12:00:00Z,2017-07-19T12:00:00Z,2017-08-07T12:00:00Z,2017-08-08T12:00:00Z,2017-08-15T12:00:00Z,2017-08-21T12:00:00Z,2017-09-09T12:00:00Z,2017-09-13T12:00:00Z,2017-04-21T12:00:00Z,2017-05-15T12:00:00Z,2017-07-01T12:00:00Z,2017-07-18T12:00:00Z,2017-08-06T12:00:00Z,2017-08-07T12:00:00Z,2017-08-14T12:00:00Z,2017-08-20T12:00:00Z,2017-09-08T12:00:00Z,2017-09-12T12:00:00Z,2017-09-27T12:00:00Z,97,112,136,183,200,219,220,227,233,252,256,14,23,46,16,18,0,6,5,18,3,14,111,135,182,199,218,219,226,232,251,255,270
144,woodstock_ont,43.14542,-80.78348,1.5,2017,5,2017,mid1,1123.3447202630714,11,2017-04-07,2017-04-21,156,2017-09-24,2017-09-27,2017-10-11,Harvested at Maturity.,2.6220000613480807,2.8433333339635283,3.4875926073916532,3.821052648029045,1.7057142672794205,2.259999990463257,1.0188888981938362,2.3099999725818634,3.1431249730521813,1.2833333710829418,1.9593333369741837,2.6220000613480807,2.8433333339635283,3.4875926073916532,3.821052648029045,1.7057142672794205,2.259999990463257,1.0188888981938362,2.3099999725818634,3.1431249730521813,1.2833333710829418,1.9593333369741837,16.156666580835978,18.73958335320155,21.722222248713177,18.108947477842634,19.49666672661191,10.890000343322754,19.183333290947807,17.16899995803833,17.168124973773956,17.100000381469727,13.248000049591065,14.637333520253499,14.311666627724966,23.206666628519695,26.58894749691612,26.294761839367094,26.65999984741211,24.994444105360245,22.727999877929687,24.63562512397766,30.81999969482422,22.502000045776366,8.865666756033898,9.303124989072481,18.114444397113942,21.890000192742598,21.08238090787615,22.60999965667725,19.72444423039754,17.802999901771546,19.09781263768673,25.239999771118164,17.411666679382325,3.0939999918142953,4.294583350419998,13.022222165708188,17.19105288856908,15.869999976385207,18.559999465942383,14.454444355434841,12.877999925613404,13.560000151395798,19.65999984741211,12.321333312988282,1.826900650552114,1.560494521679807,5.7558000667664935,9.189957133521506,10.302365603440867,12.609999656677246,10.045786277023952,8.460843165242672,9.885221382216738,14.9624838570714,6.515855419654448,1.826900650552114,1.560494521679807,5.7558000667664935,9.189957133521506,10.302365603440867,12.609999656677246,10.045786277023952,8.460843165242672,9.885221382216738,14.9624838570714,6.515855419654448,0,0,310.81320360539064,485.4223891422992,701.7720668145574,714.3820664712347,804.7941429644501,889.4025746168768,1047.5661167323449,1092.4535683035588,1092.4535683035588,0,0,0.7437163563306235,0.9890263155887001,0.973333333787464,1,0.8707222143809001,0.7686499905586243,0.8067187562584877,1,0.06666666666666667,1,1,0.9977226827226496,1,1,1,1,1,1,1,1,0.11903334299723307,0.085958331823349,0.7459166641588565,0.9890263155887001,0.973333333787464,1,0.8707222143809001,0.7686499905586243,0.8067187562584877,1,0.69506667137146,1,1,1,1,1,1,1,1,1,0.9999999999999999,1,2017-04-07T12:00:00Z,2017-04-22T12:00:00Z,2017-05-16T12:00:00Z,2017-07-09T12:00:00Z,2017-07-28T12:00:00Z,2017-08-18T12:00:00Z,2017-08-19T12:00:00Z,2017-08-28T12:00:00Z,2017-09-07T12:00:00Z,2017-09-23T12:00:00Z,2017-09-26T12:00:00Z,2017-04-21T12:00:00Z,2017-05-15T12:00:00Z,2017-07-08T12:00:00Z,2017-07-27T12:00:00Z,2017-08-17T12:00:00Z,2017-08-18T12:00:00Z,2017-08-27T12:00:00Z,2017-09-06T12:00:00Z,2017-09-22T12:00:00Z,2017-09-25T12:00:00Z,2017-10-10T12:00:00Z,97,112,136,190,209,230,231,240,250,266,269,14,23,53,18,20,0,8,9,15,2,14,111,135,189,208,229,230,239,249,265,268,283
145,woodstock_ont,43.14542,-80.78348,2.5,2017,5,2017,mid2,1260.469431263331,11,2017-04-07,2017-04-21,167,2017-10-05,2017-10-11,2017-10-25,Harvested at Maturity.,2.6220000613480807,2.8433333339635283,3.89406781144819,2.1095454624261367,1.3933333211267989,NA,2.630833293000857,2.556666636839509,2.4246666685988507,2.3050000369548798,1.6226666638006766,2.6220000613480807,2.8433333339635283,3.89406781144819,2.1095454624261367,1.3933333211267989,NA,2.630833293000857,2.556666636839509,2.4246666685988507,2.3050000369548798,1.6226666638006766,16.156666580835978,18.73958335320155,21.201694941116592,19.800909172404896,18.251666744550068,NA,17.43833327293396,17.627777735392254,15.694666798909505,10.793333292007446,9.343999973932902,14.637333520253499,14.311666627724966,23.483050815129683,26.711818261580035,25.47041646639506,NA,21.604166666666668,25.477777904934353,25.237999979654948,22.953333536783855,18.84133332570394,8.865666756033898,9.303124989072481,18.471779629335565,21.732500141317193,20.346666514873505,NA,16.509583294391632,19.544444640477497,19.83133331934611,18.545833349227905,14.162666686375935,3.0939999918142953,4.294583350419998,13.460508443541446,16.753182021054354,15.22291656335195,NA,11.414999922116598,13.611111376020643,14.424666659037273,14.138333161671957,9.484000047047934,1.826900650552114,1.560494521679807,5.085226267756676,8.511440261087094,9.75226329342264,NA,7.706494212108354,10.079338144320912,10.66757664977491,8.806592649951577,3.9364581756583847,1.826900650552114,1.560494521679807,5.085226267756676,8.511440261087094,9.75226329342264,NA,7.706494212108354,10.079338144320912,10.66757664977491,8.806592649951577,3.9364581756583847,0,0,300.0283497976439,487.2800355415599,721.3343545837031,NA,813.8122851290034,904.5263284278916,1064.5399781745152,1117.3795340742247,1117.3795340742247,0,0,0.7654205509820049,0.985113635930148,0.9303124964237214,NA,0.6412499964237214,0.8852222310172188,0.7706666692097982,0.8375000079472861,0.056066665649414066,1,1,0.9979075136868264,1,1,NA,1,1,1,1,1,0.11903334299723307,0.085958331823349,0.7674491502470889,0.985113635930148,0.9303124964237214,NA,0.6412499964237214,0.8852222310172188,0.7706666692097982,0.8375000079472861,0.42700000286102296,1,1,1,1,1,NA,1,1,1,1,1,2017-04-07T12:00:00Z,2017-04-22T12:00:00Z,2017-05-16T12:00:00Z,2017-07-14T12:00:00Z,2017-08-05T12:00:00Z,NA,2017-08-29T12:00:00Z,2017-09-10T12:00:00Z,2017-09-19T12:00:00Z,2017-10-04T12:00:00Z,2017-10-10T12:00:00Z,2017-04-21T12:00:00Z,2017-05-15T12:00:00Z,2017-07-13T12:00:00Z,2017-08-04T12:00:00Z,2017-08-28T12:00:00Z,NA,2017-09-09T12:00:00Z,2017-09-18T12:00:00Z,2017-10-03T12:00:00Z,2017-10-09T12:00:00Z,2017-10-24T12:00:00Z,97,112,136,195,217,NA,241,253,262,277,283,14,23,58,21,23,0,11,8,14,5,14,111,135,194,216,240,NA,252,261,276,282,297
146,woodstock_ont,43.14542,-80.78348,-1.5,2018,5,2018,mid000,248.6967040310282,11,2018-05-04,2018-05-18,73,2018-07-30,2018-08-03,2018-08-17,Harvested at Maturity.,2.8813332746426266,2.4666666481643915,NA,1.050999999884516,3.38842104365559,1.159999966621399,1.0614285748451948,1.5400000338753064,4.382499987880389,1.8150000423192978,1.6686666813989481,2.8813332746426266,2.4666666481643915,NA,1.050999999884516,3.38842104365559,1.159999966621399,1.0614285748451948,1.5400000338753064,4.382499987880389,1.8150000423192978,1.6686666813989481,21.98400001525879,19.803333282470703,NA,22.051499938964845,23.176315859744424,29.610000610351563,28.681428364345006,21.624999682108562,20.463333249092102,18.53500008583069,20.38133347829183,20.46666666666667,22.143333117167156,NA,24.92849998474121,27.12999996386076,31.43000030517578,29.650000435965403,30.43333339691162,27.5525000890096,25.687500476837158,29.262000274658202,13.650333356857299,15.05916659037272,NA,19.19075002670288,21.677368364836042,24.27999973297119,23.205714430127824,24.830000003178913,22.522916714350384,21.65375030040741,24.29766699473063,6.834000047047933,7.975000063578288,NA,13.45300006866455,16.22473676581132,17.1299991607666,16.761428424290248,19.22666660944621,17.493333339691162,17.62000012397766,19.33333371480306,4.4447253937681515,5.400470026870072,NA,8.50989972782151,10.482595181723672,12.683059542728184,11.911735505379342,13.697492176676855,12.28521940040592,11.65375030040741,13.31549139739275,4.4447253937681515,5.400470026870072,NA,8.50989972782151,10.482595181723672,12.683059542728184,11.911735505379342,13.697492176676855,12.28521940040592,11.65375030040741,13.31549139739275,0,0,NA,170.1979945564302,369.36730300918,382.0503625519082,465.43251108956355,547.6174641496247,695.0400969544957,741.6550981561253,741.6550981561253,0,0,NA,0.8437999987602234,0.9606842041015625,1,0.9872857161930629,1,0.9995833317438761,1,0.06666666666666667,1,1,NA,1,1,1,1,1,1,1,1,0.3874333357810974,0.5059166590372721,NA,0.8437999987602234,0.9606842041015625,1,0.9872857161930629,1,0.9995833317438761,1,1,1,1,NA,1,1,1,0.9999999999999999,1,1,1,1,2018-05-04T12:00:00Z,2018-05-19T12:00:00Z,NA,2018-05-25T12:00:00Z,2018-06-14T12:00:00Z,2018-07-03T12:00:00Z,2018-07-04T12:00:00Z,2018-07-11T12:00:00Z,2018-07-17T12:00:00Z,2018-07-29T12:00:00Z,2018-08-02T12:00:00Z,2018-05-18T12:00:00Z,2018-05-24T12:00:00Z,NA,2018-06-13T12:00:00Z,2018-07-02T12:00:00Z,2018-07-03T12:00:00Z,2018-07-10T12:00:00Z,2018-07-16T12:00:00Z,2018-07-28T12:00:00Z,2018-08-01T12:00:00Z,2018-08-16T12:00:00Z,124,139,NA,145,165,184,185,192,198,210,214,14,5,0,19,18,0,6,5,11,3,14,138,144,NA,164,183,184,191,197,209,213,228
147,woodstock_ont,43.14542,-80.78348,-0.5,2018,5,2018,mid00,756.9104068698101,11,2018-05-04,2018-05-18,98,2018-08-24,2018-08-27,2018-09-10,Harvested at Maturity.,2.8813332746426266,2.4666666481643915,2.2991666606523924,1.0169230809865089,3.6541176471201813,0.6000000238418579,1.2383333534623187,3.5820000648498533,3.4941667340074978,1.6466667254765828,1.5846666415532429,2.8813332746426266,2.4666666481643915,2.2991666606523924,1.0169230809865089,3.6541176471201813,0.6000000238418579,1.2383333534623187,3.5820000648498533,3.4941667340074978,1.6466667254765828,1.5846666415532429,21.98400001525879,19.803333282470703,22.24861110581292,28.06769224313589,20.22235284132116,21.3799991607666,20.141666571299236,18.54000015258789,17.400833527247112,17.46666653951009,15.654666646321616,20.46666666666667,22.143333117167156,25.611944410536026,29.96692334688627,28.219411849975586,26.290000915527344,28.361666997273762,28.82200050354004,27.753333409627277,26.010000228881836,26.758000310262045,13.650333356857299,15.05916659037272,19.95777776506212,23.846923094529373,23.153529475716983,21.925000190734863,23.623333772023518,24.365000534057618,23.10208336512248,21.256666978200276,22.4726668993632,6.834000047047933,7.975000063578288,14.303611119588217,17.726922842172478,18.08764710145838,17.559999465942383,18.885000546773274,19.908000564575197,18.450833320617676,16.50333372751872,18.187333488464358,4.4447253937681515,5.400470026870072,8.548374374859423,11.723682901381393,12.097879799034198,11.667749596376751,13.324449160370063,14.341294894545078,13.085238434095183,11.274673871614535,11.378367775776386,4.4447253937681515,5.400470026870072,8.548374374859423,11.723682901381393,12.097879799034198,11.667749596376751,13.324449160370063,14.341294894545078,13.085238434095183,11.274673871614535,11.378367775776386,0,0,307.74147749493915,460.1493552128972,665.8133117964787,677.4810613928555,757.4277563550759,829.1342308278013,986.1570920369436,1019.981113651787,1019.981113651787,0,0,0.8906147243670018,0.9931538471808801,0.9997058812309714,1,1,1,0.9861250003178914,1,0.06666666666666667,1,1,0.9980035842513842,1,1,1,1,1,1,1,1,0.3874333357810974,0.5059166590372721,0.8924722181426155,0.9931538471808801,0.9997058812309714,1,1,1,0.9861250003178914,1,0.9266666762034098,1,1,1,1,0.9999999999999999,1,0.9999999999999999,1,0.9999999999999999,1,1,2018-05-04T12:00:00Z,2018-05-19T12:00:00Z,2018-05-25T12:00:00Z,2018-06-30T12:00:00Z,2018-07-13T12:00:00Z,2018-07-30T12:00:00Z,2018-07-31T12:00:00Z,2018-08-06T12:00:00Z,2018-08-11T12:00:00Z,2018-08-23T12:00:00Z,2018-08-26T12:00:00Z,2018-05-18T12:00:00Z,2018-05-24T12:00:00Z,2018-06-29T12:00:00Z,2018-07-12T12:00:00Z,2018-07-29T12:00:00Z,2018-07-30T12:00:00Z,2018-08-05T12:00:00Z,2018-08-10T12:00:00Z,2018-08-22T12:00:00Z,2018-08-25T12:00:00Z,2018-09-09T12:00:00Z,124,139,145,181,194,211,212,218,223,235,238,14,5,35,12,16,0,5,4,11,2,14,138,144,180,193,210,211,217,222,234,237,252
148,woodstock_ont,43.14542,-80.78348,0.5,2018,5,2018,mid0,829.000255138141,11,2018-05-04,2018-05-18,101,2018-08-27,2018-08-29,2018-09-12,Harvested at Maturity.,2.8813332746426266,2.4666666481643915,2.3035135086927867,0.7985714305458325,3.7038888997501798,0.2300000041723251,1.7259999770671128,2.113333396924039,3.8583334145757058,5.26499980688095,1.921999994913737,2.8813332746426266,2.4666666481643915,2.3035135086927867,0.7985714305458325,3.7038888997501798,0.2300000041723251,1.7259999770671128,2.113333396924039,3.8583334145757058,5.26499980688095,1.921999994913737,21.98400001525879,19.803333282470703,22.37702702187203,26.484285627092635,20.137777672873604,19.209999084472656,21.114000129699708,20.58666690190633,16.353333393732708,13.954999923706055,15.381333287556966,20.46666666666667,22.143333117167156,25.7294594017235,29.97428607940674,27.63166681925456,27.68000030517578,30.378000259399414,28.53000005086263,26.93500026067098,28.765000343322754,25.83933359781901,13.650333356857299,15.05916659037272,20.109999965977025,23.867500100816997,22.78111121389601,22.9350004196167,25.518000411987305,23.27666680018107,22.510416865348816,24.894999980926514,21.46266689300537,6.834000047047933,7.975000063578288,14.490540530230549,17.76071412222726,17.93055560853746,18.190000534057617,20.658000564575197,18.02333354949951,18.085833470026653,21.024999618530273,17.086000188191733,4.4447253937681515,5.400470026870072,7.948395870427503,10.891924673498101,11.19660475500918,12.276637205493092,14.788341368388682,13.267462422211809,12.498073657675087,14.894999980926514,10.26255550735712,4.4447253937681515,5.400470026870072,7.948395870427503,10.891924673498101,11.19660475500918,12.276637205493092,14.788341368388682,13.267462422211809,12.498073657675087,14.894999980926514,10.26255550735712,0,0,294.09064720581756,446.577592634791,648.1164782249562,660.3931154304493,734.3348222723926,813.9395968056634,963.9164806977644,993.7064806596176,993.7064806596176,0,0,0.8935589876442619,0.9936428580965314,0.9997222211625841,1,1,1,0.9861250003178914,1,0.06666666666666667,1,1,0.9980517118820433,1,1,1,1,1,1,1,1,0.3874333357810974,0.5059166590372721,0.8953783744090312,0.9936428580965314,0.9997222211625841,1,1,1,0.9861250003178914,1,0.8909333419799805,1,1,1,1,1,1,1,1,1,1,1,2018-05-04T12:00:00Z,2018-05-19T12:00:00Z,2018-05-25T12:00:00Z,2018-07-01T12:00:00Z,2018-07-15T12:00:00Z,2018-08-02T12:00:00Z,2018-08-03T12:00:00Z,2018-08-08T12:00:00Z,2018-08-14T12:00:00Z,2018-08-26T12:00:00Z,2018-08-28T12:00:00Z,2018-05-18T12:00:00Z,2018-05-24T12:00:00Z,2018-06-30T12:00:00Z,2018-07-14T12:00:00Z,2018-08-01T12:00:00Z,2018-08-02T12:00:00Z,2018-08-07T12:00:00Z,2018-08-13T12:00:00Z,2018-08-25T12:00:00Z,2018-08-27T12:00:00Z,2018-09-11T12:00:00Z,124,139,145,182,196,214,215,220,226,238,240,14,5,36,13,17,0,4,5,11,1,14,138,144,181,195,213,214,219,225,237,239,254
149,woodstock_ont,43.14542,-80.78348,1.5,2018,5,2018,mid1,1049.9940040962863,11,2018-05-04,2018-05-18,113,2018-09-08,2018-09-14,2018-09-28,Harvested at Maturity.,2.8813332746426266,2.4666666481643915,2.1795238050676526,2.5827777966236076,2.4478947454573294,0.05000000074505806,3.1400000996266804,3.9271429109254052,1.8708333062628903,3.003333312769731,4.117333388328552,2.8813332746426266,2.4666666481643915,2.1795238050676526,2.5827777966236076,2.4478947454573294,0.05000000074505806,3.1400000996266804,3.9271429109254052,1.8708333062628903,3.003333312769731,4.117333388328552,21.98400001525879,19.803333282470703,22.835476171402703,23.926110982894897,19.923157892729108,22.940000534057617,17.84333372116089,15.349999836512975,16.268333355585735,13.083333174387613,14.154666646321614,20.46666666666667,22.143333117167156,26.43166669209798,28.795555750528973,28.022105467946904,29.299999237060547,29.05833371480306,25.492857251848495,28.511667092641193,21.390000025431316,24.56666679382324,13.650333356857299,15.05916659037272,20.790476185934885,23.018333408567642,23.30342132166812,24.684999465942383,24.357500235239666,21.065714359283447,23.93916694323222,17.355833371480305,19.59833345413208,6.834000047047933,7.975000063578288,15.149285679771786,17.241111066606308,18.58473717538934,20.06999969482422,19.65666675567627,16.6385714667184,19.366666793823242,13.321666717529297,14.630000114440918,4.4447253937681515,5.400470026870072,7.430300174717456,9.703918986419112,11.747921935849217,14.353180097077628,14.282704743155993,11.077477471490417,13.834557348808646,7.79176036505103,8.811463759805362,4.4447253937681515,5.400470026870072,7.430300174717456,9.703918986419112,11.747921935849217,14.353180097077628,14.282704743155993,11.077477471490417,13.834557348808646,7.79176036505103,8.811463759805362,0,0,312.0726073381331,486.743149093677,709.9536658748121,724.3068459718897,810.0030744308257,887.5454167312586,1053.5601049169622,1100.3106671072685,1100.3106671072685,0,0,0.9061964422241341,0.9947777774598864,1,1,1,0.9762142862592424,0.9931666771570842,0.7355833371480306,0.06666666666666667,1,1,0.9982670329810976,1,1,1,1,1,1,1,1,0.3874333357810974,0.5059166590372721,0.9078333298365275,0.9947777774598864,1,1,1,0.9762142862592424,0.9931666771570842,0.7355833371480306,0.8134333324432373,1,1,1,1,1,1,0.998811165944073,1,1,1,1,2018-05-04T12:00:00Z,2018-05-19T12:00:00Z,2018-05-25T12:00:00Z,2018-07-06T12:00:00Z,2018-07-24T12:00:00Z,2018-08-12T12:00:00Z,2018-08-13T12:00:00Z,2018-08-19T12:00:00Z,2018-08-26T12:00:00Z,2018-09-07T12:00:00Z,2018-09-13T12:00:00Z,2018-05-18T12:00:00Z,2018-05-24T12:00:00Z,2018-07-05T12:00:00Z,2018-07-23T12:00:00Z,2018-08-11T12:00:00Z,2018-08-12T12:00:00Z,2018-08-18T12:00:00Z,2018-08-25T12:00:00Z,2018-09-06T12:00:00Z,2018-09-12T12:00:00Z,2018-09-27T12:00:00Z,124,139,145,187,205,224,225,231,238,250,256,14,5,41,17,18,0,5,6,11,5,14,138,144,186,204,223,224,230,237,249,255,270
150,woodstock_ont,43.14542,-80.78348,2.5,2018,5,2018,mid2,1141.9777402169775,11,2018-05-04,2018-05-18,124,2018-09-19,2018-09-26,2018-10-10,Harvested at Maturity.,2.8813332746426266,2.4666666481643915,1.9997872301634956,3.0961904788301107,2.486315840757207,0.00999999977648258,5.0271428653172086,1.3900000055631,3.2053333302338918,2.844285773379462,3.8526666631301243,2.8813332746426266,2.4666666481643915,1.9997872301634956,3.0961904788301107,2.486315840757207,0.00999999977648258,5.0271428653172086,1.3900000055631,3.2053333302338918,2.844285773379462,3.8526666631301243,21.98400001525879,19.803333282470703,23.654468069685265,20.829047498248872,19.339473824752005,14.869999885559082,14.595714160374232,16.68166669209798,15.405999946594239,14.221428530556814,8.53799999554952,20.46666666666667,22.143333117167156,26.66000005032154,28.18380964370001,28.755789706581517,26.770000457763672,26.07000023978097,27.62166690826416,25.899333699544272,23.514285496303014,20.14400005340576,13.650333356857299,15.05916659037272,20.9022340470172,23.061904816400435,24.007368690089177,22.105000495910645,21.917857238224574,22.905833562215168,21.38900025685628,18.304999896458217,15.353333361943562,6.834000047047933,7.975000063578288,15.144468043712859,17.939999989100865,19.258947673596833,17.440000534057617,17.765714236668178,18.19000021616618,16.878666814168295,13.095714296613421,10.562666670481365,4.4447253937681515,5.400470026870072,6.32602643731362,8.988901431325045,12.340719650062953,12.105000495910645,11.929620350431543,12.88855944057703,11.48659302740097,8.985050373573815,4.885268863108755,4.4447253937681515,5.400470026870072,6.32602643731362,8.988901431325045,12.340719650062953,12.105000495910645,11.929620350431543,12.88855944057703,11.48659302740097,8.985050373573815,4.885268863108755,0,0,297.3232425537401,486.0901726115662,720.5638459627622,732.6688464586729,816.1761889116937,893.5075455551558,1065.8064409661704,1128.701793581187,1128.701793581187,0,0,0.914262691863924,0.9997619038536435,1,1,0.9762142862592424,0.9863333543141684,0.8942333348592122,0.7588571412222727,0.06666666666666667,1,1,0.9984420511342829,1,1,1,1,1,1,1,1,0.3874333357810974,0.5059166590372721,0.9157446780103319,0.9997619038536435,1,1,0.9762142862592424,0.9863333543141684,0.8942333348592122,0.7588571412222727,0.5209666585922241,1,1,1,1,0.997413755008335,1,1,0.9999999999999999,1,1,1,2018-05-04T12:00:00Z,2018-05-19T12:00:00Z,2018-05-25T12:00:00Z,2018-07-11T12:00:00Z,2018-08-01T12:00:00Z,2018-08-20T12:00:00Z,2018-08-21T12:00:00Z,2018-08-28T12:00:00Z,2018-09-03T12:00:00Z,2018-09-18T12:00:00Z,2018-09-25T12:00:00Z,2018-05-18T12:00:00Z,2018-05-24T12:00:00Z,2018-07-10T12:00:00Z,2018-07-31T12:00:00Z,2018-08-19T12:00:00Z,2018-08-20T12:00:00Z,2018-08-27T12:00:00Z,2018-09-02T12:00:00Z,2018-09-17T12:00:00Z,2018-09-24T12:00:00Z,2018-10-09T12:00:00Z,124,139,145,192,213,232,233,240,246,261,268,14,5,46,20,18,0,6,5,14,6,14,138,144,191,212,231,232,239,245,260,267,282
151,woodstock_ont,43.14542,-80.78348,-1.5,2019,5,2019,mid000,200.19295459889432,11,2019-05-11,2019-05-25,75,2019-08-08,2019-08-12,2019-08-26,Harvested at Maturity.,2.334000008801619,1.055714270898274,NA,2.3452000238001345,3.6623529380954363,NA,5.641666726519664,1.5185714066028595,1.470909116112373,1.645000010728836,2.1886666737496854,2.334000008801619,1.055714270898274,NA,2.3452000238001345,3.6623529380954363,NA,5.641666726519664,1.5185714066028595,1.470909116112373,1.645000010728836,2.1886666737496854,17.064666748046875,16.642857006617955,NA,22.02079986572266,24.25529395832735,NA,21.605000019073486,23.784285954066686,22.566363594748758,22.30999994277954,20.621333440144856,17.66533349355062,21.571428571428573,NA,22.640000076293944,29.114705702837774,NA,28.929999669392906,27.85571425301688,29.051817980679598,27.12999963760376,27.715333429972333,11.857000087698301,15.466428518295288,NA,17.075800008773804,23.2394115784589,NA,23.99916648864746,22.64142860685076,23.845000050284646,21.708749532699585,22.32700007756551,6.048666681845983,9.361428465162005,NA,11.511599941253662,17.36411745408002,NA,19.06833330790202,17.42714296068464,18.63818211988969,16.28749942779541,16.93866672515869,3.288403405207669,5.6369769496858115,NA,6.554964973595242,12.098225021800447,NA,13.385638977532999,12.319418303608833,13.83762480106137,11.727338526290655,11.540100897583962,3.288403405207669,5.6369769496858115,NA,6.554964973595242,12.098225021800447,NA,13.385638977532999,12.319418303608833,13.83762480106137,11.727338526290655,11.540100897583962,0,0,NA,163.87412433988104,369.5439497104887,NA,449.85778357568665,536.0937117009486,688.3075845126236,735.2169386177862,735.2169386177862,0,0,NA,0.6815599985122681,1,NA,1,0.9959999970027379,1,0.9911249876022339,0.06666666666666667,1,1,NA,1,1,NA,1,1,1,1,1,0.24986667394638062,0.5466428518295289,NA,0.6815599985122681,1,NA,1,0.9959999970027379,1,0.9911249876022339,0.9736333306630452,1,1,NA,1,1,NA,1,0.9999999999999999,1,0.9999999999999999,1,2019-05-11T12:00:00Z,2019-05-26T12:00:00Z,NA,2019-06-02T12:00:00Z,2019-06-27T12:00:00Z,NA,2019-07-14T12:00:00Z,2019-07-20T12:00:00Z,2019-07-27T12:00:00Z,2019-08-07T12:00:00Z,2019-08-11T12:00:00Z,2019-05-25T12:00:00Z,2019-06-01T12:00:00Z,NA,2019-06-26T12:00:00Z,2019-07-13T12:00:00Z,NA,2019-07-19T12:00:00Z,2019-07-26T12:00:00Z,2019-08-06T12:00:00Z,2019-08-10T12:00:00Z,2019-08-25T12:00:00Z,131,146,NA,153,178,NA,195,201,208,219,223,14,6,0,24,16,0,5,6,10,3,14,145,152,NA,177,194,NA,200,207,218,222,237
152,woodstock_ont,43.14542,-80.78348,-0.5,2019,5,2019,mid00,752.700123113518,11,2019-05-11,2019-05-25,104,2019-09-06,2019-09-11,2019-09-25,Harvested at Maturity.,2.334000008801619,1.055714270898274,2.3648648799170515,5.335714300296137,1.2900000176082054,2.700000047683716,0.7516666675607363,4.494999994834264,3.048124998109415,1.5320000052452087,3.8633333397408327,2.334000008801619,1.055714270898274,2.3648648799170515,5.335714300296137,1.2900000176082054,2.700000047683716,0.7516666675607363,4.494999994834264,3.048124998109415,1.5320000052452087,3.8633333397408327,17.064666748046875,16.642857006617955,22.92675660107587,21.992142881665913,23.40200004577637,24.010000228881836,21.201666514078777,19.94000021616618,18.143750101327896,15.977999687194824,14.338000170389812,17.66533349355062,21.571428571428573,24.77729725193333,28.850714138575963,28.561333211263022,29.8799991607666,27.496666590372723,28.21500015258789,25.31249988079071,22.297999572753906,24.851333363850912,11.857000087698301,15.466428518295288,19.164189113152993,23.504999910082137,23.24000005722046,24.04499912261963,22.24916648864746,23.06916681925456,20.14249986410141,16.82999982833862,19.92233336766561,6.048666681845983,9.361428465162005,13.551080974372658,18.159285681588308,17.918666903177897,18.209999084472656,17.0016663869222,17.923333485921223,14.97249984741211,11.36200008392334,14.993333371480306,3.288403405207669,5.6369769496858115,7.886248370429657,12.146859631038925,12.930552754126433,14.044999122619627,12.261559151041508,13.069166819254557,10.302845227544756,7.718699782568216,9.257666714986165,3.288403405207669,5.6369769496858115,7.886248370429657,12.146859631038925,12.930552754126433,14.044999122619627,12.261559151041508,13.069166819254557,10.302845227544756,7.718699782568216,9.257666714986165,0,0,291.79118970589735,461.8472245404423,655.8055158523385,669.8505149749582,743.4198698812072,821.8348707967345,986.6803944374506,1025.2738933502917,1025.2738933502917,0,0,0.7848378368326135,1,0.9981333319346111,1,0.9940833250681559,1,0.9291562348604202,0.6829999828338623,0.06646666526794434,1,1,1,1,1,1,1,1,1,1,1,0.24986667394638062,0.5466428518295289,0.7848378368326135,1,0.9981333319346111,1,0.9940833250681559,1,0.9291562348604202,0.6829999828338623,0.9174666690826416,1,1,1,1,1,1,1,1,1,1,1,2019-05-11T12:00:00Z,2019-05-26T12:00:00Z,2019-06-02T12:00:00Z,2019-07-09T12:00:00Z,2019-07-23T12:00:00Z,2019-08-07T12:00:00Z,2019-08-08T12:00:00Z,2019-08-14T12:00:00Z,2019-08-20T12:00:00Z,2019-09-05T12:00:00Z,2019-09-10T12:00:00Z,2019-05-25T12:00:00Z,2019-06-01T12:00:00Z,2019-07-08T12:00:00Z,2019-07-22T12:00:00Z,2019-08-06T12:00:00Z,2019-08-07T12:00:00Z,2019-08-13T12:00:00Z,2019-08-19T12:00:00Z,2019-09-04T12:00:00Z,2019-09-09T12:00:00Z,2019-09-24T12:00:00Z,131,146,153,190,204,219,220,226,232,248,253,14,6,36,13,14,0,5,5,15,4,14,145,152,189,203,218,219,225,231,247,252,267
153,woodstock_ont,43.14542,-80.78348,0.5,2019,5,2019,mid0,821.7079762919878,11,2019-05-11,2019-05-25,107,2019-09-09,2019-09-13,2019-09-27,Harvested at Maturity.,2.334000008801619,1.055714270898274,2.5753846250187893,4.47928574308753,1.5318750181468204,0.4699999988079071,1.266666683057944,4.19666666785876,2.9837499849963933,3.0375000536441803,3.622000010063251,2.334000008801619,1.055714270898274,2.5753846250187893,4.47928574308753,1.5318750181468204,0.4699999988079071,1.266666683057944,4.19666666785876,2.9837499849963933,3.0375000536441803,3.622000010063251,17.064666748046875,16.642857006617955,23.085384491162422,22.0557142666408,22.680000066757202,24.459999084472656,20.229999860127766,20.473333676656086,17.171250015497208,14.839999914169312,14.450000127156576,17.66533349355062,21.571428571428573,25.036153842241337,28.33857113974435,28.691874861717224,25.38999938964844,28.06333351135254,28.925000190734863,24.182499766349792,24.499999523162842,24.213333384195963,11.857000087698301,15.466428518295288,19.376281988926422,23.087142739977157,23.439999967813492,19.644999504089355,22.745000044504803,23.731666882832844,19.001874804496765,19.166249752044678,19.40400005976359,6.048666681845983,9.361428465162005,13.71641013561151,17.83571434020996,18.18812507390976,13.899999618530272,17.426666577657063,18.538333574930828,13.821249842643738,13.832499980926514,14.594666735331217,3.288403405207669,5.6369769496858115,7.391165012757977,11.068786349739323,12.701853222273389,9.644999504089355,12.745000044504803,13.687742004954815,9.327845683838428,9.71077881873399,8.936666742960613,3.288403405207669,5.6369769496858115,7.391165012757977,11.068786349739323,12.701853222273389,9.644999504089355,12.745000044504803,13.687742004954815,9.327845683838428,9.71077881873399,8.936666742960613,0,0,288.25543549756105,443.2184443939114,646.4480959502856,656.093095454375,732.5630957214038,814.6895477511326,963.9350786925472,1002.7781939674834,1002.7781939674834,0,0,0.7958717939181206,0.997999998501369,1,0.9644999504089355,1,1,0.8759687334299088,0.815749979019165,0.04673333168029785,1,1,1,1,1,1,1,1,1,1,1,0.24986667394638062,0.5466428518295289,0.7958717939181206,0.997999998501369,1,0.9644999504089355,1,1,0.8759687334299088,0.815749979019165,0.8920000012715658,1,1,1,0.9999999999999999,1,1,1,1,1,1,1,2019-05-11T12:00:00Z,2019-05-26T12:00:00Z,2019-06-02T12:00:00Z,2019-07-11T12:00:00Z,2019-07-25T12:00:00Z,2019-08-10T12:00:00Z,2019-08-11T12:00:00Z,2019-08-17T12:00:00Z,2019-08-23T12:00:00Z,2019-09-08T12:00:00Z,2019-09-12T12:00:00Z,2019-05-25T12:00:00Z,2019-06-01T12:00:00Z,2019-07-10T12:00:00Z,2019-07-24T12:00:00Z,2019-08-09T12:00:00Z,2019-08-10T12:00:00Z,2019-08-16T12:00:00Z,2019-08-22T12:00:00Z,2019-09-07T12:00:00Z,2019-09-11T12:00:00Z,2019-09-26T12:00:00Z,131,146,153,192,206,222,223,229,235,251,255,14,6,38,13,15,0,5,5,15,3,14,145,152,191,205,221,222,228,234,250,254,269
154,woodstock_ont,43.14542,-80.78348,1.5,2019,5,2019,mid1,1128.685746560829,11,2019-05-11,2019-05-25,122,2019-09-24,2019-09-30,2019-10-14,Harvested at Maturity.,2.334000008801619,1.055714270898274,2.858409108043733,2.804117656586801,2.404117657309946,1.4199999570846558,2.110000027809292,3.629999968740675,3.4323529419215286,2.7650000751018524,3.4466666599114735,2.334000008801619,1.055714270898274,2.858409108043733,2.804117656586801,2.404117657309946,1.4199999570846558,2.110000027809292,3.629999968740675,3.4323529419215286,2.7650000751018524,3.4466666599114735,17.064666748046875,16.642857006617955,23.173636198043823,22.18294138066909,21.052352905273438,23.43000030517578,19.32750016450882,17.654444376627605,14.312353021958295,12.685000101725262,12.023333390553793,17.66533349355062,21.571428571428573,25.383409066633746,28.60529394710765,28.307058670941522,28.860000610351563,26.09249997138977,24.468888600667317,24.407058715820313,22.925000190734863,18.770666631062827,11.857000087698301,15.466428518295288,19.653409020467237,23.710588230806238,22.97499993268181,24.295000076293945,20.953124940395355,19.048888630337185,19.375882317038144,18.016666809717815,14.128333330154419,6.048666681845983,9.361428465162005,13.923408974300731,18.815882514504825,17.642941194422104,19.729999542236328,15.81374990940094,13.628888660007053,14.344705918255974,13.108333428700766,9.486000029246012,3.288403405207669,5.6369769496858115,6.777274041793729,11.102726103371431,12.364871964346877,14.295000076293944,11.056579424977302,9.395069994819828,9.61627610263053,8.465302753721675,4.262778867814342,3.288403405207669,5.6369769496858115,6.777274041793729,11.102726103371431,12.364871964346877,14.295000076293944,11.056579424977302,9.395069994819828,9.61627610263053,8.465302753721675,4.262778867814342,0,0,298.200057838924,486.9464015962384,697.1492249901353,711.4442250664292,799.8968604662475,884.452490419626,1047.929184164345,1098.7210006866749,1098.7210006866749,0,0,0.8190681809728796,0.9983529399423038,0.997911761788761,1,0.9505624949932099,0.8822777483198377,0.8716176425709444,0.8003333409627279,0.026466668446858726,1,1,1,1,1,1,1,1,1,1,1,0.24986667394638062,0.5466428518295289,0.8190681809728796,0.9983529399423038,0.997911761788761,1,0.9505624949932099,0.8822777483198377,0.8716176425709444,0.8003333409627279,0.3915000009536743,1,1,1,1,1,1,1,1,1,1,1,2019-05-11T12:00:00Z,2019-05-26T12:00:00Z,2019-06-02T12:00:00Z,2019-07-16T12:00:00Z,2019-08-02T12:00:00Z,2019-08-19T12:00:00Z,2019-08-20T12:00:00Z,2019-08-28T12:00:00Z,2019-09-06T12:00:00Z,2019-09-23T12:00:00Z,2019-09-29T12:00:00Z,2019-05-25T12:00:00Z,2019-06-01T12:00:00Z,2019-07-15T12:00:00Z,2019-08-01T12:00:00Z,2019-08-18T12:00:00Z,2019-08-19T12:00:00Z,2019-08-27T12:00:00Z,2019-09-05T12:00:00Z,2019-09-22T12:00:00Z,2019-09-28T12:00:00Z,2019-10-13T12:00:00Z,131,146,153,197,214,231,232,240,249,266,272,14,6,43,16,16,0,7,8,16,5,14,145,152,196,213,230,231,239,248,265,271,286
155,woodstock_ont,43.14542,-80.78348,2.5,2019,5,2019,mid2,1202.9119504346254,11,2019-05-11,2019-05-25,136,2019-10-08,2019-10-18,2019-11-01,Harvested at Maturity.,2.334000008801619,1.055714270898274,3.2237500187863284,1.5531579037442018,2.418000009842217,2.3299999237060547,3.370999974012375,4.728888892465168,3.144500025548041,2.757000032812357,3.1173333302140236,2.334000008801619,1.055714270898274,3.2237500187863284,1.5531579037442018,2.418000009842217,2.3299999237060547,3.370999974012375,4.728888892465168,3.144500025548041,2.757000032812357,3.1173333302140236,17.064666748046875,16.642857006617955,22.76020820935567,23.091052707872894,20.073500084877015,21.68000030517578,16.103999900817872,12.333333333333334,13.111500096321105,12.94200005531311,8.061333386103312,17.66533349355062,21.571428571428573,25.719374934832256,28.65473666944002,27.15050001144409,26.260000228881836,23.821999740600585,23.965555402967667,22.396999979019164,16.53199996948242,13.955333391825357,11.857000087698301,15.466428518295288,20.12416658302148,23.412105259142425,21.976749968528747,21.375,18.47699980735779,19.023333231608074,17.63225003480911,11.740999984741212,9.661333354314168,6.048666681845983,9.361428465162005,14.528958231210709,18.16947384884483,16.802999925613403,16.489999771118164,13.13199987411499,14.08111106024848,12.86750009059906,6.95,5.367333316802979,3.288403405207669,5.6369769496858115,6.062625240665788,10.235829330180112,11.414892713472407,11.375,8.889434699912071,9.313263758362002,8.530892998473645,5.586352937742472,1.3466828658428789,3.288403405207669,5.6369769496858115,6.062625240665788,10.235829330180112,11.414892713472407,11.375,8.889434699912071,9.313263758362002,8.530892998473645,5.586352937742472,1.3466828658428789,0,0,291.0060115519577,485.4867688253799,713.784623094828,725.159623094828,814.0539700939487,897.8733439192068,1068.4912038886798,1124.3547332661049,1124.3547332661049,0,0,0.834145832558473,0.9985263146852192,0.9784499955177307,1,0.8410999774932861,0.853277768029107,0.7128250014781953,0.20855000019073489,0,1,1,1,1,1,1,1,1,1,1,1,0.24986667394638062,0.5466428518295289,0.834145832558473,0.9985263146852192,0.9784499955177307,1,0.8410999774932861,0.853277768029107,0.7128250014781953,0.20855000019073489,0.07453333377838135,1,1,1,1,1,0.9999999999999998,1,1,1,0.9999999999999999,1,2019-05-11T12:00:00Z,2019-05-26T12:00:00Z,2019-06-02T12:00:00Z,2019-07-20T12:00:00Z,2019-08-08T12:00:00Z,2019-08-28T12:00:00Z,2019-08-29T12:00:00Z,2019-09-08T12:00:00Z,2019-09-17T12:00:00Z,2019-10-07T12:00:00Z,2019-10-17T12:00:00Z,2019-05-25T12:00:00Z,2019-06-01T12:00:00Z,2019-07-19T12:00:00Z,2019-08-07T12:00:00Z,2019-08-27T12:00:00Z,2019-08-28T12:00:00Z,2019-09-07T12:00:00Z,2019-09-16T12:00:00Z,2019-10-06T12:00:00Z,2019-10-16T12:00:00Z,2019-10-31T12:00:00Z,131,146,153,201,220,240,241,251,260,280,290,14,6,47,18,19,0,9,8,19,9,14,145,152,200,219,239,240,250,259,279,289,304
176,sthyacinthe_que,45.5932,-72.9316,-1.5,2017,6,2017,mid000,209.43207197877015,11,2017-04-17,2017-05-01,109,2017-08-18,2017-08-22,2017-09-05,Harvested at Maturity.,4.537999952336152,2.720625003799796,NA,3.3651613017484068,4.464230801910162,5.389999866485596,1.5042857144560133,2.9429999921470884,3.0581250060349703,4.812500039115548,2.903999960546692,4.537999952336152,2.720625003799796,NA,3.3651613017484068,4.464230801910162,5.389999866485596,1.5042857144560133,2.9429999921470884,3.0581250060349703,4.812500039115548,2.903999960546692,14.656000073750814,15.36937502026558,NA,19.399032254372873,19.06961540075449,13.119999885559082,20.089999743870326,21.731999731063844,20.01812517642975,16.705000162124634,17.09466667175293,13.556666692097982,15.015625029802322,NA,20.508709569131174,23.685769154475285,23.25,26.308571406773158,22.867999839782716,24.334375262260437,25.289999961853027,21.477333323160806,7.964666698127985,9.884062489494681,NA,15.583225757844986,19.464230702473568,17.954999923706055,21.795714378356934,18.032499980926513,19.820625126361847,20.418749928474426,16.29866665204366,2.372666704157988,4.75249994918704,NA,10.657741946558799,15.24269225047185,12.65999984741211,17.28285734994071,13.197000122070312,15.306874990463257,15.547499895095825,11.119999980926513,1.368180261442475,2.0810131067755635,NA,5.148594294609529,8.28282295437547,7.233032772861585,10.9280116577836,8.23399514717382,9.942388735606443,10.60136830098927,5.646169143301448,1.368180261442475,2.0810131067755635,NA,5.148594294609529,8.28282295437547,7.233032772861585,10.9280116577836,8.23399514717382,9.942388735606443,10.60136830098927,5.646169143301448,0,0,NA,159.60642313289543,374.9598199466577,382.1928527195193,458.6889343240045,541.0288857957426,700.1071055654455,742.5125787694026,742.5125787694026,0,0,NA,0.5232096718203637,0.8820384630790123,0.7954999923706055,0.9977142878941128,0.7839499950408936,0.9146562606096268,0.9433749914169312,0.06666666666666667,1,1,NA,1,1,1,1,1,1,1,1,0.08166666825612387,0.16250000447034837,NA,0.5232096718203637,0.8820384630790123,0.7954999923706055,0.9977142878941128,0.7839499950408936,0.9146562606096268,0.9433749914169312,0.6054333321253459,1,1,NA,1,1,1,0.9999999999999999,1,1,1,1,2017-04-17T12:00:00Z,2017-05-02T12:00:00Z,NA,2017-05-18T12:00:00Z,2017-06-18T12:00:00Z,2017-07-14T12:00:00Z,2017-07-15T12:00:00Z,2017-07-22T12:00:00Z,2017-08-01T12:00:00Z,2017-08-17T12:00:00Z,2017-08-21T12:00:00Z,2017-05-01T12:00:00Z,2017-05-17T12:00:00Z,NA,2017-06-17T12:00:00Z,2017-07-13T12:00:00Z,2017-07-14T12:00:00Z,2017-07-21T12:00:00Z,2017-07-31T12:00:00Z,2017-08-16T12:00:00Z,2017-08-20T12:00:00Z,2017-09-04T12:00:00Z,107,122,NA,138,169,195,196,203,213,229,233,14,15,0,30,25,0,6,9,15,3,14,121,137,NA,168,194,195,202,212,228,232,247
177,sthyacinthe_que,45.5932,-72.9316,-0.5,2017,6,2017,mid00,796.3030586827216,11,2017-04-17,2017-05-01,147,2017-09-25,2017-09-28,2017-10-12,Harvested at Maturity.,4.537999952336152,2.720625003799796,3.844901982987044,3.0747368345527275,2.7363636409017174,15.18000030517578,2.1811110975427757,3.8583332747220993,0.26999999781449635,0.07999999821186066,3.1273333288729193,4.537999952336152,2.720625003799796,3.844901982987044,3.0747368345527275,2.7363636409017174,15.18000030517578,2.1811110975427757,3.8583332747220993,0.26999999781449635,0.07999999821186066,3.1273333288729193,14.656000073750814,15.36937502026558,19.487254909440583,18.758947196759674,20.89136370745572,10.25,17.867777824401855,13.626666704813639,17.30799986521403,16.210000038146973,11.924666690826415,13.556666692097982,15.015625029802322,21.765686184752223,24.132631502653425,24.198181932622738,26.579999923706055,23.182222366333008,20.144999821980793,24.858000055948892,30.650000254313152,19.983333396911622,7.964666698127985,9.884062489494681,17.126960735695036,19.651315764376992,19.4552273533561,21.18499994277954,18.607222239176433,15.219583292802175,18.686000076929727,24.630000114440918,14.759333364168803,2.372666704157988,4.75249994918704,12.488235286637849,15.17000002610056,14.712272774089467,15.789999961853027,14.032222112019857,10.294166763623556,12.514000097910564,18.609999974568684,9.535333331425985,1.368180261442475,2.0810131067755635,5.9241779341202445,8.380336426509757,9.255284786523347,11.18499994277954,9.163014348306259,6.765442301500092,9.38968475180606,14.427570413339138,4.32220018878758,1.368180261442475,2.0810131067755635,5.9241779341202445,8.380336426509757,9.255284786523347,11.18499994277954,9.163014348306259,6.765442301500092,9.38968475180606,14.427570413339138,4.32220018878758,0,0,302.13307464013235,461.3594667438177,664.9757320473312,676.1607319901108,758.6278611248671,839.8131687428681,980.6584400199592,1023.9411512599766,1023.9411512599766,0,0,0.6628137233210545,0.8866315766384727,0.8877272779291326,1,0.7893888897365994,0.5219583292802176,0.8201000038782755,1,0.06666666666666667,1,1,1,1,1,1,1,1,1,1,1,0.08166666825612387,0.16250000447034837,0.6628137233210545,0.8866315766384727,0.8877272779291326,1,0.7893888897365994,0.5219583292802176,0.8201000038782755,1,0.4578333322207133,1,1,1,1,1,1,0.9999999999999999,1,1,1,1,2017-04-17T12:00:00Z,2017-05-02T12:00:00Z,2017-05-18T12:00:00Z,2017-07-08T12:00:00Z,2017-07-27T12:00:00Z,2017-08-18T12:00:00Z,2017-08-19T12:00:00Z,2017-08-28T12:00:00Z,2017-09-09T12:00:00Z,2017-09-24T12:00:00Z,2017-09-27T12:00:00Z,2017-05-01T12:00:00Z,2017-05-17T12:00:00Z,2017-07-07T12:00:00Z,2017-07-26T12:00:00Z,2017-08-17T12:00:00Z,2017-08-18T12:00:00Z,2017-08-27T12:00:00Z,2017-09-08T12:00:00Z,2017-09-23T12:00:00Z,2017-09-26T12:00:00Z,2017-10-11T12:00:00Z,107,122,138,189,208,230,231,240,252,267,270,14,15,50,18,21,0,8,11,14,2,14,121,137,188,207,229,230,239,251,266,269,284
178,sthyacinthe_que,45.5932,-72.9316,0.5,2017,6,2017,mid0,842.7216945959539,11,2017-04-17,2017-05-01,149,2017-09-27,2017-10-02,2017-10-16,Harvested at Maturity.,4.537999952336152,2.720625003799796,3.9664815028922424,2.237999993748963,3.5700000102321305,0.09000000357627869,1.677000001259148,3.8624999383464456,0.22769230833420387,0.5839999787509441,3.6520000025629997,4.537999952336152,2.720625003799796,3.9664815028922424,2.237999993748963,3.5700000102321305,0.09000000357627869,1.677000001259148,3.8624999383464456,0.22769230833420387,0.5839999787509441,3.6520000025629997,14.656000073750814,15.36937502026558,19.363703710061532,20.052999806404113,19.4600001289731,21.799999237060547,17.95900011062622,13.135833183924357,17.23384615091177,14.58799991607666,10.37000002861023,13.556666692097982,15.015625029802322,21.870370264406557,24.036499977111816,24.59380967276437,27.719999313354492,21.839999961853028,19.792500019073486,26.990769312931942,21.44600009918213,19.682666714986166,7.964666698127985,9.884062489494681,17.24814808810199,19.380250024795533,19.990476267678396,21.74499988555908,16.87249994277954,14.665833393732706,20.83730774659377,16.36800012588501,14.33300002415975,2.372666704157988,4.75249994918704,12.625925911797417,14.724000072479248,15.387142862592425,15.770000457763672,11.904999923706054,9.539166768391928,14.683846180255596,11.29000015258789,8.983333333333334,1.368180261442475,2.0810131067755635,5.4378097318293435,7.662163224162482,9.639204947778666,11.744999885559086,7.817453260490298,6.523720954860747,10.972402684727541,8.817276301412582,4.845678504755795,1.368180261442475,2.0810131067755635,5.4378097318293435,7.662163224162482,9.639204947778666,11.744999885559086,7.817453260490298,6.523720954860747,10.972402684727541,8.817276301412582,4.845678504755795,0,0,293.6417255187846,446.8849900020342,649.3082939053861,661.0532937909452,739.2278263958482,817.5124778541772,960.1537127556352,1004.240094262698,1004.240094262698,0,0,0.6765648117771855,0.8618499994277955,0.9241904826391311,1,0.6680499935150147,0.4665833393732707,0.9530769238105187,0.46699999809265136,0.003566669623057047,1,1,1,1,1,1,1,1,1,1,1,0.08166666825612387,0.16250000447034837,0.6765648117771855,0.8618499994277955,0.9241904826391311,1,0.6680499935150147,0.4665833393732707,0.9530769238105187,0.46699999809265136,0.45493333578109746,1,1,1,1,1,1,1,1,1,1,1,2017-04-17T12:00:00Z,2017-05-02T12:00:00Z,2017-05-18T12:00:00Z,2017-07-11T12:00:00Z,2017-07-31T12:00:00Z,2017-08-21T12:00:00Z,2017-08-22T12:00:00Z,2017-09-01T12:00:00Z,2017-09-13T12:00:00Z,2017-09-26T12:00:00Z,2017-10-01T12:00:00Z,2017-05-01T12:00:00Z,2017-05-17T12:00:00Z,2017-07-10T12:00:00Z,2017-07-30T12:00:00Z,2017-08-20T12:00:00Z,2017-08-21T12:00:00Z,2017-08-31T12:00:00Z,2017-09-12T12:00:00Z,2017-09-25T12:00:00Z,2017-09-30T12:00:00Z,2017-10-15T12:00:00Z,107,122,138,192,212,233,234,244,256,269,274,14,15,53,19,20,0,9,11,12,4,14,121,137,191,211,232,233,243,255,268,273,288
179,sthyacinthe_que,45.5932,-72.9316,1.5,2017,6,2017,mid1,1089.3055065123872,11,2017-04-17,2017-05-01,176,2017-10-24,2017-11-02,2017-11-16,Harvested at Maturity.,4.537999952336152,2.720625003799796,3.76032259717824,2.765416682853053,3.2519999703392384,0.02999999932944774,0.1874999962747097,0.5485714189708233,2.266400002911687,5.059999915874666,2.8273333004365364,4.537999952336152,2.720625003799796,3.76032259717824,2.765416682853053,3.2519999703392384,0.02999999932944774,0.1874999962747097,0.5485714189708233,2.266400002911687,5.059999915874666,2.8273333004365364,14.656000073750814,15.36937502026558,19.194193532389978,20.787499964237213,16.18100004196167,20.0049991607666,16.958749890327454,16.58000005994524,11.012399988174439,6.277777830759684,5.675333325068156,13.556666692097982,15.015625029802322,22.22209668928577,24.03583335876465,22.06233336130778,22.664999961853027,26.552500009536743,28.414285932268417,18.505599937438966,16.619999885559082,7.083999979496002,7.964666698127985,9.884062489494681,17.609758023292787,19.416041711966198,17.20916666984558,15.600000143051147,20.48812508583069,22.210000106266566,13.11119994878769,11.920555492242178,2.5040000081062317,2.372666704157988,4.75249994918704,12.997419357299805,14.796250065167746,12.355999978383382,8.535000324249268,14.423750162124634,16.00571428026472,7.716799960136414,7.221111098925273,-2.0759999632835386,1.368180261442475,2.0810131067755635,4.990908325919425,7.709607287786262,7.219765567389849,5.752984342968463,10.626307329526544,12.299067416762455,6.312828796919465,5.845253240785003,0.2530454759867241,1.368180261442475,2.0810131067755635,4.990908325919425,7.709607287786262,7.219765567389849,5.752984342968463,10.626307329526544,12.299067416762455,6.312828796919465,5.845253240785003,0.2530454759867241,0,0,309.4363162070044,494.4668911138747,711.0598581355704,722.5658268215074,807.5762854577197,893.6697573750569,1051.4904772980435,1104.097756465109,1104.097756465109,0,0,0.708580643130887,0.8660833358764649,0.6873666667938233,0.5600000143051148,0.9771874964237213,0.9389285768781389,0.35303999567031863,0.25749998887379966,0,1,1,1,1,1,1,1,1,1,1,1,0.08166666825612387,0.16250000447034837,0.708580643130887,0.8660833358764649,0.6873666667938233,0.5600000143051148,0.9771874964237213,0.9389285768781389,0.35303999567031863,0.25749998887379966,0.001766665776570638,1,1,1,1,1,1,1,1,1,1,1,2017-04-17T12:00:00Z,2017-05-02T12:00:00Z,2017-05-18T12:00:00Z,2017-07-19T12:00:00Z,2017-08-12T12:00:00Z,2017-09-11T12:00:00Z,2017-09-13T12:00:00Z,2017-09-21T12:00:00Z,2017-09-28T12:00:00Z,2017-10-23T12:00:00Z,2017-11-01T12:00:00Z,2017-05-01T12:00:00Z,2017-05-17T12:00:00Z,2017-07-18T12:00:00Z,2017-08-11T12:00:00Z,2017-09-10T12:00:00Z,2017-09-12T12:00:00Z,2017-09-20T12:00:00Z,2017-09-27T12:00:00Z,2017-10-22T12:00:00Z,2017-10-31T12:00:00Z,2017-11-15T12:00:00Z,107,122,138,200,224,254,256,264,271,296,305,14,15,61,23,29,1,7,6,24,8,14,121,137,199,223,253,255,263,270,295,304,319
180,sthyacinthe_que,45.5932,-72.9316,2.5,2017,6,2017,mid2,1070.1865230995984,11,2017-04-17,2017-05-01,196,2017-11-13,2017-11-24,2017-12-08,Harvested at Maturity.,4.537999952336152,2.720625003799796,3.6358571569834437,3.220416682151457,2.0884374728775583,1.0800000429153442,0.40374998608604074,3.3946153876873164,3.329666626142959,1.8900000014427032,1.5119999818503858,4.537999952336152,2.720625003799796,3.6358571569834437,3.220416682151457,2.0884374728775583,1.0800000429153442,0.40374998608604074,3.3946153876873164,3.329666626142959,1.8900000014427032,1.5119999818503858,14.656000073750814,15.36937502026558,19.289571387427195,20.138333400090534,16.139374941587448,18.34000015258789,15.943750023841858,11.54153849528386,7.173666667938233,4.43181813846935,4.058666670322419,13.556666692097982,15.015625029802322,22.40814277103969,24.37583343187968,22.52062499523163,23.90999984741211,25.976250171661377,19.355384679941032,13.930666540066401,3.26000000807372,3.1546666820844016,7.964666698127985,9.884062489494681,17.812142814908707,19.637083411216736,17.219687521457672,18.199999809265137,20.06500008702278,14.031538486480713,8.878999934593837,-0.7195454395630143,-0.47566667795181283,2.372666704157988,4.75249994918704,13.216142858777728,14.898333390553793,11.918750047683716,12.489999771118164,14.153750002384186,8.707692293020395,3.827333329121272,-4.699090887199749,-4.106000037988027,1.368180261442475,2.0810131067755635,4.2812775286676645,7.871115037264275,7.280395010894163,8.199999809265138,11.011002938204259,6.706539619430211,5.58730993941625,5,0,1.368180261442475,2.0810131067755635,4.2812775286676645,7.871115037264275,7.280395010894163,8.199999809265138,11.011002938204259,6.706539619430211,5.58730993941625,5,0,0,0,299.6894270067366,488.5961879010792,721.5688282496926,729.7688280589578,817.8568515645918,905.0418666171846,1072.661164799672,1127.661164799672,1127.661164799672,0,0,0.7235642835072109,0.8970833381017049,0.690531249344349,0.8199999809265137,0.7596875041723251,0.4263461543963506,0.17674999316533407,0,0,1,1,1,1,1,1,1,1,1,1,1,0.08166666825612387,0.16250000447034837,0.7235642835072109,0.8970833381017049,0.690531249344349,0.8199999809265137,0.7596875041723251,0.4263461543963506,0.17674999316533407,0,0,1,1,1,1,1,1,0.9999999999999999,1,1,1,1,2017-04-17T12:00:00Z,2017-05-02T12:00:00Z,2017-05-18T12:00:00Z,2017-07-27T12:00:00Z,2017-08-20T12:00:00Z,2017-09-21T12:00:00Z,2017-09-22T12:00:00Z,2017-09-30T12:00:00Z,2017-10-13T12:00:00Z,2017-11-12T12:00:00Z,2017-11-23T12:00:00Z,2017-05-01T12:00:00Z,2017-05-17T12:00:00Z,2017-07-26T12:00:00Z,2017-08-19T12:00:00Z,2017-09-20T12:00:00Z,2017-09-21T12:00:00Z,2017-09-29T12:00:00Z,2017-10-12T12:00:00Z,2017-11-11T12:00:00Z,2017-11-22T12:00:00Z,2017-12-07T12:00:00Z,107,122,138,208,232,264,265,273,286,316,327,14,15,69,23,31,0,7,12,29,10,14,121,137,207,231,263,264,272,285,315,326,341
181,sthyacinthe_que,45.5932,-72.9316,-1.5,2018,6,2018,mid000,237.62195135427964,11,2018-04-21,2018-05-05,94,2018-08-07,2018-08-10,2018-08-24,Harvested at Maturity.,4.786666637907426,0.6192307681418382,NA,2.232000021326045,2.4218181501227347,1.3200000524520874,2.617500009946525,1.071666660408179,4.196666542440653,3.7066667079925537,2.0006666670242947,4.786666637907426,0.6192307681418382,NA,2.232000021326045,2.4218181501227347,1.3200000524520874,2.617500009946525,1.071666660408179,4.196666542440653,3.7066667079925537,2.0006666670242947,14.772666740417481,24.62846139761118,NA,21.80833322207133,24.389545440673828,22.8799991607666,24.0037499666214,20.93499994277954,18.453333377838135,16.883333524068195,18.963333384195963,15.484666633605956,17.98461517920861,NA,21.66466677983602,25.97227278622714,27.559999465942383,26.762500047683716,28.205000241597492,28.16333309809367,29.203333536783855,26.677333450317384,9.625666681925455,11.444230643602518,NA,15.931333382924398,20.631590951572765,22.539999961853027,21.462500035762787,22.43500018119812,23.43499990304311,25.1233336130778,21.201000054677326,3.7666667302449546,4.9038461079964275,NA,10.197999986012777,15.29090911691839,17.520000457763672,16.162500023841858,16.665000120798748,18.706666707992554,21.043333689371746,15.724666659037272,1.9946294238605102,2.9898998571293287,NA,5.428907542730149,9.078991885324209,11.222790333226069,10.530547371260202,11.708285178549573,13.189467223711768,14.74426766406695,10.304333400726318,1.9946294238605102,2.9898998571293287,NA,5.428907542730149,9.078991885324209,11.222790333226069,10.530547371260202,11.708285178549573,13.189467223711768,14.74426766406695,10.304333400726318,0,0,NA,162.86722628190444,362.605047759037,373.82783809226305,458.07221706234463,528.321928133642,686.5955348181832,730.828337810384,730.828337810384,0,0,NA,0.5706500053405762,0.8533181862397627,1,0.9530624926090241,0.9866666793823242,1,1,0.06666666666666667,1,1,NA,1,1,1,1,1,1,1,1,0.1187999987602234,0.19911537353809064,NA,0.5706500053405762,0.8533181862397627,1,0.9530624926090241,0.9866666793823242,1,1,0.9705000019073486,1,1,NA,1,1,1,1,1,1,0.9999999999999999,1,2018-04-21T12:00:00Z,2018-05-06T12:00:00Z,NA,2018-05-19T12:00:00Z,2018-06-18T12:00:00Z,2018-07-10T12:00:00Z,2018-07-11T12:00:00Z,2018-07-19T12:00:00Z,2018-07-25T12:00:00Z,2018-08-06T12:00:00Z,2018-08-09T12:00:00Z,2018-05-05T12:00:00Z,2018-05-18T12:00:00Z,NA,2018-06-17T12:00:00Z,2018-07-09T12:00:00Z,2018-07-10T12:00:00Z,2018-07-18T12:00:00Z,2018-07-24T12:00:00Z,2018-08-05T12:00:00Z,2018-08-08T12:00:00Z,2018-08-23T12:00:00Z,111,126,NA,139,169,191,192,200,206,218,221,14,12,0,29,21,0,7,5,11,2,14,125,138,NA,168,190,191,199,205,217,220,235
182,sthyacinthe_que,45.5932,-72.9316,-0.5,2018,6,2018,mid00,784.5641726733527,11,2018-04-21,2018-05-05,122,2018-09-04,2018-09-07,2018-09-21,Harvested at Maturity.,4.786666637907426,0.6192307681418382,2.385106384952335,1.8041176457396324,3.6668749107047915,NA,2.5385714173316956,1.7328571826219559,3.3076923326230965,3.9899999300638833,1.9426666335513194,4.786666637907426,0.6192307681418382,2.385106384952335,1.8041176457396324,3.6668749107047915,NA,2.5385714173316956,1.7328571826219559,3.3076923326230965,3.9899999300638833,1.9426666335513194,14.772666740417481,24.62846139761118,22.46553186660117,25.631176275365494,17.694375097751617,NA,19.92857129233224,17.870000294276647,15.54461537874662,16.380000432332356,15.590666643778484,15.484666633605956,17.98461517920861,22.984468155718865,27.46882371341481,28.44499981403351,NA,27.645714351109095,26.402857099260604,27.625384990985577,29.613332748413086,23.524666849772135,9.625666681925455,11.444230643602518,17.53351067482157,21.553529571084415,23.628437399864197,NA,22.619285787854874,21.309285776955743,21.867307883042557,24.299999554951988,17.814333454767862,3.7666667302449546,4.9038461079964275,12.082553193924275,15.63823542875402,18.811874985694885,NA,17.592857224600657,16.21571445465088,16.109230775099533,18.986666361490887,12.10400005976359,1.9946294238605102,2.9898998571293287,6.1858098321883075,9.748742900580893,12.705733766776037,NA,12.644957597124677,11.344952438482215,11.952212970499808,13.945459854420028,7.3000502783169345,1.9946294238605102,2.9898998571293287,6.1858098321883075,9.748742900580893,12.705733766776037,NA,12.644957597124677,11.344952438482215,11.952212970499808,13.945459854420028,7.3000502783169345,0,0,290.7330621128505,456.4616914227258,659.7534316911423,NA,748.268134871015,827.6828019403905,983.061570556888,1024.8979501201482,1024.8979501201482,0,0,0.6644893676676649,0.95458823372336,0.9986250013113022,NA,1,0.9683571406773158,0.9436153888702393,1,0.06666666666666667,1,1,1,1,1,NA,1,1,1,1,1,0.1187999987602234,0.19911537353809064,0.6644893676676649,0.95458823372336,0.9986250013113022,NA,1,0.9683571406773158,0.9436153888702393,1,0.7068666760126749,1,1,1,1,1,NA,0.9999999999999999,0.9999999999999999,1,1,1,2018-04-21T12:00:00Z,2018-05-06T12:00:00Z,2018-05-19T12:00:00Z,2018-07-05T12:00:00Z,2018-07-22T12:00:00Z,NA,2018-08-07T12:00:00Z,2018-08-14T12:00:00Z,2018-08-21T12:00:00Z,2018-09-03T12:00:00Z,2018-09-06T12:00:00Z,2018-05-05T12:00:00Z,2018-05-18T12:00:00Z,2018-07-04T12:00:00Z,2018-07-21T12:00:00Z,2018-08-06T12:00:00Z,NA,2018-08-13T12:00:00Z,2018-08-20T12:00:00Z,2018-09-02T12:00:00Z,2018-09-05T12:00:00Z,2018-09-20T12:00:00Z,111,126,139,186,203,NA,219,226,233,246,249,14,12,46,16,15,0,6,6,12,2,14,125,138,185,202,218,NA,225,232,245,248,263
183,sthyacinthe_que,45.5932,-72.9316,0.5,2018,6,2018,mid0,892.5774454317127,11,2018-04-21,2018-05-05,125,2018-09-07,2018-09-12,2018-09-26,Harvested at Maturity.,4.786666637907426,0.6192307681418382,2.400799998827279,1.6994117703288794,4.301874908618629,0.4000000059604645,0.6983333478371302,2.2662500008009374,3.8191666901111603,2.673999917507172,3.141333381831646,4.786666637907426,0.6192307681418382,2.400799998827279,1.6994117703288794,4.301874908618629,0.4000000059604645,0.6983333478371302,2.2662500008009374,3.8191666901111603,2.673999917507172,3.141333381831646,14.772666740417481,24.62846139761118,22.682399950027467,23.365882200353287,18.182500064373016,25.8799991607666,20.271666685740154,17.411250233650208,15.12250010172526,18.366000366210937,13.537999852498373,15.484666633605956,17.98461517920861,23.25960008621216,27.60235303990981,28.332499861717224,25.350000381469727,27.949999809265137,26.080000400543213,28.453333377838135,20.162000274658205,22.830666796366373,9.625666681925455,11.444230643602518,17.74810005187988,21.957647127263687,23.752499967813492,20.27500009536743,22.414999961853027,20.238125205039978,22.985000014305115,14.793000173568727,17.068333411216734,3.7666667302449546,4.9038461079964275,12.236600017547607,16.31294121461756,19.17250007390976,15.199999809265137,16.880000114440918,14.396250009536743,17.516666650772095,9.424000072479249,11.306000026067098,1.9946294238605102,2.9898998571293287,5.719275150625545,9.457117914431585,12.392185321537887,10.052234145779618,12.415468545617712,10.388968830695749,12.908588736037412,6.973328532083034,6.9560243429200845,1.9946294238605102,2.9898998571293287,5.719275150625545,9.457117914431585,12.392185321537887,10.052234145779618,12.415468545617712,10.388968830695749,12.908588736037412,6.973328532083034,6.9560243429200845,0,0,285.9637575312772,446.7347620766141,645.0097272212205,655.0619613670001,729.5547726407065,812.6665232862724,967.5695881187214,1002.4362307791364,1002.4362307791364,0,0,0.6778500051498413,0.973205883362714,1,1,0.99624999364217115,0.9475000083446503,0.9573333342870076,0.4708000135421753,0.04796666781107585,1,1,1,1,1,1,1,1,1,1,1,0.1187999987602234,0.19911537353809064,0.6778500051498413,0.973205883362714,1,1,0.99624999364217115,0.9475000083446503,0.9573333342870076,0.4708000135421753,0.6436000061035156,1,1,1,1,1,1,1,1,1,0.9999999999999999,1,2018-04-21T12:00:00Z,2018-05-06T12:00:00Z,2018-05-19T12:00:00Z,2018-07-08T12:00:00Z,2018-07-25T12:00:00Z,2018-08-10T12:00:00Z,2018-08-11T12:00:00Z,2018-08-17T12:00:00Z,2018-08-25T12:00:00Z,2018-09-06T12:00:00Z,2018-09-11T12:00:00Z,2018-05-05T12:00:00Z,2018-05-18T12:00:00Z,2018-07-07T12:00:00Z,2018-07-24T12:00:00Z,2018-08-09T12:00:00Z,2018-08-10T12:00:00Z,2018-08-16T12:00:00Z,2018-08-24T12:00:00Z,2018-09-05T12:00:00Z,2018-09-10T12:00:00Z,2018-09-25T12:00:00Z,111,126,139,189,206,222,223,229,237,249,254,14,12,49,16,15,0,5,7,11,4,14,125,138,188,205,221,222,228,236,248,253,268
184,sthyacinthe_que,45.5932,-72.9316,1.5,2018,6,2018,mid1,982.2323016974276,11,2018-04-21,2018-05-05,144,2018-09-26,2018-10-04,2018-10-18,Harvested at Maturity.,4.786666637907426,0.6192307681418382,2.155964911768311,3.6221052008239845,2.3978947306934155,2.990000009536743,1.9833333436399698,4.470000045640128,2.8900000009685756,3.740000009536743,2.5906666231652102,4.786666637907426,0.6192307681418382,2.155964911768311,3.6221052008239845,2.3978947306934155,2.990000009536743,1.9833333436399698,4.470000045640128,2.8900000009685756,3.740000009536743,2.5906666231652102,14.772666740417481,24.62846139761118,22.961403453559207,20.769473627993936,18.520000056216592,10.170000076293944,16.74833345413208,15.352857181004115,15.31199998855591,9.514999896287918,7.260000085830688,15.484666633605956,17.98461517920861,23.726666751660797,27.891578875089948,27.624736886275443,25.940000534057617,28.408333778381348,27.538571493966238,23.047500085830688,16.896250247955322,15.267999776204427,9.625666681925455,11.444230643602518,18.206052679764596,22.70368420450311,22.54657900960822,19.90500020980835,22.6183336575826,22.145714282989502,17.20775004029274,12.831250131130219,10.093333198626837,3.7666667302449546,4.9038461079964275,12.685438607868395,17.515789533916273,17.468421132940996,13.869999885559082,16.828333536783855,16.752857072012766,11.367999994754792,8.766250014305115,4.918666621049245,1.9946294238605102,2.9898998571293287,5.277034221552448,9.675282738329528,11.600229390328929,9.905000209808351,12.758865852890413,12.172692186248302,8.689212387666851,5.862879330981523,2.1336712178537747,1.9946294238605102,2.9898998571293287,5.277034221552448,9.675282738329528,11.600229390328929,9.905000209808351,12.758865852890413,12.172692186248302,8.689212387666851,5.862879330981523,2.1336712178537747,0,0,300.79095062848955,484.62132265675064,705.0256810730003,714.9306812828087,791.4838764001512,876.6927217038893,1050.4769694572265,1097.3800041050786,1097.3800041050786,0,0,0.7150964954443145,0.9829736860174881,0.9883421044600638,0.990500020980835,0.9647500038146972,0.9268571444920132,0.6458250069618225,0.29562501311302186,0.0017333332697550452,1,1,1,1,1,1,1,1,1,1,1,0.1187999987602234,0.19911537353809064,0.7150964954443145,0.9829736860174881,0.9883421044600638,0.990500020980835,0.9647500038146972,0.9268571444920132,0.6458250069618225,0.29562501311302186,0.1659999926884969,1,1,1,1,1,1,0.9999999999999999,1,1,1,1,2018-04-21T12:00:00Z,2018-05-06T12:00:00Z,2018-05-19T12:00:00Z,2018-07-15T12:00:00Z,2018-08-03T12:00:00Z,2018-08-22T12:00:00Z,2018-08-23T12:00:00Z,2018-08-29T12:00:00Z,2018-09-05T12:00:00Z,2018-09-25T12:00:00Z,2018-10-03T12:00:00Z,2018-05-05T12:00:00Z,2018-05-18T12:00:00Z,2018-07-14T12:00:00Z,2018-08-02T12:00:00Z,2018-08-21T12:00:00Z,2018-08-22T12:00:00Z,2018-08-28T12:00:00Z,2018-09-04T12:00:00Z,2018-09-24T12:00:00Z,2018-10-02T12:00:00Z,2018-10-17T12:00:00Z,111,126,139,196,215,234,235,241,248,268,276,14,12,56,18,18,0,5,6,19,7,14,125,138,195,214,233,234,240,247,267,275,290
185,sthyacinthe_que,45.5932,-72.9316,2.5,2018,6,2018,mid2,1267.2257717389805,11,2018-04-21,2018-05-05,164,2018-10-16,2018-10-27,2018-11-10,Harvested at Maturity.,4.786666637907426,0.6192307681418382,2.2307812510989606,3.946842026553656,1.888571436029105,0.9800000190734864,3.97375001758337,2.6711110623760357,3.3555555573354163,1.0536363643001427,4.870666661361853,4.786666637907426,0.6192307681418382,2.2307812510989606,3.946842026553656,1.888571436029105,0.9800000190734864,3.97375001758337,2.6711110623760357,3.3555555573354163,1.0536363643001427,4.870666661361853,14.772666740417481,24.62846139761118,23.306406162679195,17.402631659256784,17.70571436200823,22.989999771118164,16.550000190734863,16.46777778201633,9.215925905439589,7.6072727116671475,4.40533332824707,15.484666633605956,17.98461517920861,24.17562510073185,28.331578806826943,27.258095423380535,24.920000076293945,26.55999994277954,24.618889066908096,17.49074074074074,8.995454463091763,5.9860000292460125,9.625666681925455,11.444230643602518,18.601328194141388,23.69684204302336,21.71119058699835,17.480000019073486,21.232499957084656,19.010000149408977,12.241481459803051,4.582272692160173,2.637333342929681,3.7666667302449546,4.9038461079964275,13.027031287550926,19.06210527921978,16.164285750616163,10.039999961853027,15.90499997138977,13.401111231909859,6.9922221788653625,0.16909092122858219,-0.7113333433866501,1.9946294238605102,2.9898998571293287,4.591893394502594,9.925055124657774,11.04106862965707,7.480000019073485,11.52192527378574,9.881035553174549,6.129457732210225,5.013923855520107,0.03735936779280505,1.9946294238605102,2.9898998571293287,4.591893394502594,9.925055124657774,11.04106862965707,7.480000019073485,11.52192527378574,9.881035553174549,6.129457732210225,5.013923855520107,0.03735936779280505,0,0,293.88117724816607,482.4572246166638,714.3196658394622,721.7996658585357,813.9750680488215,902.9043880273924,1068.3997467970685,1123.5529092077898,1123.5529092077898,0,0,0.7415468789637089,0.9988421063674123,0.9665476208641416,0.7480000019073487,0.87950000166893,0.7814444568422105,0.2852777781309905,0,0,1,1,1,1,1,1,1,1,1,1,1,0.1187999987602234,0.19911537353809064,0.7415468789637089,0.9988421063674123,0.9665476208641416,0.7480000019073487,0.87950000166893,0.7814444568422105,0.2852777781309905,0,0,1,1,1,1,1,0.9999999999999998,0.9999999999999999,1,0.9999999999999999,1,1,2018-04-21T12:00:00Z,2018-05-06T12:00:00Z,2018-05-19T12:00:00Z,2018-07-22T12:00:00Z,2018-08-10T12:00:00Z,2018-08-31T12:00:00Z,2018-09-01T12:00:00Z,2018-09-09T12:00:00Z,2018-09-18T12:00:00Z,2018-10-15T12:00:00Z,2018-10-26T12:00:00Z,2018-05-05T12:00:00Z,2018-05-18T12:00:00Z,2018-07-21T12:00:00Z,2018-08-09T12:00:00Z,2018-08-30T12:00:00Z,2018-08-31T12:00:00Z,2018-09-08T12:00:00Z,2018-09-17T12:00:00Z,2018-10-14T12:00:00Z,2018-10-25T12:00:00Z,2018-11-09T12:00:00Z,111,126,139,203,222,243,244,252,261,288,299,14,12,63,18,20,0,7,8,26,10,14,125,138,202,221,242,243,251,260,287,298,313
186,sthyacinthe_que,45.5932,-72.9316,-1.5,2019,6,2019,mid000,225.95898816189572,11,2019-04-26,2019-05-10,97,2019-08-15,2019-08-19,2019-09-02,Harvested at Maturity.,5.071999984110395,3.216000044842561,NA,2.285937499778811,2.942499951738864,NA,1.4000000217929482,2.1233333498239517,2.757857138823186,2.934999991208315,2.538000002130866,5.071999984110395,3.216000044842561,NA,2.285937499778811,2.942499951738864,NA,1.4000000217929482,2.1233333498239517,2.757857138823186,2.934999991208315,2.538000002130866,16.602666695912678,16.672000058492024,NA,20.580312609672546,23.17349991798401,NA,20.68999993801117,23.1866668065389,20.842142718178884,19.35249972343445,18.05933322906494,12.77400000890096,16.096666717529295,NA,21.167500019073486,26.467999839782717,NA,26.53749990463257,29.924999872843426,26.349285534449987,25.234999656677246,25.274000040690105,7.557333352665106,11.333666721979776,NA,15.668125007301569,21.514999866485596,NA,21.916874885559082,24.144166707992554,21.05142845426287,19.746249794960022,19.552666695912677,2.3406666964292526,6.570666726430257,NA,10.168749995529652,16.561999893188478,NA,17.296249866485596,18.36333354314168,15.753571374075753,14.257499933242798,13.831333351135253,1.0921995778641973,2.501633973666231,NA,5.187414529772855,10.198361833275722,NA,11.100802826663282,13.560019302721518,11.114651206411125,10.0033076721102,8.745167611160278,1.0921995778641973,2.501633973666231,NA,5.187414529772855,10.198361833275722,NA,11.100802826663282,13.560019302721518,11.114651206411125,10.0033076721102,8.745167611160278,0,0,NA,165.99726495273137,369.9645016182458,NA,458.770924231552,540.1310400478811,695.7361569376369,735.7493876260777,735.7493876260777,0,0,NA,0.5633437518030405,0.9808999967575074,NA,0.96231250166893,1,0.9576785734721592,0.903249990940094,0.06666666666666667,1,1,NA,1,1,NA,1,1,1,1,1,0.06456666787465414,0.17583333333333334,NA,0.5633437518030405,0.9808999967575074,NA,0.96231250166893,1,0.9576785734721592,0.903249990940094,0.8876999982198079,1,1,NA,1,1,NA,1,1,1,0.9999999999999999,1,2019-04-26T12:00:00Z,2019-05-11T12:00:00Z,NA,2019-05-26T12:00:00Z,2019-06-27T12:00:00Z,NA,2019-07-17T12:00:00Z,2019-07-25T12:00:00Z,2019-07-31T12:00:00Z,2019-08-14T12:00:00Z,2019-08-18T12:00:00Z,2019-05-10T12:00:00Z,2019-05-25T12:00:00Z,NA,2019-06-26T12:00:00Z,2019-07-16T12:00:00Z,NA,2019-07-24T12:00:00Z,2019-07-30T12:00:00Z,2019-08-13T12:00:00Z,2019-08-17T12:00:00Z,2019-09-01T12:00:00Z,116,131,NA,146,178,NA,198,206,212,226,230,14,14,0,31,19,0,7,5,13,3,14,130,145,NA,177,197,NA,205,211,225,229,244
187,sthyacinthe_que,45.5932,-72.9316,-0.5,2019,6,2019,mid00,804.1309222506549,11,2019-04-26,2019-05-10,136,2019-09-23,2019-09-27,2019-10-11,Harvested at Maturity.,5.071999984110395,3.216000044842561,2.60489360029076,1.4243749962188303,2.752222226932645,0.7799999713897705,3.136666643122832,3.0622222351117268,2.965000017376786,3.3849998638033867,5.097333285212517,5.071999984110395,3.216000044842561,2.60489360029076,1.4243749962188303,2.752222226932645,0.7799999713897705,3.136666643122832,3.0622222351117268,2.965000017376786,3.3849998638033867,5.097333285212517,16.602666695912678,16.672000058492024,21.55680855284346,21.936874985694885,20.96499988767836,25.459999084472656,15.736666679382324,18.492222044203018,15.610454472628506,8.01250022649765,10.136666663487752,12.77400000890096,16.096666717529295,22.912765908748547,26.871874928474426,26.903333134121365,24.059999465942383,27.25166670481364,24.758888880411785,21.40863626653498,22.71999979019165,16.05666669209798,7.557333352665106,11.333666721979776,17.574468057206335,21.835624873638153,21.636666589313084,17.899999618530273,21.824166774749756,19.092777729034424,15.449090881781144,18.022500038146973,10.802666663130125,2.3406666964292526,6.570666726430257,12.236170205664127,16.79937481880188,16.370000044504803,11.739999771118164,16.39666684468587,13.426666577657064,9.48954549702731,13.325000286102295,5.548666634162267,1.0921995778641973,2.501633973666231,6.309012090931304,10.389106955550874,11.280426239162745,7.899999618530272,11.824166774749756,9.486304007725584,7.191041237168556,8.768879156912863,2.1305538410412024,1.0921995778641973,2.501633973666231,6.309012090931304,10.389106955550874,11.280426239162745,7.899999618530272,11.824166774749756,9.486304007725584,7.191041237168556,8.768879156912863,2.1305538410412024,0,0,296.5235682737713,462.7492795625852,665.7969518675147,673.696951486045,744.6419521345435,830.0186882040738,988.2215954217816,1023.297112049433,1023.297112049433,0,0,0.6945744679329243,0.981156250834465,0.9572500016954211,0.7899999618530273,1,0.8865555551317004,0.5449090881781145,0.7183750033378601,0.027766666412353515,1,1,1,1,1,1,1,1,1,1,1,0.06456666787465414,0.17583333333333334,0.6945744679329243,0.981156250834465,0.9572500016954211,0.7899999618530273,1,0.8865555551317004,0.5449090881781145,0.7183750033378601,0.1637999979654948,1,1,1,1,1,1,1,1,1,1,1,2019-04-26T12:00:00Z,2019-05-11T12:00:00Z,2019-05-26T12:00:00Z,2019-07-12T12:00:00Z,2019-07-28T12:00:00Z,2019-08-15T12:00:00Z,2019-08-16T12:00:00Z,2019-08-22T12:00:00Z,2019-08-31T12:00:00Z,2019-09-22T12:00:00Z,2019-09-26T12:00:00Z,2019-05-10T12:00:00Z,2019-05-25T12:00:00Z,2019-07-11T12:00:00Z,2019-07-27T12:00:00Z,2019-08-14T12:00:00Z,2019-08-15T12:00:00Z,2019-08-21T12:00:00Z,2019-08-30T12:00:00Z,2019-09-21T12:00:00Z,2019-09-25T12:00:00Z,2019-10-10T12:00:00Z,116,131,146,193,209,227,228,234,243,265,269,14,14,46,15,17,0,5,8,21,3,14,130,145,192,208,226,227,233,242,264,268,283
188,sthyacinthe_que,45.5932,-72.9316,0.5,2019,6,2019,mid0,887.7572500775194,11,2019-04-26,2019-05-10,139,2019-09-26,2019-10-02,2019-10-16,Harvested at Maturity.,5.071999984110395,3.216000044842561,2.5861999806016684,1.3126666809121768,3.015263156083069,1.899999976158142,1.1442857014813594,6.7610000431537625,1.8329999747686088,3.0983334134022393,4.3286665946245195,5.071999984110395,3.216000044842561,2.5861999806016684,1.3126666809121768,3.015263156083069,1.899999976158142,1.1442857014813594,6.7610000431537625,1.8329999747686088,3.0983334134022393,4.3286665946245195,16.602666695912678,16.672000058492024,21.578800048828125,21.891999944051108,20.450526187294408,17.06999969482422,17.725714138575963,16.731999969482423,14.403999936580657,10.6200000445048,10.803999948501588,12.77400000890096,16.096666717529295,23.085799942016603,27.484666697184245,26.412631285818,26.239999771118164,25.94285719735282,23.66200008392334,21.57599983215332,18.026666800181072,15.459333356221517,7.557333352665106,11.333666721979776,17.79589995622635,22.33199996948242,21.09526300430298,22.14000034332275,20.04785714830671,18.101000022888183,15.69399996995926,13.10833340883255,9.989333326617876,2.3406666964292526,6.570666726430257,12.505999970436097,17.1793332417806,15.777894722787957,18.040000915527344,14.152857099260602,12.539999961853027,9.812000107765197,8.190000017484028,4.519333297014237,1.0921995778641973,2.501633973666231,5.864699048694509,10.189127598539129,10.50462868389509,12.140000343322754,10.385911023556336,8.697895346137882,7.438415950598269,5.943062141608447,1.6249937128150216,1.0921995778641973,2.501633973666231,5.864699048694509,10.189127598539129,10.50462868389509,12.140000343322754,10.385911023556336,8.697895346137882,7.438415950598269,5.943062141608447,1.6249937128150216,0,0,293.23495243472553,446.0718664128124,645.6598114068191,657.7998117501419,730.5011889150362,817.480142376415,966.24846138838,1001.9068342380306,1001.9068342380306,0,0,0.7128999998569489,0.979900000890096,0.9484473680195056,1,0.8954285621643067,0.806700005531311,0.5526249969005584,0.3212500055631002,0.02393333435058594,1,1,1,1,1,1,1,1,1,1,1,0.06456666787465414,0.17583333333333334,0.7128999998569489,0.979900000890096,0.9484473680195056,1,0.8954285621643067,0.806700005531311,0.5526249969005584,0.3212500055631002,0.09356666405995688,1,1,1,1,1,1,1,0.9999999999999999,0.9999999999999999,1,1,2019-04-26T12:00:00Z,2019-05-11T12:00:00Z,2019-05-26T12:00:00Z,2019-07-15T12:00:00Z,2019-07-30T12:00:00Z,2019-08-18T12:00:00Z,2019-08-19T12:00:00Z,2019-08-26T12:00:00Z,2019-09-05T12:00:00Z,2019-09-25T12:00:00Z,2019-10-01T12:00:00Z,2019-05-10T12:00:00Z,2019-05-25T12:00:00Z,2019-07-14T12:00:00Z,2019-07-29T12:00:00Z,2019-08-17T12:00:00Z,2019-08-18T12:00:00Z,2019-08-25T12:00:00Z,2019-09-04T12:00:00Z,2019-09-24T12:00:00Z,2019-09-30T12:00:00Z,2019-10-15T12:00:00Z,116,131,146,196,211,230,231,238,248,268,274,14,14,49,14,18,0,6,9,19,5,14,130,145,195,210,229,230,237,247,267,273,288
189,sthyacinthe_que,45.5932,-72.9316,1.5,2019,6,2019,mid1,1013.563125529867,11,2019-04-26,2019-05-10,169,2019-10-26,2019-11-04,2019-11-18,Harvested at Maturity.,5.071999984110395,3.216000044842561,2.459285696901913,1.6911111240171723,3.2069565184900295,1.2200000286102295,4.490000044150899,1.9629999347031117,4.85161292180419,9.143333182566696,2.3946666409571966,5.071999984110395,3.216000044842561,2.459285696901913,1.6911111240171723,3.2069565184900295,1.2200000286102295,4.490000044150899,1.9629999347031117,4.85161292180419,9.143333182566696,2.3946666409571966,16.602666695912678,16.672000058492024,21.563928604125977,22.104999913109673,18.363912914110266,19.46500015258789,14.981666564941406,13.984999966621398,9.686774169245075,6.259999990463257,5.831999985376994,12.77400000890096,16.096666717529295,23.598571368626185,27.52333312564426,25.416086943253227,23,20.869166533152264,22.94499988555908,15.329354839940224,12.338888804117838,0.6793333222468694,7.557333352665106,11.333666721979776,18.323571377566882,22.101388745837742,20.068043501480766,16.682499885559082,15.274166623751324,16.658000016212462,10.377096765945035,8.407222158379025,-2.8879999914517005,2.3406666964292526,6.570666726430257,13.048571386507579,16.679444366031223,14.720000059708305,10.364999771118164,9.679166714350382,10.371000146865844,5.424838691949844,4.475555512640211,-6.45533330515027,1.0921995778641973,2.501633973666231,5.480920922998622,9.732246273434525,9.828222546734507,6.696256921577454,6.975388566935062,8.219424545588195,5.311610238885928,5.040112413722939,0,1.0921995778641973,2.501633973666231,5.480920922998622,9.732246273434525,9.828222546734507,6.696256921577454,6.975388566935062,8.219424545588195,5.311610238885928,5.040112413722939,0,0,0,306.9315716879228,482.11200460974425,708.1611231846379,721.5536370277928,805.2582998310135,887.4525452868952,1052.1124626923586,1097.4734744158648,1097.4734744158648,0,0,0.7436607141579901,0.970055553648207,0.9233478276625924,0.6682499885559082,0.5274166623751323,0.6322500014305115,0.12929032156544348,0.0957222170299954,0,1,1,1,1,1,1,1,1,1,1,1,0.06456666787465414,0.17583333333333334,0.7436607141579901,0.970055553648207,0.9233478276625924,0.6682499885559082,0.5274166623751323,0.6322500014305115,0.12929032156544348,0.0957222170299954,0,1,1,1,1,1,1,1,1,1,1,1,2019-04-26T12:00:00Z,2019-05-11T12:00:00Z,2019-05-26T12:00:00Z,2019-07-21T12:00:00Z,2019-08-08T12:00:00Z,2019-08-31T12:00:00Z,2019-09-02T12:00:00Z,2019-09-14T12:00:00Z,2019-09-24T12:00:00Z,2019-10-25T12:00:00Z,2019-11-03T12:00:00Z,2019-05-10T12:00:00Z,2019-05-25T12:00:00Z,2019-07-20T12:00:00Z,2019-08-07T12:00:00Z,2019-08-30T12:00:00Z,2019-09-01T12:00:00Z,2019-09-13T12:00:00Z,2019-09-23T12:00:00Z,2019-10-24T12:00:00Z,2019-11-02T12:00:00Z,2019-11-17T12:00:00Z,116,131,146,202,220,243,245,257,267,298,307,14,14,55,17,22,1,11,9,30,8,14,130,145,201,219,242,244,256,266,297,306,321
190,sthyacinthe_que,45.5932,-72.9316,2.5,2019,6,2019,mid2,853.8068266421152,11,2019-04-26,2019-05-10,196,2019-11-22,2019-12-03,2019-12-17,Harvested at Maturity.,5.071999984110395,3.216000044842561,2.332741922248275,2.617619046320518,3.2809375133365393,0.5199999883770943,5.761666586001714,4.5075000850483775,4.273823467357194,1.927272689613429,2.0159999738136927,5.071999984110395,3.216000044842561,2.332741922248275,2.617619046320518,3.2809375133365393,0.5199999883770943,5.761666586001714,4.5075000850483775,4.273823467357194,1.927272689613429,2.0159999738136927,16.602666695912678,16.672000058492024,21.593387111540764,21.161904698326474,16.06718736886978,19.265000343322754,10.305833379427591,10.529374927282333,6.282647048725801,4.205454577099193,4.289333375295003,12.77400000890096,16.096666717529295,23.80919348809027,26.87761888049898,23.157812416553497,20.4399995803833,20.704166809717815,14.8768749833107,6.368823478765347,0.5527272901751779,-0.46799995998541516,7.557333352665106,11.333666721979776,18.568870907829655,21.510476135072253,17.479687459766865,12.93999981880188,15.580833464860916,9.599687471054494,2.5222058625453534,-3.5677272460677405,-4.95899996360143,2.3406666964292526,6.570666726430257,13.328548327569038,16.14333338964553,11.801562502980232,5.440000057220459,10.457500120004017,4.322499958798289,-1.3244117536746405,-7.688181782310659,-9.449999967217446,1.0921995778641973,2.501633973666231,4.714358008272412,8.99375107795538,7.491884070129077,3.977343568727374,7.395209937011823,5.1623161260744554,5.011475083970585,5,0,1.0921995778641973,2.501633973666231,4.714358008272412,8.99375107795538,7.491884070129077,3.977343568727374,7.395209937011823,5.1623161260744554,5.011475083970585,5,0,0,0,292.29019651288957,481.1589691499526,720.8992593940833,728.8539465315381,817.5964657756798,900.193523792871,1070.583676647871,1125.583676647871,1125.583676647871,0,0,0.7636048388096595,0.9533571424938384,0.7081874959170819,0.293999981880188,0.5353333453337351,0.06609374731779098,0.03249999775606043,0,0,1,1,1,1,1,1,1,1,1,1,1,0.06456666787465414,0.17583333333333334,0.7636048388096595,0.9533571424938384,0.7081874959170819,0.293999981880188,0.5353333453337351,0.06609374731779098,0.03249999775606043,0,0,1,1,1,1,1,1,1,1,1,0.9999999999999999,1,2019-04-26T12:00:00Z,2019-05-11T12:00:00Z,2019-05-26T12:00:00Z,2019-07-27T12:00:00Z,2019-08-17T12:00:00Z,2019-09-18T12:00:00Z,2019-09-20T12:00:00Z,2019-10-02T12:00:00Z,2019-10-18T12:00:00Z,2019-11-21T12:00:00Z,2019-12-02T12:00:00Z,2019-05-10T12:00:00Z,2019-05-25T12:00:00Z,2019-07-26T12:00:00Z,2019-08-16T12:00:00Z,2019-09-17T12:00:00Z,2019-09-19T12:00:00Z,2019-10-01T12:00:00Z,2019-10-17T12:00:00Z,2019-11-20T12:00:00Z,2019-12-01T12:00:00Z,2019-12-16T12:00:00Z,116,131,146,208,229,261,263,275,291,325,336,14,14,61,20,31,1,11,15,33,10,14,130,145,207,228,260,262,274,290,324,335,350
201,sthyacinthe_que,45.5932,-72.9316,-1.5,2022,6,2022,mid000,239.02370581285095,11,2022-05-05,2022-05-19,87,2022-08-14,2022-08-18,2022-09-01,Harvested at Maturity.,2.0980000227689746,1.4933333198229473,NA,3.633333356085199,2.869583339119951,0,3.9066668233523765,3.0442856193653176,2.7435714163418328,0.11749999690800905,4.135333329687516,2.0980000227689746,1.4933333198229473,NA,3.633333356085199,2.869583339119951,0,3.9066668233523765,3.0442856193653176,2.7435714163418328,0.11749999690800905,4.135333329687516,23.955999819437665,23.931666374206543,NA,19.345185138561106,23.025000035762787,27.690000534057617,21.25833336512248,21.61142839704241,17.515714236668178,23.414999961853027,16.89733346303304,20.370666567484538,22.10000006357829,NA,21.797037018669975,24.612083514531452,28.06999969482422,29.14999993642171,28.298571177891322,27.30357129233224,26.567500114440918,26.809999974568687,13.555333281556765,15.809166669845581,NA,16.92851851604603,19.423541744550068,22.574999809265137,23.83999999364217,22.603571346827916,21.474642787660873,20.299999952316284,21.668333339691163,6.739999995628993,9.518333276112875,NA,12.060000013422083,14.234999974568685,17.079999923706055,18.53000005086263,16.90857151576451,15.645714282989502,14.03249979019165,16.52666670481364,5.046961366771559,6.172854906824728,NA,6.093463863631949,8.298396055212237,11.533718637042256,12.815272670927413,12.119998328071222,11.251543592802832,10.390471728725732,10.820635356033645,5.046961366771559,6.172854906824728,NA,6.093463863631949,8.298396055212237,11.533718637042256,12.815272670927413,12.119998328071222,11.251543592802832,10.390471728725732,10.820635356033645,0,0,NA,164.52352431806258,363.6850296431562,375.2187482801985,452.1103843057629,536.9503726022615,694.4719829015012,736.0338698164041,736.0338698164041,0,0,NA,0.6819074074427287,0.8877916753292084,1,1,0.9969285692487444,0.9444999933242798,0.975124990940094,0.06666666666666667,1,1,NA,1,1,1,1,1,1,1,1,0.4008333285649618,0.5488333304723104,NA,0.6819074074427287,0.8877916753292084,1,1,0.9969285692487444,0.9444999933242798,0.975124990940094,0.9572666708628337,1,1,NA,1,1,1,1,1,1,0.9999999999999999,1,2022-05-05T12:00:00Z,2022-05-20T12:00:00Z,NA,2022-05-26T12:00:00Z,2022-06-22T12:00:00Z,2022-07-16T12:00:00Z,2022-07-17T12:00:00Z,2022-07-23T12:00:00Z,2022-07-30T12:00:00Z,2022-08-13T12:00:00Z,2022-08-17T12:00:00Z,2022-05-19T12:00:00Z,2022-05-25T12:00:00Z,NA,2022-06-21T12:00:00Z,2022-07-15T12:00:00Z,2022-07-16T12:00:00Z,2022-07-22T12:00:00Z,2022-07-29T12:00:00Z,2022-08-12T12:00:00Z,2022-08-16T12:00:00Z,2022-08-31T12:00:00Z,125,140,NA,146,173,197,198,204,211,225,229,14,5,0,26,23,0,5,6,13,3,14,139,145,NA,172,196,197,203,210,224,228,243
202,sthyacinthe_que,45.5932,-72.9316,-0.5,2022,6,2022,mid00,829.5640054548362,11,2022-05-05,2022-05-19,118,2022-09-14,2022-09-19,2022-10-03,Harvested at Maturity.,2.0980000227689746,1.4933333198229473,3.249361711177737,3.485000068055732,2.5599999725818634,0,0.4533333207170169,4.036249997559935,2.506666668752829,6.712000094726681,4.478666731839379,2.0980000227689746,1.4933333198229473,3.249361711177737,3.485000068055732,2.5599999725818634,0,0.4533333207170169,4.036249997559935,2.506666668752829,6.712000094726681,4.478666731839379,23.955999819437665,23.931666374206543,21.043616994898372,21.624285766056605,18.8736841302169,25.260000228881836,20.085000038146973,15.795000076293945,17.19600003560384,14.922000312805176,10.352666632334392,20.370666567484538,22.10000006357829,22.896595792567478,28.17285714830671,27.21210509852359,25.63999938964844,27.653333346048992,25.81624984741211,25.56400032043457,21.038000106811523,16.99333324432373,13.555333281556765,15.809166669845581,17.893297900544837,22.800000020435878,21.396842002868652,20.02999973297119,21.702499945958458,20.93437486886978,19.864000256856283,15.638000011444092,12.00099995136261,6.739999995628993,9.518333276112875,12.890000008522197,17.427142892565048,15.581578907213713,14.420000076293944,15.75166654586792,16.052499890327454,14.164000193277994,10.23799991607666,7.00866665840149,5.046961366771559,6.172854906824728,6.4303731319125355,11.183996817394151,10.838009974418561,10.029999732971191,11.657888822739325,11.12967353674546,10.17210284864664,7.471184995919467,2.6251744148184852,5.046961366771559,6.172854906824728,6.4303731319125355,11.183996817394151,10.838009974418561,10.029999732971191,11.657888822739325,11.12967353674546,10.17210284864664,7.471184995919467,2.6251744148184852,0,0,302.2275371998893,458.80349264340754,664.7256821573601,674.7556818903313,744.7030148267672,833.7404031207309,986.3219458504306,1023.6778708300278,1023.6778708300278,0,0,0.7630000028204411,0.9898214340209961,0.9527368344758687,1,0.9955833276112874,0.9239375054836273,0.860566676457723,0.5258000087738037,0.020199998219807943,1,1,1,1,1,1,1,1,1,1,1,0.4008333285649618,0.5488333304723104,0.7630000028204411,0.9898214340209961,0.9527368344758687,1,0.9955833276112874,0.9239375054836273,0.860566676457723,0.5258000087738037,0.2228999956448873,1,1,1,1,1,1,0.9999999999999999,1,1,1,1,2022-05-05T12:00:00Z,2022-05-20T12:00:00Z,2022-05-26T12:00:00Z,2022-07-12T12:00:00Z,2022-07-26T12:00:00Z,2022-08-14T12:00:00Z,2022-08-15T12:00:00Z,2022-08-21T12:00:00Z,2022-08-29T12:00:00Z,2022-09-13T12:00:00Z,2022-09-18T12:00:00Z,2022-05-19T12:00:00Z,2022-05-25T12:00:00Z,2022-07-11T12:00:00Z,2022-07-25T12:00:00Z,2022-08-13T12:00:00Z,2022-08-14T12:00:00Z,2022-08-20T12:00:00Z,2022-08-28T12:00:00Z,2022-09-12T12:00:00Z,2022-09-17T12:00:00Z,2022-10-02T12:00:00Z,125,140,146,193,207,226,227,233,241,256,261,14,5,46,13,18,0,5,7,14,4,14,139,145,192,206,225,226,232,240,255,260,275
203,sthyacinthe_que,45.5932,-72.9316,0.5,2022,6,2022,mid0,810.3420703433542,11,2022-05-05,2022-05-19,122,2022-09-18,2022-09-25,2022-10-09,Harvested at Maturity.,2.0980000227689746,1.4933333198229473,3.36346940198267,3.095333356161912,2.0715789371415188,0.20999999344348907,4.070000032583873,4.8114285325365405,2.7882353238323154,7.69714299403131,1.3506666701287031,2.0980000227689746,1.4933333198229473,3.36346940198267,3.095333356161912,2.0715789371415188,0.20999999344348907,4.070000032583873,4.8114285325365405,2.7882353238323154,7.69714299403131,1.3506666701287031,23.955999819437665,23.931666374206543,21.04734692281606,21.685999997456868,19.14263153076172,17.530000686645508,16.28666655222575,17.131428718566895,16.62000005385455,8.750000204358782,12.794666544596353,20.370666567484538,22.10000006357829,23.074489846521494,28.17666664123535,27.131052519145765,25.59000015258789,27.861666361490887,26.50428581237793,24.025294359992532,17.854285512651714,16.44866663614909,13.555333281556765,15.809166669845581,18.054285735500102,22.679000027974446,21.26710517782914,21.00500011444092,22.783332983652752,21.0542859349932,18.44529428201563,12.847856998443604,10.728000001112619,6.739999995628993,9.518333276112875,13.03408162447871,17.181333414713542,15.403157836512515,16.420000076293945,17.704999605814617,15.60428605760847,12.865294204038733,7.841428484235491,5.007333366076152,5.046961366771559,6.172854906824728,5.930901707372793,10.397310403594517,10.444226592000609,11.005000114440918,12.710194382623833,11.112737423196009,9.15992158709221,5.7262538176757944,2.1771761230003586,5.046961366771559,6.172854906824728,5.930901707372793,10.397310403594517,10.444226592000609,11.005000114440918,12.710194382623833,11.112737423196009,9.15992158709221,5.7262538176757944,2.1771761230003586,0,0,290.6141836612668,446.5738397151845,645.0141449631959,656.0191450776368,732.2803113733798,810.0694733357519,965.7881403163194,1005.87191704005,1005.87191704005,0,0,0.7726734720930761,0.9890666707356771,0.9538684142263312,1,0.9955833276112874,0.9130714348384312,0.7785588362637689,0.288071414402553,0.011166667938232422,1,1,1,1,1,1,1,1,1,1,1,0.4008333285649618,0.5488333304723104,0.7726734720930761,0.9890666707356771,0.9538684142263312,1,0.9955833276112874,0.9130714348384312,0.7785588362637689,0.288071414402553,0.15583333094914756,1,1,1,1,1,1,1,1,1,0.9999999999999999,1,2022-05-05T12:00:00Z,2022-05-20T12:00:00Z,2022-05-26T12:00:00Z,2022-07-14T12:00:00Z,2022-07-29T12:00:00Z,2022-08-17T12:00:00Z,2022-08-18T12:00:00Z,2022-08-24T12:00:00Z,2022-08-31T12:00:00Z,2022-09-17T12:00:00Z,2022-09-24T12:00:00Z,2022-05-19T12:00:00Z,2022-05-25T12:00:00Z,2022-07-13T12:00:00Z,2022-07-28T12:00:00Z,2022-08-16T12:00:00Z,2022-08-17T12:00:00Z,2022-08-23T12:00:00Z,2022-08-30T12:00:00Z,2022-09-16T12:00:00Z,2022-09-23T12:00:00Z,2022-10-08T12:00:00Z,125,140,146,195,210,229,230,236,243,260,267,14,5,48,14,18,0,5,6,16,6,14,139,145,194,209,228,229,235,242,259,266,281
204,sthyacinthe_que,45.5932,-72.9316,1.5,2022,6,2022,mid1,1061.437918697717,11,2022-05-05,2022-05-19,150,2022-10-16,2022-10-25,2022-11-08,Harvested at Maturity.,2.0980000227689746,1.4933333198229473,3.374464316526428,1.7835293762824114,2.9940908927131784,NA,3.5820000000298022,4.387500062584877,3.5065517401130037,0.8177777917848693,1.21000000461936,2.0980000227689746,1.4933333198229473,3.374464316526428,1.7835293762824114,2.9940908927131784,NA,3.5820000000298022,4.387500062584877,3.5065517401130037,0.8177777917848693,1.21000000461936,23.955999819437665,23.931666374206543,21.139107133661,20.98647061516257,17.361818140203304,NA,16.068000030517577,17.09375011920929,11.21827585121681,9.521111064487034,8.661999877293905,20.370666567484538,22.10000006357829,23.59267863205501,28.984705756692325,25.988636190241035,NA,24.174000358581544,26.192500352859497,16.71862059626086,15.511111047532824,17.152000109354656,13.555333281556765,15.809166669845581,18.53500003899847,23.052352849174948,20.663408973000266,NA,18.984500312805174,19.974375158548355,11.198275818906982,9.559444427490234,11.38200004498164,6.739999995628993,9.518333276112875,13.477321445941925,17.11999994165757,15.3381817557595,NA,13.795000267028808,13.756249964237213,5.677931041553102,3.607777807447645,5.611999980608623,5.046961366771559,6.172854906824728,5.5349434649162745,10.34110017669308,10.264881161212822,NA,9.416527989167571,10.493563364725933,5.575770437634608,5.401894424306022,2.959716166812132,5.046961366771559,6.172854906824728,5.5349434649162745,10.34110017669308,10.264881161212822,NA,9.416527989167571,10.493563364725933,5.575770437634608,5.401894424306022,2.959716166812132,0,0,309.9568340353113,485.7555370390936,711.5829225857757,NA,805.7482024774515,889.6967093952588,1051.3940520866622,1100.0111019054164,1100.0111019054164,0,0,0.7985446465866907,0.9987352932200713,0.9312954490835017,NA,0.7909500122070313,0.8721250146627426,0.19305172007659388,0.084388886557685,0.02643333276112874,1,1,1,1,1,NA,1,1,1,1,1,0.4008333285649618,0.5488333304723104,0.7985446465866907,0.9987352932200713,0.9312954490835017,NA,0.7909500122070313,0.8721250146627426,0.19305172007659388,0.084388886557685,0.2521666653951009,1,1,1,1,1,NA,1,1,1,1,1,2022-05-05T12:00:00Z,2022-05-20T12:00:00Z,2022-05-26T12:00:00Z,2022-07-21T12:00:00Z,2022-08-07T12:00:00Z,NA,2022-08-29T12:00:00Z,2022-09-08T12:00:00Z,2022-09-16T12:00:00Z,2022-10-15T12:00:00Z,2022-10-24T12:00:00Z,2022-05-19T12:00:00Z,2022-05-25T12:00:00Z,2022-07-20T12:00:00Z,2022-08-06T12:00:00Z,2022-08-28T12:00:00Z,NA,2022-09-07T12:00:00Z,2022-09-15T12:00:00Z,2022-10-14T12:00:00Z,2022-10-23T12:00:00Z,2022-11-07T12:00:00Z,125,140,146,202,219,NA,241,251,259,288,297,14,5,55,16,21,0,9,7,28,8,14,139,145,201,218,240,NA,250,258,287,296,311
205,sthyacinthe_que,45.5932,-72.9316,2.5,2022,6,2022,mid2,972.5480825028108,11,2022-05-05,2022-05-19,170,2022-11-05,2022-11-14,2022-11-28,Harvested at Maturity.,2.0980000227689746,1.4933333198229473,3.3034426455431785,2.2313636121424762,3.107391302190397,NA,6.512727433476936,1.9859999787062406,1.6996666576713324,4.943333310799466,1.1573333512991666,2.0980000227689746,1.4933333198229473,3.3034426455431785,2.2313636121424762,3.107391302190397,NA,6.512727433476936,1.9859999787062406,1.6996666576713324,4.943333310799466,1.1573333512991666,23.955999819437665,23.931666374206543,21.176885237459278,19.47863630814986,16.68826094917629,NA,14.354545549912887,12.14133326212565,9.611333266894022,6.659999979866876,4.544000053405762,20.370666567484538,22.10000006357829,24.10754102175353,27.19227261976762,25.46695659471595,NA,23.052727352489125,16.704666646321613,16.064000002543132,15.999999788072374,1.9780000021060309,13.555333281556765,15.809166669845581,19.019426255929666,21.306136283007536,20.233043546261996,NA,17.532727284864947,11.290333332618077,10.085000011324883,10.591110977861616,-1.7503333103532592,6.739999995628993,9.518333276112875,13.9313114901058,15.419999946247447,14.999130497808041,NA,12.012727217240768,5.8760000189145405,4.106000020106634,5.182222167650859,-5.47866662281255,5.046961366771559,6.172854906824728,4.893565195776832,8.725775443643977,10.034352980994182,NA,8.764806895214319,5.478703169724345,5.640081980055198,5.8038458454781106,0,5.046961366771559,6.172854906824728,4.893565195776832,8.725775443643977,10.034352980994182,NA,8.764806895214319,5.478703169724345,5.640081980055198,5.8038458454781106,0,0,0,298.50747694238675,490.4745367025543,721.2646552654205,NA,817.6775311127778,899.858078658643,1069.0605380602988,1121.2951506696018,1121.2951506696018,0,0,0.8150573804730274,0.9591818115927957,0.881456528539243,NA,0.6621363639831543,0.17926666498184204,0.14876666625340781,0.22522221141391333,0,1,1,1,1,1,NA,1,1,1,1,1,0.4008333285649618,0.5488333304723104,0.8150573804730274,0.9591818115927957,0.881456528539243,NA,0.6621363639831543,0.17926666498184204,0.14876666625340781,0.22522221141391333,0,1,1,1,1,1,NA,1,1,1,1,1,2022-05-05T12:00:00Z,2022-05-20T12:00:00Z,2022-05-26T12:00:00Z,2022-07-26T12:00:00Z,2022-08-17T12:00:00Z,NA,2022-09-09T12:00:00Z,2022-09-20T12:00:00Z,2022-10-05T12:00:00Z,2022-11-04T12:00:00Z,2022-11-13T12:00:00Z,2022-05-19T12:00:00Z,2022-05-25T12:00:00Z,2022-07-25T12:00:00Z,2022-08-16T12:00:00Z,2022-09-08T12:00:00Z,NA,2022-09-19T12:00:00Z,2022-10-04T12:00:00Z,2022-11-03T12:00:00Z,2022-11-12T12:00:00Z,2022-11-27T12:00:00Z,125,140,146,207,229,NA,252,263,278,308,317,14,5,60,21,22,0,10,14,29,8,14,139,145,206,228,251,NA,262,277,307,316,331
211,ames_ia,42.0215,-93.7745,-1.5,2017,7,2017,mid000,194.70072125279103,11,2017-04-01,2017-04-15,90,2017-07-14,2017-07-17,2017-07-31,Harvested at Maturity.,3.1693333435803654,1.21222217919098,NA,4.130909099441134,1.17473683917993,NA,3.2612500488758087,2.9287500602658834,1.3363636273213408,0.45000000794728595,1.7766666977355878,3.1693333435803654,1.21222217919098,NA,4.130909099441134,1.17473683917993,NA,3.2612500488758087,2.9287500602658834,1.3363636273213408,0.45000000794728595,1.7766666977355878,13.409333197275798,19.216666645473904,NA,18.270000024275348,27.166842059085244,NA,22.111250042915344,25.196250081062317,25.00909051028165,28.333333333333332,22.96466681162516,16.86533342997233,19.95777765909831,NA,19.648484880273994,28.457368148000615,NA,28.216249704360962,25.886249780654907,31.68181835521351,31.983333587646484,32.89399998982747,11.439000036815802,13.257222202089098,NA,13.865303047452912,22.131841960706208,NA,21.997499763965607,19.867499887943268,25.689091075550426,24.633333206176758,26.75399990081787,6.012666643659274,6.556666745079888,NA,8.082121214631831,15.806315773411802,NA,15.778749823570251,13.848749995231628,19.69636379588734,17.28333282470703,20.61399981180827,3.059694243931584,4.089856551770038,NA,5.01225261215992,10.918463902256299,NA,10.948410429735231,9.6324937079902,13.631538666637482,12.845175435658247,13.501511835046609,3.059694243931584,4.089856551770038,NA,5.01225261215992,10.918463902256299,NA,10.948410429735231,9.6324937079902,13.631538666637482,12.845175435658247,13.501511835046609,0,0,NA,165.4043362012774,372.8551503441471,NA,460.44243378202896,537.5023834459505,687.4493087789629,725.9848350859377,725.9848350859377,0,0,NA,0.45140909498388115,0.9186315787465948,NA,0.9805000007152558,0.8668124973773956,1,1,0.06666666666666667,1,1,NA,1,1,NA,1,1,1,1,1,0.2344333330790202,0.3394444439146254,NA,0.45140909498388115,0.9186315787465948,NA,0.9805000007152558,0.8668124973773956,1,1,0.9942666625976563,1,1,NA,0.9999999999999999,1,NA,1,1,0.9999999999999999,1,1,2017-04-01T12:00:00Z,2017-04-16T12:00:00Z,NA,2017-04-25T12:00:00Z,2017-05-28T12:00:00Z,NA,2017-06-16T12:00:00Z,2017-06-24T12:00:00Z,2017-07-02T12:00:00Z,2017-07-13T12:00:00Z,2017-07-16T12:00:00Z,2017-04-15T12:00:00Z,2017-04-24T12:00:00Z,NA,2017-05-27T12:00:00Z,2017-06-15T12:00:00Z,NA,2017-06-23T12:00:00Z,2017-07-01T12:00:00Z,2017-07-12T12:00:00Z,2017-07-15T12:00:00Z,2017-07-30T12:00:00Z,91,106,NA,115,148,NA,167,175,183,194,197,14,8,0,32,18,0,7,7,10,2,14,105,114,NA,147,166,NA,174,182,193,196,211
212,ames_ia,42.0215,-93.7745,-0.5,2017,7,2017,mid00,769.5541833912374,11,2017-04-01,2017-04-15,116,2017-08-09,2017-08-12,2017-08-26,Harvested at Maturity.,3.1693333435803654,1.21222217919098,2.8760416719208783,3.0493750198511407,2.335625028354116,0,2.0866667019824185,2.0360000375658274,1.256923077484736,0.28333333134651184,4.530666754643122,3.1693333435803654,1.21222217919098,2.8760416719208783,3.0493750198511407,2.335625028354116,0,2.0866667019824185,2.0360000375658274,1.256923077484736,0.28333333134651184,4.530666754643122,13.409333197275798,19.216666645473904,21.344583332538605,24.193750023841858,24.35937476158142,28.809999465942383,24.388333638509113,21.858000183105467,22.253846095158504,22.726666768391926,18.208666610717774,16.86533342997233,19.95777765909831,22.132291664679844,28.081249594688416,30.60812497138977,29.6200008392334,35.056666692097984,33.38400001525879,29.324615185077374,30.290000279744465,28.30666643778483,11.439000036815802,13.257222202089098,16.09145832605039,21.937187254428864,24.82281255722046,22.875,28.269999980926514,26.854999923706053,23.01730753825261,23.125,22.33499994277954,6.012666643659274,6.556666745079888,10.050624987420937,15.793124914169312,19.037500143051147,16.1299991607666,21.483333269755047,20.32599983215332,16.70999989142785,15.959999720255533,16.363333447774252,3.059694243931584,4.089856551770038,6.335717012966016,10.050557096099844,12.42028698535255,11.782646886295192,13.219484012975883,13.591797800528465,12.79899140969733,12.9974237899065,11.521364530419508,3.059694243931584,4.089856551770038,6.335717012966016,10.050557096099844,12.42028698535255,11.782646886295192,13.219484012975883,13.591797800528465,12.79899140969733,12.9974237899065,11.521364530419508,0,0,304.1144166223687,464.9233301599662,663.6479219256071,675.4305688119023,754.7474728897575,822.7064618923998,989.0933502184652,1028.0856215881847,1028.0856215881847,0,0,0.5906354193886121,0.9236562490463257,1,1,0.9910000006357829,0.9935999870300293,0.9931923095996563,1,0.06666666666666667,1,1,1,1,1,1,1,1,1,1,1,0.2344333330790202,0.3394444439146254,0.5906354193886121,0.9236562490463257,1,1,0.9910000006357829,0.9935999870300293,0.9931923095996563,1,0.9871666653951009,1,1,0.9999999999999999,1,1,1,1,1,1,1,1,2017-04-01T12:00:00Z,2017-04-16T12:00:00Z,2017-04-25T12:00:00Z,2017-06-12T12:00:00Z,2017-06-28T12:00:00Z,2017-07-14T12:00:00Z,2017-07-15T12:00:00Z,2017-07-21T12:00:00Z,2017-07-26T12:00:00Z,2017-08-08T12:00:00Z,2017-08-11T12:00:00Z,2017-04-15T12:00:00Z,2017-04-24T12:00:00Z,2017-06-11T12:00:00Z,2017-06-27T12:00:00Z,2017-07-13T12:00:00Z,2017-07-14T12:00:00Z,2017-07-20T12:00:00Z,2017-07-25T12:00:00Z,2017-08-07T12:00:00Z,2017-08-10T12:00:00Z,2017-08-25T12:00:00Z,91,106,115,163,179,195,196,202,207,220,223,14,8,47,15,15,0,5,4,12,2,14,105,114,162,178,194,195,201,206,219,222,237
213,ames_ia,42.0215,-93.7745,0.5,2017,7,2017,mid0,806.7902841417709,11,2017-04-01,2017-04-15,119,2017-08-12,2017-08-15,2017-08-29,Harvested at Maturity.,3.1693333435803654,1.21222217919098,2.8760416719208783,3.6452941542820017,1.3438888971383374,NA,3.7816667333245277,0.6600000110144416,1.0184615334639182,0.16000000635782877,4.594000083083908,3.1693333435803654,1.21222217919098,2.8760416719208783,3.6452941542820017,1.3438888971383374,NA,3.7816667333245277,0.6600000110144416,1.0184615334639182,0.16000000635782877,4.594000083083908,13.409333197275798,19.216666645473904,21.344583332538605,23.57176472158993,25.601666503482395,NA,19.93833351135254,23.646666685740154,22.746153831481934,21.27666664123535,16.681999969482423,16.86533342997233,19.95777765909831,22.132291664679844,28.18882313896628,31.026666747199165,NA,35.1983331044515,31.366666793823242,29.301538320688103,28.213333129882813,28.093333180745443,11.439000036815802,13.257222202089098,16.09145832605039,22.09323507196763,24.92888895670573,NA,29.175833225250244,25.310833136240642,22.484999913435715,21.863333384195965,22.26233326594035,6.012666643659274,6.556666745079888,10.050624987420937,15.99764700496898,18.831111166212295,NA,23.153333346048992,19.254999478658043,15.66846150618333,15.513333638509115,16.431333351135255,3.059694243931584,4.089856551770038,5.945564756258097,9.37474612811078,11.469486820196053,NA,12.92722107191999,13.335057749195697,12.05173978247668,11.863333384195965,11.351697890455723,3.059694243931584,4.089856551770038,5.945564756258097,9.37474612811078,11.469486820196053,NA,12.92722107191999,13.335057749195697,12.05173978247668,11.863333384195965,11.351697890455723,0,0,285.3871083003887,444.7577924782719,651.2085552418009,NA,728.7718816733209,808.782228168495,965.4548453406918,1001.0448454932796,1001.0448454932796,0,0,0.5906354193886121,0.9281470579259536,1,NA,0.9856666564941405,1,0.9931923095996563,1,0.06666666666666667,1,1,1,1,1,NA,1,1,1,1,1,0.2344333330790202,0.3394444439146254,0.5906354193886121,0.9281470579259536,1,NA,0.9856666564941405,1,0.9931923095996563,1,0.9851333300272624,1,1,1,1,1,NA,0.9999999999999999,0.9999999999999999,1,1,1,2017-04-01T12:00:00Z,2017-04-16T12:00:00Z,2017-04-25T12:00:00Z,2017-06-12T12:00:00Z,2017-06-29T12:00:00Z,NA,2017-07-17T12:00:00Z,2017-07-23T12:00:00Z,2017-07-29T12:00:00Z,2017-08-11T12:00:00Z,2017-08-14T12:00:00Z,2017-04-15T12:00:00Z,2017-04-24T12:00:00Z,2017-06-11T12:00:00Z,2017-06-28T12:00:00Z,2017-07-16T12:00:00Z,NA,2017-07-22T12:00:00Z,2017-07-28T12:00:00Z,2017-08-10T12:00:00Z,2017-08-13T12:00:00Z,2017-08-28T12:00:00Z,91,106,115,163,180,NA,198,204,210,223,226,14,8,47,16,17,0,5,5,12,2,14,105,114,162,179,197,NA,203,209,222,225,240
214,ames_ia,42.0215,-93.7745,1.5,2017,7,2017,mid1,1285.176815701007,11,2017-04-01,2017-04-15,133,2017-08-26,2017-08-30,2017-09-13,Harvested at Maturity.,3.1693333435803654,1.21222217919098,3.050769235114925,2.3895454962145197,2.0857894919616613,0.01999999955296516,1.6328571353639876,0.24874999932944775,5.1584616372218495,0.5374999935738742,0.031333332508802415,3.1693333435803654,1.21222217919098,3.050769235114925,2.3895454962145197,2.0857894919616613,0.01999999955296516,1.6328571353639876,0.24874999932944775,5.1584616372218495,0.5374999935738742,0.031333332508802415,13.409333197275798,19.216666645473904,21.52076922930204,24.683636231855914,22.72736850537752,28.299999237060547,24.34285708836147,22.193750023841858,17.536923041710487,14.797500133514404,18.91866683959961,16.86533342997233,19.95777765909831,22.86711530502026,27.941363508051094,33.40052634791324,30.56999969482422,30.317142759050643,28.4375,28.486922777616062,26.84000015258789,27.98999989827474,11.439000036815802,13.257222202089098,16.885769188833926,21.998636332425203,26.93315782045063,25.434999465942383,23.53285707746233,21.71749997138977,22.468461476839504,21.422499895095825,20.622999922434488,6.012666643659274,6.556666745079888,10.90442307264759,16.055909156799316,20.465789292988024,20.299999237060547,16.748571395874023,14.997499942779541,16.45000017606295,16.00499963760376,13.255999946594239,3.059694243931584,4.089856551770038,5.83996891198947,8.463874615868162,11.398446652940127,13.147032917698606,11.731260179461215,11.235462512861991,12.486674164189145,11.422499895095827,9.874073913479647,3.059694243931584,4.089856551770038,5.83996891198947,8.463874615868162,11.398446652940127,13.147032917698606,11.731260179461215,11.235462512861991,12.486674164189145,11.422499895095827,9.874073913479647,0,0,303.67838342345254,489.8836249725522,706.4541113784146,719.6011442961133,801.7199655523416,891.6036656552376,1053.9304297896963,1099.6204293700798,1099.6204293700798,0,0,0.6221250025125651,0.9444772720336914,0.9954736809981497,1,1,0.9889375030994415,0.9851923062251164,0.9923749923706056,0.06666666666666667,1,1,1,1,1,1,1,1,1,1,1,0.2344333330790202,0.3394444439146254,0.6221250025125651,0.9444772720336914,0.9954736809981497,1,1,0.9889375030994415,0.9851923062251164,0.9923749923706056,0.9135666624704997,1,1,1,1,0.9976311528171365,1,0.974306684085533,1,0.9999999999999999,0.9999999999999999,1,2017-04-01T12:00:00Z,2017-04-16T12:00:00Z,2017-04-25T12:00:00Z,2017-06-16T12:00:00Z,2017-07-08T12:00:00Z,2017-07-27T12:00:00Z,2017-07-28T12:00:00Z,2017-08-04T12:00:00Z,2017-08-12T12:00:00Z,2017-08-25T12:00:00Z,2017-08-29T12:00:00Z,2017-04-15T12:00:00Z,2017-04-24T12:00:00Z,2017-06-15T12:00:00Z,2017-07-07T12:00:00Z,2017-07-26T12:00:00Z,2017-07-27T12:00:00Z,2017-08-03T12:00:00Z,2017-08-11T12:00:00Z,2017-08-24T12:00:00Z,2017-08-28T12:00:00Z,2017-09-12T12:00:00Z,91,106,115,167,189,208,209,216,224,237,241,14,8,51,21,18,0,6,7,12,3,14,105,114,166,188,207,208,215,223,236,240,255
215,ames_ia,42.0215,-93.7745,2.5,2017,7,2017,mid2,1315.0533785587493,11,2017-04-01,2017-04-15,145,2017-09-07,2017-09-12,2017-09-26,Harvested at Maturity.,3.1693333435803654,1.21222217919098,3.0085965018850147,2.196666684001684,1.734545473263345,0.5799999833106995,1.8662500269711018,4.801666796207428,1.6800000172806904,0.0759999979287386,3.332666600495577,3.1693333435803654,1.21222217919098,3.0085965018850147,2.196666684001684,1.734545473263345,0.5799999833106995,1.8662500269711018,4.801666796207428,1.6800000172806904,0.0759999979287386,3.332666600495577,13.409333197275798,19.216666645473904,21.688771917108905,24.747499863306682,22.84409098191695,16.360000610351563,21.68250000476837,17.15999984741211,17.321875154972076,19.75,15.638666725158691,16.86533342997233,19.95777765909831,23.31842097064905,29.24374993642171,32.013181773099035,26.479999542236328,29.077499866485596,29.69666639963786,27.0662499666214,27.793999862670898,30.431999715169272,11.439000036815802,13.257222202089098,17.315087657617894,23.186041673024494,25.449999917637218,21.079999923706055,22.538124918937683,23.300833304723106,20.975937455892563,19.774999809265136,23.75299997329712,6.012666643659274,6.556666745079888,11.31175434458674,17.128333409627277,18.886818062175404,15.68000030517578,15.99874997138977,16.90500020980835,14.885624945163727,11.755999755859374,17.074000231424968,3.059694243931584,4.089856551770038,5.259587028198261,7.850437799419108,10.302220835748432,9.56634778510978,11.369296346539418,13.009165251144369,11.11823027426079,10.611910242768527,12.077713372577032,3.059694243931584,4.089856551770038,5.259587028198261,7.850437799419108,10.302220835748432,9.56634778510978,11.369296346539418,13.009165251144369,11.11823027426079,10.611910242768527,12.077713372577032,0,0,299.79646060730084,488.2069677933594,714.8558261798247,724.4221739649345,815.3765447372499,893.431536244116,1071.323220632289,1124.3827718461312,1124.3827718461312,0,0,0.65437719570963,0.9512291649977366,0.9920681801709261,1,1,1,0.9549374938011169,0.840299997329712,0.06666666666666667,1,1,1,1,1,1,1,1,1,1,1,0.2344333330790202,0.3394444439146254,0.65437719570963,0.9512291649977366,0.9920681801709261,1,1,1,0.9549374938011169,0.840299997329712,0.9641333357493083,1,1,1,1,0.9600564577220387,1,0.7913119707465865,0.96655788577976,0.9999999999999999,0.9999999999999999,1,2017-04-01T12:00:00Z,2017-04-16T12:00:00Z,2017-04-25T12:00:00Z,2017-06-21T12:00:00Z,2017-07-15T12:00:00Z,2017-08-06T12:00:00Z,2017-08-07T12:00:00Z,2017-08-15T12:00:00Z,2017-08-21T12:00:00Z,2017-09-06T12:00:00Z,2017-09-11T12:00:00Z,2017-04-15T12:00:00Z,2017-04-24T12:00:00Z,2017-06-20T12:00:00Z,2017-07-14T12:00:00Z,2017-08-05T12:00:00Z,2017-08-06T12:00:00Z,2017-08-14T12:00:00Z,2017-08-20T12:00:00Z,2017-09-05T12:00:00Z,2017-09-10T12:00:00Z,2017-09-25T12:00:00Z,91,106,115,172,196,218,219,227,233,249,254,14,8,56,23,21,0,7,5,15,4,14,105,114,171,195,217,218,226,232,248,253,268
216,ames_ia,42.0215,-93.7745,-1.5,2018,7,2018,mid000,186.6081331257961,11,2018-04-18,2018-05-02,68,2018-07-09,2018-07-12,2018-07-26,Harvested at Maturity.,2.385999988143643,4.455999864637851,NA,2.199999972970949,3.2600000156089664,8.6899995803833,8.138333034391204,11.540000025182962,5.907500117396315,0,1.5199999849001566,2.385999988143643,4.455999864637851,NA,2.199999972970949,3.2600000156089664,8.6899995803833,8.138333034391204,11.540000025182962,5.907500117396315,0,1.5199999849001566,22.646000099182128,23.386000061035155,NA,19.12000009748671,24.50000011920929,15.029999732971191,23.323333422342937,16.337499976158142,23.93666664759318,27.84000015258789,23.48866672515869,17.73266666730245,24.915999984741212,NA,24.791666560702854,30.558125376701355,26.15999984741211,30.399999300638836,26.307499885559082,28.9375,30.203333536783855,29.70866673787435,10.663666673501332,17.94999990463257,NA,19.112222141689724,24.348750412464142,21.68000030517578,24.920833269755047,22.179999947547913,23.851666529973347,23.426666577657063,24.431333287556967,3.5946666797002154,10.983999824523925,NA,13.432777722676596,18.13937544822693,17.200000762939453,19.441667238871258,18.052500009536743,18.765833059946697,16.649999618530273,19.153999837239585,3.360024678633958,7.949999904632569,NA,9.044963832985356,12.517952483850536,10.8068424698332,13.019666783856605,11.045563565628186,12.636499868172368,12.488567980254503,13.14695162959973,3.360024678633958,7.949999904632569,NA,9.044963832985356,12.517952483850536,10.8068424698332,13.019666783856605,11.045563565628186,12.636499868172368,12.488567980254503,13.14695162959973,0,0,NA,162.8093489937364,363.0965887353449,373.9034312051781,452.02143190831777,540.3859404333433,692.0239388514118,729.4896427921753,729.4896427921753,0,0,NA,0.8228888856040107,0.9955000013113022,1,1,0.9925000071525574,1,1,0.06666666666666667,1,1,NA,1,1,1,1,1,1,1,1,0.22553333600362144,0.7949999904632569,NA,0.8228888856040107,0.9955000013113022,1,1,0.9925000071525574,1,1,1,1,1,NA,1,0.9999999999999999,1,1,1,1,1,1,2018-04-18T12:00:00Z,2018-05-03T12:00:00Z,NA,2018-05-08T12:00:00Z,2018-05-26T12:00:00Z,2018-06-11T12:00:00Z,2018-06-12T12:00:00Z,2018-06-18T12:00:00Z,2018-06-26T12:00:00Z,2018-07-08T12:00:00Z,2018-07-11T12:00:00Z,2018-05-02T12:00:00Z,2018-05-07T12:00:00Z,NA,2018-05-25T12:00:00Z,2018-06-10T12:00:00Z,2018-06-11T12:00:00Z,2018-06-17T12:00:00Z,2018-06-25T12:00:00Z,2018-07-07T12:00:00Z,2018-07-10T12:00:00Z,2018-07-25T12:00:00Z,108,123,NA,128,146,162,163,169,177,189,192,14,4,0,17,15,0,5,7,11,2,14,122,127,NA,145,161,162,168,176,188,191,206
217,ames_ia,42.0215,-93.7745,-0.5,2018,7,2018,mid00,762.95382484036,11,2018-04-18,2018-05-02,94,2018-08-04,2018-08-07,2018-08-21,Harvested at Maturity.,2.385999988143643,4.455999864637851,2.3323333326727154,9.030769055565962,6.951111192090644,0,1.5966666555032134,1.4149999851360917,0.5892307685258297,8.186666568120321,5.554666594415903,2.385999988143643,4.455999864637851,2.3323333326727154,9.030769055565962,6.951111192090644,0,1.5966666555032134,1.4149999851360917,0.5892307685258297,8.186666568120321,5.554666594415903,22.646000099182128,23.386000061035155,21.918000094095866,20.42076932466947,21.44777774810791,30.190000534057617,22.711666742960613,22.845000108083088,24.529230704674355,14.823333422342936,19.02066685358683,17.73266666730245,24.915999984741212,27.280000114440917,29.60538438650278,27.676666577657063,28.030000686645508,31.74833329518636,29.023333231608074,27.928461514986477,32.983333587646484,29.612666829427084,10.663666673501332,17.94999990463257,21.1770001411438,24.730769304128792,22.869722101423477,21.11500024795532,25.773333152135212,24.27749999364217,22.011922946343056,26.270000139872234,24.03833351135254,3.5946666797002154,10.983999824523925,15.07400016784668,19.856154221754807,18.062777625189888,14.199999809265137,19.798333009084065,19.53166675567627,16.09538437769963,19.55666669209798,18.464000193277997,3.360024678633958,7.949999904632569,9.866779208497313,12.384724285303031,11.099882256459818,9.9392552295586,13.520629641214748,13.271576104750729,11.749205970114344,14.507271796635786,12.79719569111506,3.360024678633958,7.949999904632569,9.866779208497313,12.384724285303031,11.099882256459818,9.9392552295586,13.520629641214748,13.271576104750729,11.749205970114344,14.507271796635786,12.79719569111506,0,0,296.00337625491943,457.0047919638588,656.8026725801353,666.741927809694,747.8657056569823,827.4951622854867,980.2348398969732,1023.7566552868808,1023.7566552868808,0,0,0.8913333320617676,1,0.996666669845581,1,1,1,0.9914230750157282,1,0.06666666666666667,1,1,1,1,1,1,1,1,1,1,1,0.22553333600362144,0.7949999904632569,0.8913333320617676,1,0.996666669845581,1,1,1,0.9914230750157282,1,1,1,1,1,1,1,1,1,1,0.9999999999999999,0.9999999999999999,1,2018-04-18T12:00:00Z,2018-05-03T12:00:00Z,2018-05-08T12:00:00Z,2018-06-07T12:00:00Z,2018-06-20T12:00:00Z,2018-07-08T12:00:00Z,2018-07-09T12:00:00Z,2018-07-15T12:00:00Z,2018-07-21T12:00:00Z,2018-08-03T12:00:00Z,2018-08-06T12:00:00Z,2018-05-02T12:00:00Z,2018-05-07T12:00:00Z,2018-06-06T12:00:00Z,2018-06-19T12:00:00Z,2018-07-07T12:00:00Z,2018-07-08T12:00:00Z,2018-07-14T12:00:00Z,2018-07-20T12:00:00Z,2018-08-02T12:00:00Z,2018-08-05T12:00:00Z,2018-08-20T12:00:00Z,108,123,128,158,171,189,190,196,202,215,218,14,4,29,12,17,0,5,5,12,2,14,122,127,157,170,188,189,195,201,214,217,232
218,ames_ia,42.0215,-93.7745,0.5,2018,7,2018,mid0,857.8821849565429,11,2018-04-18,2018-05-02,97,2018-08-07,2018-08-10,2018-08-24,Harvested at Maturity.,2.385999988143643,4.455999864637851,2.5416128927421187,8.84999985570709,5.608333424975474,0,1.6516666536529858,1.1871428468397685,2.6724999741030238,7.989999948690335,4.039999939997991,2.385999988143643,4.455999864637851,2.5416128927421187,8.84999985570709,5.608333424975474,0,1.6516666536529858,1.1871428468397685,2.6724999741030238,7.989999948690335,4.039999939997991,22.646000099182128,23.386000061035155,21.822258180187596,19.052666664123535,23.90611113442315,26.049999237060547,22.93333371480306,23.499999863760813,21.267500003178913,22.013333638509113,18.29800011316935,17.73266666730245,24.915999984741212,27.314193664058564,28.74199981689453,28.566111034817165,32.13999938964844,30.573333422342937,28.64857155936105,28.9958332379659,28.503333409627277,28.838000106811524,10.663666673501332,17.94999990463257,21.274516259470293,23.899666786193848,23.374444272783066,25.929999351501465,25.61916669209798,23.28142847333636,22.79083327452342,23.49500020345052,23.085666783650716,3.5946666797002154,10.983999824523925,15.234838854882025,19.057333755493165,18.18277751074897,19.719999313354492,20.664999961853027,17.91428538731166,16.585833311080933,18.486666997273762,17.333333460489907,3.360024678633958,7.949999904632569,9.301185505292166,10.751875814529397,10.669739548613377,12.497249556031798,12.882324133216263,11.804438141740764,11.78132726054829,13.472145203709346,11.824886679401397,3.360024678633958,7.949999904632569,9.301185505292166,10.751875814529397,10.669739548613377,12.497249556031798,12.882324133216263,11.804438141740764,11.78132726054829,13.472145203709346,11.824886679401397,0,0,288.3367506640571,449.6148878819981,641.670199757039,654.1674493130707,731.4613941123683,814.0924611045539,955.4683882311334,995.8848238422614,995.8848238422614,0,0,0.8948387084468719,0.9960000038146973,1,1,1,1,0.9907083312670389,1,0.06666666666666667,1,1,1,1,1,1,1,1,1,1,1,0.22553333600362144,0.7949999904632569,0.8948387084468719,0.9960000038146973,1,1,1,1,0.9907083312670389,1,0.9746333312988281,1,1,1,0.9999999999999999,0.9999999999999999,1,0.9999999999999999,1,1,0.9999999999999998,1,2018-04-18T12:00:00Z,2018-05-03T12:00:00Z,2018-05-08T12:00:00Z,2018-06-08T12:00:00Z,2018-06-23T12:00:00Z,2018-07-11T12:00:00Z,2018-07-12T12:00:00Z,2018-07-18T12:00:00Z,2018-07-25T12:00:00Z,2018-08-06T12:00:00Z,2018-08-09T12:00:00Z,2018-05-02T12:00:00Z,2018-05-07T12:00:00Z,2018-06-07T12:00:00Z,2018-06-22T12:00:00Z,2018-07-10T12:00:00Z,2018-07-11T12:00:00Z,2018-07-17T12:00:00Z,2018-07-24T12:00:00Z,2018-08-05T12:00:00Z,2018-08-08T12:00:00Z,2018-08-23T12:00:00Z,108,123,128,159,174,192,193,199,206,218,221,14,4,30,14,17,0,5,6,11,2,14,122,127,158,173,191,192,198,205,217,220,235
219,ames_ia,42.0215,-93.7745,1.5,2018,7,2018,mid1,1215.582366594056,11,2018-04-18,2018-05-02,110,2018-08-20,2018-08-25,2018-09-08,Harvested at Maturity.,2.385999988143643,4.455999864637851,2.869999981245824,9.739999988954514,1.7654999940656126,0,0.6833333267519871,6.129999965429306,2.6116666542366147,8.503999811410903,9.844666615749398,2.385999988143643,4.455999864637851,2.869999981245824,9.739999988954514,1.7654999940656126,0,0.6833333267519871,6.129999965429306,2.6116666542366147,8.503999811410903,9.844666615749398,22.646000099182128,23.386000061035155,21.46257152557373,19.978499937057496,24.421500158309936,26.56999969482422,24.228888829549152,18.574999968210857,20.605833609898884,14.783999919891357,13.650000031789144,17.73266666730245,24.915999984741212,27.466857256208147,28.405499744415284,29.614000034332275,27.969999313354492,27.633333418104385,30.856666564941406,30.1866668065389,25.686000061035156,26.626666641235353,10.663666673501332,17.94999990463257,21.579428727286203,23.660249948501587,24.201249885559083,22.464999198913578,21.814444435967342,24.62666662534078,24.33291681607564,20.11200008392334,22.19700002670288,3.5946666797002154,10.983999824523925,15.692000198364259,18.91500015258789,18.788499736785887,16.959999084472656,15.995555453830296,18.396666685740154,18.479166825612385,14.538000106811523,17.76733341217041,3.360024678633958,7.949999904632569,8.626946161852173,9.345201480376508,10.637950211375326,10.238205343097606,10.161004187136085,12.627399242464843,13.764924079883576,10.336601499373913,11.2505718329374,3.360024678633958,7.949999904632569,8.626946161852173,9.345201480376508,10.637950211375326,10.238205343097606,10.161004187136085,12.627399242464843,13.764924079883576,10.336601499373913,11.2505718329374,0,0,301.943115664826,488.8471452723561,701.6061494998626,711.8443548429602,803.293392527185,879.057787981974,1044.2368769405766,1095.9198844374462,1095.9198844374462,0,0,0.9068571417672293,0.997000002861023,1,1,0.9876111083560519,1,1,0.9238999938964844,0.06666666666666667,1,1,1,1,1,1,1,1,1,1,1,0.22553333600362144,0.7949999904632569,0.9068571417672293,0.997000002861023,1,1,0.9876111083560519,1,1,0.9238999938964844,0.9408333365122478,1,1,1,1,1,1,0.9999999999999999,0.9999999999999999,0.9999999999999999,0.9999999999999999,1,2018-04-18T12:00:00Z,2018-05-03T12:00:00Z,2018-05-08T12:00:00Z,2018-06-12T12:00:00Z,2018-07-02T12:00:00Z,2018-07-22T12:00:00Z,2018-07-23T12:00:00Z,2018-08-01T12:00:00Z,2018-08-07T12:00:00Z,2018-08-19T12:00:00Z,2018-08-24T12:00:00Z,2018-05-02T12:00:00Z,2018-05-07T12:00:00Z,2018-06-11T12:00:00Z,2018-07-01T12:00:00Z,2018-07-21T12:00:00Z,2018-07-22T12:00:00Z,2018-07-31T12:00:00Z,2018-08-06T12:00:00Z,2018-08-18T12:00:00Z,2018-08-23T12:00:00Z,2018-09-07T12:00:00Z,108,123,128,163,183,203,204,213,219,231,236,14,4,34,19,19,0,8,5,11,4,14,122,127,162,182,202,203,212,218,230,235,250
220,ames_ia,42.0215,-93.7745,2.5,2018,7,2018,mid2,1386.873390031044,11,2018-04-18,2018-05-02,122,2018-09-01,2018-09-05,2018-09-19,Harvested at Maturity.,2.385999988143643,4.455999864637851,3.802051219229515,6.842083400425811,1.0720833264446508,0,6.9328570786331385,2.7800000111262,5.387857130196478,19.13249981403351,3.2746665867666405,2.385999988143643,4.455999864637851,3.802051219229515,6.842083400425811,1.0720833264446508,0,6.9328570786331385,2.7800000111262,5.387857130196478,19.13249981403351,3.2746665867666405,22.646000099182128,23.386000061035155,21.620256497309757,21.867083350817364,23.478333353996277,25.280000686645508,19.44142872946603,18.101666927337646,15.752142906188965,11.024999856948853,17.221333058675132,17.73266666730245,24.915999984741212,27.65384620275253,28.4333332379659,29.011666615804035,34.9900016784668,30.248571395874023,30.291666984558105,27.694285665239608,26.714999675750732,25.89533322652181,10.663666673501332,17.94999990463257,21.784871932787773,23.46833324432373,23.466249883174896,25.65000057220459,24.73357159750802,24.71750020980835,21.953928538731166,23.75125002861023,20.72000001271566,3.5946666797002154,10.983999824523925,15.915897662823017,18.50333325068156,17.920833150545757,16.309999465942383,19.21857179914202,19.143333435058594,16.213571412222727,20.787500381469727,15.544666798909505,3.360024678633958,7.949999904632569,7.548092530755154,7.965387426403098,9.587831690452573,10.388664047924465,12.434789155641694,13.383278864763852,11.99850826747032,13.75125002861023,9.718354347891808,3.360024678633958,7.949999904632569,7.548092530755154,7.965387426403098,9.587831690452573,10.388664047924465,12.434789155641694,13.383278864763852,11.99850826747032,13.75125002861023,9.718354347891808,0,0,294.37560869945094,485.54490693312533,715.652867503987,726.0415315519114,813.0850556414032,893.3847288299863,1061.3638445745707,1116.3688446890117,1116.3688446890117,0,0,0.916410255432129,0.9975000023841858,0.9953541656335195,1,1,1,0.9503928593226841,1,0.06666666666666667,1,1,1,1,1,1,1,1,1,1,1,0.22553333600362144,0.7949999904632569,0.916410255432129,0.9975000023841858,0.9953541656335195,1,1,1,0.9503928593226841,1,0.8836333338419596,1,1,1,1,1,1,0.9999999999999999,1,0.9999999999999999,1,1,2018-04-18T12:00:00Z,2018-05-03T12:00:00Z,2018-05-08T12:00:00Z,2018-06-16T12:00:00Z,2018-07-10T12:00:00Z,2018-08-03T12:00:00Z,2018-08-04T12:00:00Z,2018-08-11T12:00:00Z,2018-08-17T12:00:00Z,2018-08-31T12:00:00Z,2018-09-04T12:00:00Z,2018-05-02T12:00:00Z,2018-05-07T12:00:00Z,2018-06-15T12:00:00Z,2018-07-09T12:00:00Z,2018-08-02T12:00:00Z,2018-08-03T12:00:00Z,2018-08-10T12:00:00Z,2018-08-16T12:00:00Z,2018-08-30T12:00:00Z,2018-09-03T12:00:00Z,2018-09-18T12:00:00Z,108,123,128,167,191,215,216,223,229,243,247,14,4,38,23,23,0,6,5,13,3,14,122,127,166,190,214,215,222,228,242,246,261
221,ames_ia,42.0215,-93.7745,-1.5,2019,7,2019,mid000,166.27518432640545,11,2019-04-24,2019-05-08,78,2019-07-25,2019-07-28,2019-08-11,Harvested at Maturity.,3.7340001290043197,4.118888849185573,NA,5.918095326228511,4.373636341907761,NA,4.986666667585571,0.3699999852105975,2.810833280906081,0.5766666556398073,1.1453333420058092,3.7340001290043197,4.118888849185573,NA,5.918095326228511,4.373636341907761,NA,4.986666667585571,0.3699999852105975,2.810833280906081,0.5766666556398073,1.1453333420058092,15.456666787465414,18.878888765970867,NA,20.780952317374094,19.372727285731923,NA,22.024999618530273,25.22999986012777,22.13666645685832,22.65999952952067,23.56999994913737,16.762000147501627,18.922222243414986,NA,23.230952399117605,24.930909156799316,NA,29.413333574930828,27.341666221618652,28.807500044504803,26.99333381652832,27.51733334859212,10.804666718840599,13.317222290568882,NA,17.67261905329568,20.2431819005446,NA,25.841666857401528,22.99749994277954,24.262916644414265,22.111666997273762,22.549666595458984,4.847333290179571,7.712222337722778,NA,12.114285707473755,15.555454644289885,NA,22.270000139872234,18.65333366394043,19.71833324432373,17.230000178019207,17.581999842325846,2.58183330392763,4.434473386243482,NA,7.563815223160418,9.449361916956683,NA,14.725593833407348,12.291875375903013,13.665481282082771,12.111666997273764,11.543666585286458,2.58183330392763,4.434473386243482,NA,7.563815223160418,9.449361916956683,NA,14.725593833407348,12.291875375903013,13.665481282082771,12.111666997273764,11.543666585286458,0,0,NA,158.84011968636878,366.7260818594158,NA,455.07964485986,528.8308971152782,692.8166725002715,729.1516734920928,729.1516734920928,0,0,NA,0.7138571421305339,0.9002045414664529,NA,1,1,0.9901666641235352,1,0.06666666666666667,1,1,NA,1,1,NA,1,1,1,1,1,0.1659333380063375,0.34916666348775227,NA,0.7138571421305339,0.9002045414664529,NA,1,1,0.9901666641235352,1,0.9926999982198079,1,1,NA,1,1,NA,0.9999999999999999,0.9999999999999999,1,0.9999999999999999,1,2019-04-24T12:00:00Z,2019-05-09T12:00:00Z,NA,2019-05-18T12:00:00Z,2019-06-08T12:00:00Z,NA,2019-06-30T12:00:00Z,2019-07-06T12:00:00Z,2019-07-12T12:00:00Z,2019-07-24T12:00:00Z,2019-07-27T12:00:00Z,2019-05-08T12:00:00Z,2019-05-17T12:00:00Z,NA,2019-06-07T12:00:00Z,2019-06-29T12:00:00Z,NA,2019-07-05T12:00:00Z,2019-07-11T12:00:00Z,2019-07-23T12:00:00Z,2019-07-26T12:00:00Z,2019-08-10T12:00:00Z,114,129,NA,138,159,NA,181,187,193,205,208,14,8,0,20,21,0,5,5,11,2,14,128,137,NA,158,180,NA,186,192,204,207,222
222,ames_ia,42.0215,-93.7745,-0.5,2019,7,2019,mid00,772.1883495708734,11,2019-04-24,2019-05-08,104,2019-08-20,2019-08-24,2019-09-07,Harvested at Maturity.,3.7340001290043197,4.118888849185573,5.524871828512121,2.9158333387846747,2.2443749551894143,0.12999999523162842,1.5100000170724732,1.1733333275963862,2.9908333119625845,8.907500237226486,0.3466666723291079,3.7340001290043197,4.118888849185573,5.524871828512121,2.9158333387846747,2.2443749551894143,0.12999999523162842,1.5100000170724732,1.1733333275963862,2.9908333119625845,8.907500237226486,0.3466666723291079,15.456666787465414,18.878888765970867,20.14333332501925,21.778333107630413,22.802499771118164,27.829999923706055,21.875714029584614,24.141666730244953,18.860833326975506,19.94000005722046,18.62799987792969,16.762000147501627,18.922222243414986,23.57487179682805,29.007500171661377,28.43999993801117,26.700000762939453,27.00999995640346,27.89999993642171,26.915833473205566,25.94000005722046,25.5326665242513,10.804666718840599,13.317222290568882,18.36525642260527,25.124166886011757,23.93312495946884,21.725000381469727,22.284999983651296,23.071666558583576,22.232499877611794,21.102500081062317,19.94199997584025,4.847333290179571,7.712222337722778,13.15564104838249,21.24083360036214,19.426249980926514,16.75,17.560000010899135,18.24333318074544,17.549166282018025,16.265000104904175,14.351333427429198,2.58183330392763,4.434473386243482,7.548502395536651,13.234188521026518,12.671724428737402,11.264571081140902,12.099407539496754,13.071666558583576,12.234967696419359,11.170186070859431,9.294999980926514,2.58183330392763,4.434473386243482,7.548502395536651,13.234188521026518,12.671724428737402,11.264571081140902,12.099407539496754,13.071666558583576,12.234967696419359,11.170186070859431,9.294999980926514,0,0,294.39159342592944,453.2018556782477,655.949446538046,667.214017619187,751.9098703956643,830.3398697471657,977.159482104198,1021.8402263876358,1021.8402263876358,0,0,0.789628202487261,1,0.9926249980926514,1,0.9843571390424456,1,1,0.959125018119812,0.0646999994913737,1,1,1,1,1,1,1,1,1,1,1,0.1659333380063375,0.34916666348775227,0.789628202487261,1,0.9926249980926514,1,0.9843571390424456,1,1,0.959125018119812,0.9283666706085205,1,1,1,0.9999999999999999,1,1,0.9999999999999999,1,1,1,1,2019-04-24T12:00:00Z,2019-05-09T12:00:00Z,2019-05-18T12:00:00Z,2019-06-26T12:00:00Z,2019-07-08T12:00:00Z,2019-07-24T12:00:00Z,2019-07-25T12:00:00Z,2019-08-01T12:00:00Z,2019-08-07T12:00:00Z,2019-08-19T12:00:00Z,2019-08-23T12:00:00Z,2019-05-08T12:00:00Z,2019-05-17T12:00:00Z,2019-06-25T12:00:00Z,2019-07-07T12:00:00Z,2019-07-23T12:00:00Z,2019-07-24T12:00:00Z,2019-07-31T12:00:00Z,2019-08-06T12:00:00Z,2019-08-18T12:00:00Z,2019-08-22T12:00:00Z,2019-09-06T12:00:00Z,114,129,138,177,189,205,206,213,219,231,235,14,8,38,11,15,0,6,5,11,3,14,128,137,176,188,204,205,212,218,230,234,249
223,ames_ia,42.0215,-93.7745,0.5,2019,7,2019,mid0,836.5702063971075,11,2019-04-24,2019-05-08,108,2019-08-24,2019-08-27,2019-09-10,Harvested at Maturity.,3.7340001290043197,4.118888849185573,5.400250033335761,2.8115384583003245,2.0905881962355446,0.38999998569488525,1.248571451753378,1.2199999938408534,5.467692361141626,0.11666666716337204,1.77200003862381,3.7340001290043197,4.118888849185573,5.400250033335761,2.8115384583003245,2.0905881962355446,0.38999998569488525,1.248571451753378,1.2199999938408534,5.467692361141626,0.11666666716337204,1.77200003862381,15.456666787465414,18.878888765970867,20.13974999189377,22.246153538043682,22.644705660202924,24.969999313354492,23.025714329310826,24.96999994913737,17.534615443303036,19.703332901000977,16.219333267211915,16.762000147501627,18.922222243414986,23.673250007629395,28.996923153217022,28.214117723352768,29.3700008392334,26.694285256522043,27.888333638509113,26.56769238985502,23.679999669392902,25.857999928792317,10.804666718840599,13.317222290568882,18.487750020623206,24.980769377488357,23.69058827792897,25.09000015258789,21.845714024135045,22.765000025431313,22.03192300062913,19.231666564941406,20.19566666285197,4.847333290179571,7.712222337722778,13.30225003361702,20.96461560175969,19.16705883250517,20.809999465942383,16.997142791748047,17.641666412353516,17.496153611403244,14.783333460489908,14.53333339691162,2.58183330392763,4.434473386243482,7.063727381682134,12.137473697076402,11.792078417795626,13.962365136041353,11.31524641311525,12.68381736164425,12.052749459028243,9.244363583199181,9.515333366394044,2.58183330392763,4.434473386243482,7.063727381682134,12.137473697076402,11.792078417795626,13.962365136041353,11.31524641311525,12.68381736164425,12.052749459028243,9.244363583199181,9.515333366394044,0,0,282.5490952672853,440.3362533292785,640.8015864318043,654.7639515678457,733.9706764596523,810.0735806295177,966.7593235968848,994.4924143464824,994.4924143464824,0,0,0.7948874974250794,1,0.9930588217342601,1,0.9843571390424456,1,0.9874230824984037,0.9231666564941408,0.06666666666666667,1,1,1,1,1,1,1,1,1,1,1,0.1659333380063375,0.34916666348775227,0.7948874974250794,1,0.9930588217342601,1,0.9843571390424456,1,0.9874230824984037,0.9231666564941408,0.9352666695912679,1,1,1,1,1,1,0.9999999999999999,1,1,0.9999999999999999,1,2019-04-24T12:00:00Z,2019-05-09T12:00:00Z,2019-05-18T12:00:00Z,2019-06-27T12:00:00Z,2019-07-10T12:00:00Z,2019-07-27T12:00:00Z,2019-07-28T12:00:00Z,2019-08-04T12:00:00Z,2019-08-10T12:00:00Z,2019-08-23T12:00:00Z,2019-08-26T12:00:00Z,2019-05-08T12:00:00Z,2019-05-17T12:00:00Z,2019-06-26T12:00:00Z,2019-07-09T12:00:00Z,2019-07-26T12:00:00Z,2019-07-27T12:00:00Z,2019-08-03T12:00:00Z,2019-08-09T12:00:00Z,2019-08-22T12:00:00Z,2019-08-25T12:00:00Z,2019-09-09T12:00:00Z,114,129,138,178,191,208,209,216,222,235,238,14,8,39,12,16,0,6,5,12,2,14,128,137,177,190,207,208,215,221,234,237,252
224,ames_ia,42.0215,-93.7745,1.5,2019,7,2019,mid1,1109.2218723340334,11,2019-04-24,2019-05-08,123,2019-09-08,2019-09-12,2019-09-26,Harvested at Maturity.,3.7340001290043197,4.118888849185573,5.013409122189676,2.679411757737398,1.89849997414276,0,1.7485714512211936,8.468571504844087,0.3250000053085387,8.937500238418579,4.921999981378516,3.7340001290043197,4.118888849185573,5.013409122189676,2.679411757737398,1.89849997414276,0,1.7485714512211936,8.468571504844087,0.3250000053085387,8.937500238418579,4.921999981378516,15.456666787465414,18.878888765970867,20.15863632072102,22.711764503927792,23.224999856948852,26.149999618530273,17.96285711015974,18.505714416503906,19.00499987602234,9.369999885559082,12.694666767120362,16.762000147501627,18.922222243414986,24.25068187713623,28.458823372335996,27.744500064849852,29.329999923706055,26.96714292253767,26.245714460100448,25.494999885559082,25.65250015258789,27.13133341471354,10.804666718840599,13.317222290568882,19.181136426600542,24.282647020676556,23.00199999809265,23.519999504089355,22.318571295057023,21.77714286531721,19.88374999165535,21.396250009536743,22.221333344777424,4.847333290179571,7.712222337722778,14.111590976064855,20.106470669017117,18.259499931335448,17.709999084472656,17.66999966757638,17.30857127053397,14.272500097751617,17.139999866485596,17.31133327484131,2.58183330392763,4.434473386243482,6.777986361395106,10.711971753174087,11.07565283611863,12.81500588505692,12.111193447499431,11.777142865317208,10.045167048446462,11.417988900840284,11.214610251225631,2.58183330392763,4.434473386243482,6.777986361395106,10.711971753174087,11.07565283611863,12.81500588505692,12.111193447499431,11.777142865317208,10.045167048446462,11.417988900840284,11.214610251225631,0,0,298.23139990138463,480.33491970534413,701.8479764277166,714.6629823127736,799.4413364452696,881.8813365024901,1042.6040092776334,1088.2759648809945,1088.2759648809945,0,0,0.8135340885682539,1,0.988624997138977,1,1,0.9907857213701521,0.9266562551259995,0.9682499885559082,0.06666666666666667,1,1,1,1,1,1,1,1,1,1,1,0.1659333380063375,0.34916666348775227,0.8135340885682539,1,0.988624997138977,1,1,0.9907857213701521,0.9266562551259995,0.9682499885559082,0.9382333342234294,1,1,1,0.9999999999999999,1,1,1,1,0.9999999999999999,1,1,2019-04-24T12:00:00Z,2019-05-09T12:00:00Z,2019-05-18T12:00:00Z,2019-07-01T12:00:00Z,2019-07-18T12:00:00Z,2019-08-07T12:00:00Z,2019-08-08T12:00:00Z,2019-08-15T12:00:00Z,2019-08-22T12:00:00Z,2019-09-07T12:00:00Z,2019-09-11T12:00:00Z,2019-05-08T12:00:00Z,2019-05-17T12:00:00Z,2019-06-30T12:00:00Z,2019-07-17T12:00:00Z,2019-08-06T12:00:00Z,2019-08-07T12:00:00Z,2019-08-14T12:00:00Z,2019-08-21T12:00:00Z,2019-09-06T12:00:00Z,2019-09-10T12:00:00Z,2019-09-25T12:00:00Z,114,129,138,182,199,219,220,227,234,250,254,14,8,43,16,19,0,6,6,15,3,14,128,137,181,198,218,219,226,233,249,253,268
225,ames_ia,42.0215,-93.7745,2.5,2019,7,2019,mid2,1383.6084678841944,11,2019-04-24,2019-05-08,133,2019-09-18,2019-09-22,2019-10-06,Harvested at Maturity.,3.7340001290043197,4.118888849185573,5.205000029061921,1.8185713920032693,1.3514285843287195,0.15000000596046448,7.388750066049397,0.5511111203167174,4.128571487564061,4.392499987967312,7.974000061179201,3.7340001290043197,4.118888849185573,5.205000029061921,1.8185713920032693,1.3514285843287195,0.15000000596046448,7.388750066049397,0.5511111203167174,4.128571487564061,4.392499987967312,7.974000061179201,15.456666787465414,18.878888765970867,20.226249943176906,22.960952168419247,21.604285648890905,21.700000762939453,20.15749979019165,17.00111124250624,13.997142791748047,14.197499990463257,10.097999874750773,16.762000147501627,18.922222243414986,24.66979173819224,28.124285652523948,27.35952377319336,24.84000015258789,25.87250018119812,24.995555453830296,26.842857088361466,29.730000019073486,22.234666760762533,10.804666718840599,13.317222290568882,19.71500006566445,23.664523805890763,22.584285577138264,21.78499984741211,20.926875114440918,19.723888927035862,21.545714139938354,25.367500066757202,17.09700005054474,4.847333290179571,7.712222337722778,14.76020839313666,19.20476195925758,17.80904738108317,18.729999542236328,15.981250047683716,14.452222400241428,16.248571191515243,21.005000114440918,11.959333340326944,2.58183330392763,4.434473386243482,6.09202996712982,9.188348071636298,10.751427644934267,11.428153892489682,10.925148844261331,9.883081095208063,11.642071878573299,15.347288341960311,6.469831118366818,2.58183330392763,4.434473386243482,6.09202996712982,9.188348071636298,10.751427644934267,11.428153892489682,10.925148844261331,9.883081095208063,11.642071878573299,15.347288341960311,6.469831118366818,0,0,292.4174384222313,485.3727479265937,711.1527284702134,722.5808823627032,809.9820731167938,898.9298029736664,1061.918809273693,1123.307962641534,1123.307962641534,0,0,0.8290729145208995,0.9943809509277344,0.9947857130141485,1,0.9636875092983246,0.9199444505903456,0.9583928516932896,1,0.06666666666666667,1,1,1,1,1,1,1,1,1,1,1,0.1659333380063375,0.34916666348775227,0.8290729145208995,0.9943809509277344,0.9947857130141485,1,0.9636875092983246,0.9199444505903456,0.9583928516932896,1,0.6451000006993611,1,1,1,0.9999999999999999,0.9999999999999999,1,1,1,0.9999999999999999,1,1,2019-04-24T12:00:00Z,2019-05-09T12:00:00Z,2019-05-18T12:00:00Z,2019-07-05T12:00:00Z,2019-07-26T12:00:00Z,2019-08-16T12:00:00Z,2019-08-17T12:00:00Z,2019-08-25T12:00:00Z,2019-09-03T12:00:00Z,2019-09-17T12:00:00Z,2019-09-21T12:00:00Z,2019-05-08T12:00:00Z,2019-05-17T12:00:00Z,2019-07-04T12:00:00Z,2019-07-25T12:00:00Z,2019-08-15T12:00:00Z,2019-08-16T12:00:00Z,2019-08-24T12:00:00Z,2019-09-02T12:00:00Z,2019-09-16T12:00:00Z,2019-09-20T12:00:00Z,2019-10-05T12:00:00Z,114,129,138,186,207,228,229,237,246,260,264,14,8,47,20,20,0,7,8,13,3,14,128,137,185,206,227,228,236,245,259,263,278
226,ames_ia,42.0215,-93.7745,-1.5,2020,7,2020,mid000,195.7543578536218,11,2020-05-02,2020-05-16,66,2020-07-21,2020-07-25,2020-08-08,Harvested at Maturity.,2.9006666513780752,2.828571382910013,NA,4.252666715532541,4.267894794870364,2.1500000953674316,0.4266666683057944,0.00999999977648258,2.3672726557336072,1.4825000390410423,1.2406666615357003,2.9006666513780752,2.828571382910013,NA,4.252666715532541,4.267894794870364,2.1500000953674316,0.4266666683057944,0.00999999977648258,2.3672726557336072,1.4825000390410423,1.2406666615357003,19.370000139872232,11.471428734915596,NA,23.515333302815755,23.40947356976961,25.770000457763672,21.911666870117188,26.533999633789062,23.331818147139117,20.759999990463257,22.6439998626709,17.19266675313314,19.988571439470565,NA,27.07400016784668,26.775263033415143,29.360000610351563,28.799999872843426,31.938000106811522,30.46727249839089,28.412500381469727,29.572000376383464,11.482666716972986,15.704999991825648,NA,21.562333329518637,21.419210459056654,24.585000038146973,25.015833377838135,26.87800006866455,24.72181801362471,22.977500200271606,23.756000328063966,5.7726666808128355,11.421428544180733,NA,16.050666491190594,16.063157884698164,19.809999465942383,21.231666882832844,21.818000030517577,18.97636352885853,17.542500019073486,17.940000279744467,3.0474018811246757,5.709767755358559,NA,10.839694026508738,10.497224758902439,13.492423185230477,13.96530884134355,14.867991613346817,13.708826256632722,12.900117726927515,12.117020017762185,3.0474018811246757,5.709767755358559,NA,10.839694026508738,10.497224758902439,13.492423185230477,13.96530884134355,14.867991613346817,13.708826256632722,12.900117726927515,12.117020017762185,0,0,NA,162.59541039763107,362.0426808167775,375.5351040020079,459.32695705006927,533.6669151168034,684.4640039397632,736.0644748474733,736.0644748474733,0,0,NA,0.9167000071207683,0.9642894644486276,1,1,1,1,1,0.06666666666666667,1,1,NA,1,1,1,1,1,1,1,1,0.2272000026702881,0.5704999991825649,NA,0.9167000071207683,0.9642894644486276,1,1,1,1,1,0.9820333321889242,1,1,NA,1,1,1,1,1,1,1,1,2020-05-02T12:00:00Z,2020-05-17T12:00:00Z,NA,2020-05-24T12:00:00Z,2020-06-08T12:00:00Z,2020-06-27T12:00:00Z,2020-06-28T12:00:00Z,2020-07-04T12:00:00Z,2020-07-09T12:00:00Z,2020-07-20T12:00:00Z,2020-07-24T12:00:00Z,2020-05-16T12:00:00Z,2020-05-23T12:00:00Z,NA,2020-06-07T12:00:00Z,2020-06-26T12:00:00Z,2020-06-27T12:00:00Z,2020-07-03T12:00:00Z,2020-07-08T12:00:00Z,2020-07-19T12:00:00Z,2020-07-23T12:00:00Z,2020-08-07T12:00:00Z,123,138,NA,145,160,179,180,186,191,202,206,14,6,0,14,18,0,5,4,10,3,14,137,144,NA,159,178,179,185,190,201,205,220
227,ames_ia,42.0215,-93.7745,-0.5,2020,7,2020,mid00,737.405385696421,11,2020-05-02,2020-05-16,91,2020-08-15,2020-08-18,2020-09-01,Harvested at Maturity.,2.9006666513780752,2.828571382910013,3.9496552232524444,2.505714318981128,1.7913332810004552,4.840000152587891,1.6040000040084124,0.7816666442280015,2.328333378614237,1.819999939451615,0.5266666649530332,2.9006666513780752,2.828571382910013,3.9496552232524444,2.505714318981128,1.7913332810004552,4.840000152587891,1.6040000040084124,0.7816666442280015,2.328333378614237,1.819999939451615,0.5266666649530332,19.370000139872232,11.471428734915596,23.704827505966712,23.045714378356934,23.263999875386556,15.399999618530272,22.641999816894533,25.273333231608074,19.83999999364217,23.00666681925456,21.951333236694335,17.19266675313314,19.988571439470565,27.09758627003637,28.080714225769043,30.681333160400392,29.079999923706055,31.456000518798827,30.446667035420734,28.797500451405842,30.35333315531413,32.451333363850914,11.482666716972986,15.704999991825648,21.5805172098094,23.693928582327707,25.15299990971883,23.274999618530273,25.694000434875488,24.68750031789144,23.03250014781952,23.823333422342937,25.300333372751872,5.7726666808128355,11.421428544180733,16.063448149582435,19.30714293888637,19.624666659037274,17.469999313354492,19.932000350952148,18.92833360036214,17.267499844233196,17.293333689371746,18.14933338165283,3.0474018811246757,5.709767755358559,10.150611445789169,11.955524400160803,13.228802950752373,12.619837635533589,13.823268217982106,14.182327947097425,12.507235062473516,13.342352963058154,11.897819823636214,3.0474018811246757,5.709767755358559,10.150611445789169,11.955524400160803,13.228802950752373,12.619837635533589,13.823268217982106,14.182327947097425,12.507235062473516,13.342352963058154,11.897819823636214,0,0,294.36773192788587,461.74507353013706,660.1771177914228,672.7969554269564,741.9132965168669,827.0072641994515,977.0940849491336,1017.121143838308,1017.121143838308,0,0,0.9430689647279936,0.9802142824445452,1,1,1,1,0.9775416652361552,1,0.06666666666666667,1,1,1,1,1,1,1,1,1,1,1,0.2272000026702881,0.5704999991825649,0.9430689647279936,0.9802142824445452,1,1,1,1,0.9775416652361552,1,1,1,1,1,0.9999999999999999,0.9999999999999999,1,1,1,0.9999999999999999,1,1,2020-05-02T12:00:00Z,2020-05-17T12:00:00Z,2020-05-24T12:00:00Z,2020-06-22T12:00:00Z,2020-07-06T12:00:00Z,2020-07-21T12:00:00Z,2020-07-22T12:00:00Z,2020-07-27T12:00:00Z,2020-08-02T12:00:00Z,2020-08-14T12:00:00Z,2020-08-17T12:00:00Z,2020-05-16T12:00:00Z,2020-05-23T12:00:00Z,2020-06-21T12:00:00Z,2020-07-05T12:00:00Z,2020-07-20T12:00:00Z,2020-07-21T12:00:00Z,2020-07-26T12:00:00Z,2020-08-01T12:00:00Z,2020-08-13T12:00:00Z,2020-08-16T12:00:00Z,2020-08-31T12:00:00Z,123,138,145,174,188,203,204,209,215,227,230,14,6,28,13,14,0,4,5,11,2,14,137,144,173,187,202,203,208,214,226,229,244
228,ames_ia,42.0215,-93.7745,0.5,2020,7,2020,mid0,800.6997896319153,11,2020-05-02,2020-05-16,94,2020-08-18,2020-08-21,2020-09-04,Harvested at Maturity.,2.9006666513780752,2.828571382910013,4.561612966320207,0.6323076910697497,1.8811764334711958,NA,2.0083333120370903,0.1228571433041777,2.9927273064174433,0.06000000238418579,0.5926666662096978,2.9006666513780752,2.828571382910013,4.561612966320207,0.6323076910697497,1.8811764334711958,NA,2.0083333120370903,0.1228571433041777,2.9927273064174433,0.06000000238418579,0.5926666662096978,19.370000139872232,11.471428734915596,23.22451606873543,24.40461540222168,22.93470579035142,NA,22.798332850138348,23.38142885480608,19.89272724498402,25.56666628519694,20.91200002034505,17.19266675313314,19.988571439470565,26.79032258064516,29.24538465646597,30.281764647539923,NA,32.59000047047933,27.221428734915598,30.298182227394797,28.826666514078777,32.26466674804688,11.482666716972986,15.704999991825648,21.415322519117787,24.646153890169582,24.649705858791574,NA,26.771667162577312,21.440000125340053,24.41318195516413,21.890000025431313,25.08833335240682,5.7726666808128355,11.421428544180733,16.04032245759041,20.046923123873196,19.01764707004323,NA,20.953333854675293,15.658571515764509,18.52818168293346,14.953333536783854,17.911999956766763,3.0474018811246757,5.709767755358559,9.223660014992605,11.760562188349914,12.147500469127454,NA,14.111449055818793,11.237207195428597,13.626455876989798,11.916172688974937,11.58005085464557,3.0474018811246757,5.709767755358559,9.223660014992605,11.760562188349914,12.147500469127454,NA,14.111449055818793,11.237207195428597,13.626455876989798,11.916172688974937,11.58005085464557,0,0,285.9334604647708,438.82076891331974,645.3282768884862,NA,729.996971223399,808.657421591399,958.5484362382869,994.2969543052116,994.2969543052116,0,0,0.9404193509009576,0.9937692348773662,1,NA,1,0.9614999975476947,1,1,0.06666666666666667,1,1,1,1,1,NA,1,1,1,1,1,0.2272000026702881,0.5704999991825649,0.9404193509009576,0.9937692348773662,1,NA,1,0.9614999975476947,1,1,0.9947666645050048,1,1,1,1,0.9999999999999999,NA,0.9999999999999999,1,0.9999999999999999,1,1,2020-05-02T12:00:00Z,2020-05-17T12:00:00Z,2020-05-24T12:00:00Z,2020-06-24T12:00:00Z,2020-07-07T12:00:00Z,NA,2020-07-24T12:00:00Z,2020-07-30T12:00:00Z,2020-08-06T12:00:00Z,2020-08-17T12:00:00Z,2020-08-20T12:00:00Z,2020-05-16T12:00:00Z,2020-05-23T12:00:00Z,2020-06-23T12:00:00Z,2020-07-06T12:00:00Z,2020-07-23T12:00:00Z,NA,2020-07-29T12:00:00Z,2020-08-05T12:00:00Z,2020-08-16T12:00:00Z,2020-08-19T12:00:00Z,2020-09-03T12:00:00Z,123,138,145,176,189,NA,206,212,219,230,233,14,6,30,12,16,0,5,6,10,2,14,137,144,175,188,205,NA,211,218,229,232,247
229,ames_ia,42.0215,-93.7745,1.5,2020,7,2020,mid1,1100.0290266016718,11,2020-05-02,2020-05-16,107,2020-08-31,2020-09-04,2020-09-18,Harvested at Maturity.,2.9006666513780752,2.828571382910013,4.095833386604984,1.6217646610868328,1.0761111128247447,0.00999999977648258,3.9342857929212705,0.9166666362434626,0.49692307828137505,0.6499999957159162,5.356666730344296,2.9006666513780752,2.828571382910013,4.095833386604984,1.6217646610868328,1.0761111128247447,0.00999999977648258,3.9342857929212705,0.9166666362434626,0.49692307828137505,0.6499999957159162,5.356666730344296,19.370000139872232,11.471428734915596,23.441388845443726,23.304117539349726,23.5194444126553,21.65999984741211,18.542857033865793,21.920000076293945,22.059230657724235,19.94000005722046,13.756666692097982,17.19266675313314,19.988571439470565,26.9852778116862,30.30941166597254,30.48055574629042,24.18000030517578,29.06714357648577,30.303333282470703,33.27461536114033,27.915000438690186,23.15533313751221,11.482666716972986,15.704999991825648,21.62569440735711,25.36264705657959,24.818889061609905,18.485000133514404,23.38071462086269,23.999166568120323,25.910384618318997,21.268750190734863,17.178333234786987,5.7726666808128355,11.421428544180733,16.266111003028023,20.41588244718664,19.15722237692939,12.789999961853027,17.694285665239608,17.69499985376994,18.546153875497673,14.622499942779541,11.201333332061768,3.0474018811246757,5.709767755358559,8.36683742789739,11.085264181662675,11.964583686670053,7.820954499792187,12.018239923286501,13.6273443483578,12.947755033887809,11.067521536639333,6.446832277024985,3.0474018811246757,5.709767755358559,8.36683742789739,11.085264181662675,11.964583686670053,7.820954499792187,12.018239923286501,13.6273443483578,12.947755033887809,11.067521536639333,6.446832277024985,0,0,301.2061474043061,489.65563849257154,705.0181448526324,712.8390993524246,796.96677881543,878.7308449055768,1047.0516603461183,1091.3217464926756,1091.3217464926756,0,0,0.9464444425370958,1,1,0.8485000133514404,0.9831428527832031,1,1,0.9803749918937683,0.06666666666666667,1,1,1,1,1,1,1,1,1,1,1,0.2272000026702881,0.5704999991825649,0.9464444425370958,1,1,0.8485000133514404,0.9831428527832031,1,1,0.9803749918937683,0.6500666681925455,1,1,1,1,0.9999999999999999,1,0.9999999999999999,1,1,1,1,2020-05-02T12:00:00Z,2020-05-17T12:00:00Z,2020-05-24T12:00:00Z,2020-06-29T12:00:00Z,2020-07-16T12:00:00Z,2020-08-03T12:00:00Z,2020-08-04T12:00:00Z,2020-08-11T12:00:00Z,2020-08-17T12:00:00Z,2020-08-30T12:00:00Z,2020-09-03T12:00:00Z,2020-05-16T12:00:00Z,2020-05-23T12:00:00Z,2020-06-28T12:00:00Z,2020-07-15T12:00:00Z,2020-08-02T12:00:00Z,2020-08-03T12:00:00Z,2020-08-10T12:00:00Z,2020-08-16T12:00:00Z,2020-08-29T12:00:00Z,2020-09-02T12:00:00Z,2020-09-17T12:00:00Z,123,138,145,181,198,216,217,224,230,243,247,14,6,35,16,17,0,6,5,12,3,14,137,144,180,197,215,216,223,229,242,246,261
230,ames_ia,42.0215,-93.7745,2.5,2020,7,2020,mid2,1335.5522006375463,11,2020-05-02,2020-05-16,121,2020-09-14,2020-09-20,2020-10-04,Harvested at Maturity.,2.9006666513780752,2.828571382910013,3.739750048518181,1.5909999682568015,1.9304762110114098,NA,0.8099999749766928,0.6128571429955108,4.994705938131494,0.011666666405896345,0.48933334213991964,2.9006666513780752,2.828571382910013,3.739750048518181,1.5909999682568015,1.9304762110114098,NA,0.8099999749766928,0.6128571429955108,4.994705938131494,0.011666666405896345,0.48933334213991964,19.370000139872232,11.471428734915596,23.194999957084654,23.772499895095827,21.6738095056443,NA,23.527142660958425,21.28714288984026,15.626470621894388,17.056666533152264,12.85933322906494,17.19266675313314,19.988571439470565,27.165000009536744,30.52599992752075,29.767143340337846,NA,29.87142835344587,34.84000015258789,25.60529400320614,24.40166664123535,22.298666763305665,11.482666716972986,15.704999991825648,21.983374977111815,25.06274993419647,24.00619077682495,NA,23.36071423121861,27.08571434020996,19.612352890126846,17.413333296775818,16.102000081539153,5.7726666808128355,11.421428544180733,16.80174994468689,19.599499940872192,18.245238213312057,NA,16.850000108991352,19.33142852783203,13.61941177704755,10.424999952316284,9.905333399772644,3.0474018811246757,5.709767755358559,7.3282120890070654,9.709855646142925,11.036669329554702,NA,12.75691077012095,13.3459416602867,9.838770270120046,8.641078150143723,6.23443717636312,3.0474018811246757,5.709767755358559,7.3282120890070654,9.709855646142925,11.036669329554702,NA,12.75691077012095,13.3459416602867,9.838770270120046,8.641078150143723,6.23443717636312,0,0,293.1284835602825,487.325596483141,719.09565240379,NA,808.3940277946367,901.8156194166436,1069.0747140086844,1120.9211829095466,1120.9211829095466,0,0,0.9517999982833862,1,0.9871666658492315,NA,1,1,0.7429117651546703,0.7334166646003724,0.03306666374206543,1,1,1,1,1,NA,1,1,1,1,1,0.2272000026702881,0.5704999991825649,0.9517999982833862,1,0.9871666658492315,NA,1,1,0.7429117651546703,0.7334166646003724,0.5816666666666667,1,1,1,0.9999999999999999,1,NA,0.9790348722308242,0.8583003745597413,0.9903560404782206,0.9999999999999999,1,2020-05-02T12:00:00Z,2020-05-17T12:00:00Z,2020-05-24T12:00:00Z,2020-07-03T12:00:00Z,2020-07-23T12:00:00Z,NA,2020-08-13T12:00:00Z,2020-08-20T12:00:00Z,2020-08-27T12:00:00Z,2020-09-13T12:00:00Z,2020-09-19T12:00:00Z,2020-05-16T12:00:00Z,2020-05-23T12:00:00Z,2020-07-02T12:00:00Z,2020-07-22T12:00:00Z,2020-08-12T12:00:00Z,NA,2020-08-19T12:00:00Z,2020-08-26T12:00:00Z,2020-09-12T12:00:00Z,2020-09-18T12:00:00Z,2020-10-03T12:00:00Z,123,138,145,185,205,NA,226,233,240,257,263,14,6,39,19,20,0,6,6,16,5,14,137,144,184,204,225,NA,232,239,256,262,277
231,ames_ia,42.0215,-93.7745,-1.5,2021,7,2021,mid000,201.198853446482,11,2021-05-06,2021-05-20,64,2021-07-23,2021-07-26,2021-08-09,Harvested at Maturity.,3.3499999524404607,3.540000041325887,NA,1.0258823410772226,2.728750009671785,5.139999866485596,0.7966666867335638,3.64999996977193,3.103333277783046,0.01333333303531011,2.970666665956378,3.3499999524404607,3.540000041325887,NA,1.0258823410772226,2.728750009671785,5.139999866485596,0.7966666867335638,3.64999996977193,3.103333277783046,0.01333333303531011,2.970666665956378,18.60733324686686,16.863332748413086,NA,23.685882512260886,25.981250166893005,11.800000190734863,24.954999923706055,20.920000076293945,21.454166531562805,23.14666684468587,19.637333234151203,19.581333287556966,28.049999872843426,NA,26.80470590030446,32.68499994277954,26.110000610351563,30.46000067392985,31.93000030517578,28.958333492279053,34.38000043233236,31.320666631062824,14.012666658560434,22.928333282470703,NA,20.26411773176754,25.858749955892563,22.425000190734863,24.82916704813639,25.48857171194894,23.111250122388206,27.736666679382324,25.468333435058593,8.444000029563904,17.80666669209798,NA,13.723529563230626,19.032499969005585,18.739999771118164,19.198333422342937,19.047143118722097,17.264166752497356,21.093332926432293,19.61600023905436,4.95133360178555,12.928333282470707,NA,9.505168538254225,12.431840403349963,11.467329068248818,13.377744316992944,12.50278918758314,12.487210388614374,14.234186650010564,13.054525285913945,4.95133360178555,12.928333282470707,NA,9.505168538254225,12.431840403349963,11.467329068248818,13.377744316992944,12.50278918758314,12.487210388614374,14.234186650010564,13.054525285913945,0,0,NA,161.58786515032182,360.4973116039212,371.9646406721701,452.2311065741277,539.7506308872097,689.5971555505823,732.299715500614,732.299715500614,0,0,NA,0.7785882374819587,0.9794999927282333,1,1,1,0.9949999968210856,1,0.06666666666666667,1,1,NA,1,1,1,1,1,1,1,1,0.4126666736602783,1,NA,0.7785882374819587,0.9794999927282333,1,1,1,0.9949999968210856,1,1,1,1,NA,1,1,1,1,1,1,0.9999999999999999,1,2021-05-06T12:00:00Z,2021-05-21T12:00:00Z,NA,2021-05-24T12:00:00Z,2021-06-10T12:00:00Z,2021-06-26T12:00:00Z,2021-06-27T12:00:00Z,2021-07-03T12:00:00Z,2021-07-10T12:00:00Z,2021-07-22T12:00:00Z,2021-07-25T12:00:00Z,2021-05-20T12:00:00Z,2021-05-23T12:00:00Z,NA,2021-06-09T12:00:00Z,2021-06-25T12:00:00Z,2021-06-26T12:00:00Z,2021-07-02T12:00:00Z,2021-07-09T12:00:00Z,2021-07-21T12:00:00Z,2021-07-24T12:00:00Z,2021-08-08T12:00:00Z,126,141,NA,144,161,177,178,184,191,203,206,14,2,0,16,15,0,5,6,11,2,14,140,143,NA,160,176,177,183,190,202,205,220
232,ames_ia,42.0215,-93.7745,-0.5,2021,7,2021,mid00,770.8954903902347,11,2021-05-06,2021-05-20,88,2021-08-16,2021-08-19,2021-09-02,Harvested at Maturity.,3.3499999524404607,3.540000041325887,1.6866666531811159,1.5776923341819873,3.9187499451218173,0,0.028333332700033985,3.719999961555004,2.1500000212002885,0.0033333332588275266,4.996000057458878,3.3499999524404607,3.540000041325887,1.6866666531811159,1.5776923341819873,3.9187499451218173,0,0.028333332700033985,3.719999961555004,2.1500000212002885,0.0033333332588275266,4.996000057458878,18.60733324686686,16.863332748413086,25.027333545684815,23.834615340599647,20.19437488913536,18.309999465942383,23.68833351135254,20.304999987284344,19.929090933366258,24.926666895548504,18.72066656748454,19.581333287556966,28.049999872843426,29.549333318074545,31.204615813035232,29.14875018596649,31.440000534057617,35.29000027974447,29.926666259765625,31.87454587763006,31.323333104451496,31.01266721089681,14.012666658560434,22.928333282470703,22.71866672039032,25.38423098050631,23.36437514424324,25.65999984741211,28.28583351771037,24.319166501363117,25.55090938914906,23.738333225250244,25.327666982014975,8.444000029563904,17.80666669209798,15.888000122706096,19.56384614797739,17.58000010251999,19.8799991607666,21.28166675567627,18.711666742960613,19.22727290066806,16.15333334604899,19.64266675313314,4.95133360178555,12.928333282470707,10.034455781379656,12.461063361309021,11.82368916637717,14.353721991582464,13.659284221661387,13.543291026439308,14.070132393757865,13.151228770315647,12.893573195212682,4.95133360178555,12.928333282470707,10.034455781379656,12.461063361309021,11.82368916637717,14.353721991582464,13.659284221661387,13.543291026439308,14.070132393757865,13.151228770315647,12.893573195212682,0,0,301.0336734413897,463.02749713840694,652.2065238004418,666.5602457920243,748.5159511219927,829.7756972806285,984.5471536119647,1024.0008399229118,1024.0008399229118,0,0,0.8635999973615011,1,0.9962499976158142,1,1,1,1,1,0.06666666666666667,1,1,1,1,1,1,1,1,1,1,1,0.4126666736602783,1,0.8635999973615011,1,0.9962499976158142,1,1,1,1,1,1,1,1,1,1,0.9999999999999999,1,0.9999999999999999,0.9999999999999999,1,1,1,2021-05-06T12:00:00Z,2021-05-21T12:00:00Z,2021-05-24T12:00:00Z,2021-06-23T12:00:00Z,2021-07-06T12:00:00Z,2021-07-22T12:00:00Z,2021-07-23T12:00:00Z,2021-07-29T12:00:00Z,2021-08-04T12:00:00Z,2021-08-15T12:00:00Z,2021-08-18T12:00:00Z,2021-05-20T12:00:00Z,2021-05-23T12:00:00Z,2021-06-22T12:00:00Z,2021-07-05T12:00:00Z,2021-07-21T12:00:00Z,2021-07-22T12:00:00Z,2021-07-28T12:00:00Z,2021-08-03T12:00:00Z,2021-08-14T12:00:00Z,2021-08-17T12:00:00Z,2021-09-01T12:00:00Z,126,141,144,174,187,203,204,210,216,227,230,14,2,29,12,15,0,5,5,10,2,14,140,143,173,186,202,203,209,215,226,229,244
233,ames_ia,42.0215,-93.7745,0.5,2021,7,2021,mid0,812.1093802213409,11,2021-05-06,2021-05-20,91,2021-08-19,2021-08-21,2021-09-04,Harvested at Maturity.,3.3499999524404607,3.540000041325887,1.6829032144479215,1.6685714506145035,3.4305881826097475,0,3.741666627737383,1.1983333577712376,1.49727273512293,0,5.760000067949296,3.3499999524404607,3.540000041325887,1.6829032144479215,1.6685714506145035,3.4305881826097475,0,3.741666627737383,1.1983333577712376,1.49727273512293,0,5.760000067949296,18.60733324686686,16.863332748413086,25.149355026983446,22.836428574153356,20.81647051081938,22.420000076293945,20.00166670481364,21.111666361490887,21.611818400296297,22.170000076293945,16.737333234151205,19.581333287556966,28.049999872843426,29.647741871495402,31.081429072788783,29.849412020514993,34.130001068115234,33.25666618347168,29.275000254313152,32.26090934059837,33.8700008392334,30.012000528971353,14.012666658560434,22.928333282470703,22.80693550263682,25.431428841182164,23.855294255649344,26.86500072479248,27.334166526794434,23.18250020345052,25.490000161257658,27.032500743865967,24.531000264485677,8.444000029563904,17.80666669209798,15.966129133778233,19.781428609575546,17.86117649078369,19.600000381469727,21.411666870117188,17.09000015258789,18.71909098191695,20.195000648498535,19.05,4.95133360178555,12.928333282470707,9.318462655316079,11.434904402017724,11.333870183054668,12.872968408342544,13.57138869403623,12.583521599912054,14.017374459290505,14.454363105744124,12.387036115760804,4.95133360178555,12.928333282470707,9.318462655316079,11.434904402017724,11.333870183054668,12.872968408342544,13.57138869403623,12.583521599912054,14.017374459290505,14.454363105744124,12.387036115760804,0,0,288.8723423147985,448.9610039430467,641.6367970549762,654.5097654633188,735.9380976275362,811.4392272270086,965.630346279204,994.5390724906922,994.5390724906922,0,0,0.8679999974466139,1,0.9964705859913545,1,1,1,1,1,0.06666666666666667,1,1,1,1,1,1,1,1,1,1,1,0.4126666736602783,1,0.8679999974466139,1,0.9964705859913545,1,1,1,1,1,1,1,1,1,1,0.9999999999999999,1,0.9999999999999999,1,1,0.9999999999999998,1,2021-05-06T12:00:00Z,2021-05-21T12:00:00Z,2021-05-24T12:00:00Z,2021-06-24T12:00:00Z,2021-07-08T12:00:00Z,2021-07-25T12:00:00Z,2021-07-26T12:00:00Z,2021-08-01T12:00:00Z,2021-08-07T12:00:00Z,2021-08-18T12:00:00Z,2021-08-20T12:00:00Z,2021-05-20T12:00:00Z,2021-05-23T12:00:00Z,2021-06-23T12:00:00Z,2021-07-07T12:00:00Z,2021-07-24T12:00:00Z,2021-07-25T12:00:00Z,2021-07-31T12:00:00Z,2021-08-06T12:00:00Z,2021-08-17T12:00:00Z,2021-08-19T12:00:00Z,2021-09-03T12:00:00Z,126,141,144,175,189,206,207,213,219,230,232,14,2,30,13,16,0,5,5,10,1,14,140,143,174,188,205,206,212,218,229,231,246
234,ames_ia,42.0215,-93.7745,1.5,2021,7,2021,mid1,1048.481513336582,11,2021-05-06,2021-05-20,102,2021-08-30,2021-09-03,2021-09-17,Harvested at Maturity.,3.3499999524404607,3.540000041325887,1.8830555508741074,3.6677777350155845,1.1905263031979925,6.590000152587891,3.2500000178813933,0.09857142796473843,5.0618182718753815,4.814999967813492,0.8780000096807877,3.3499999524404607,3.540000041325887,1.8830555508741074,3.6677777350155845,1.1905263031979925,6.590000152587891,3.2500000178813933,0.09857142796473843,5.0618182718753815,4.814999967813492,0.8780000096807877,18.60733324686686,16.863332748413086,24.305555714501274,21.570555448532104,22.403157886705902,13,16.367999839782716,25.182857513427734,18.598181811246004,19.057499647140503,16.414666748046876,19.581333287556966,28.049999872843426,29.523888905843098,30.020000351799858,31.94473688225997,27.520000457763672,32.49600028991699,32.24000031607492,32.45272792469371,27.052500247955322,28.662000147501626,14.012666658560434,22.928333282470703,22.999861141045887,24.098055813047623,25.68184215144107,22.68000030517578,26.7540002822876,24.68357161113194,26.45045497200706,22.240000009536743,21.89266668955485,8.444000029563904,17.80666669209798,16.475833376248676,18.176111274295383,19.418947420622175,17.84000015258789,21.012000274658202,17.127142906188965,20.448182019320402,17.427499771118164,15.123333231608074,4.95133360178555,12.928333282470707,8.554149713958369,9.744453621409438,11.871922547844513,11.796691758473344,14.339817200262473,13.321441706392754,14.440359253894199,12.240000009536743,10.929256427875757,4.95133360178555,12.928333282470707,8.554149713958369,9.744453621409438,11.871922547844513,11.796691758473344,14.339817200262473,13.321441706392754,14.440359253894199,12.240000009536743,10.929256427875757,0,0,307.94938970250126,483.34955488787114,708.9160832969168,720.7127750553901,792.4118610567025,885.6619530014517,1044.505904794288,1093.465904832435,1093.465904832435,0,0,0.8863333311345842,0.9966666645473904,1,1,1,1,1,1,0.06666666666666667,1,1,1,1,1,1,1,1,1,1,1,0.4126666736602783,1,0.8863333311345842,0.9966666645473904,1,1,1,1,1,1,0.9936999956766764,1,1,1,0.9999999999999999,1,1,0.9999999999999999,1,1,0.9999999999999998,1,2021-05-06T12:00:00Z,2021-05-21T12:00:00Z,2021-05-24T12:00:00Z,2021-06-29T12:00:00Z,2021-07-17T12:00:00Z,2021-08-05T12:00:00Z,2021-08-06T12:00:00Z,2021-08-11T12:00:00Z,2021-08-18T12:00:00Z,2021-08-29T12:00:00Z,2021-09-02T12:00:00Z,2021-05-20T12:00:00Z,2021-05-23T12:00:00Z,2021-06-28T12:00:00Z,2021-07-16T12:00:00Z,2021-08-04T12:00:00Z,2021-08-05T12:00:00Z,2021-08-10T12:00:00Z,2021-08-17T12:00:00Z,2021-08-28T12:00:00Z,2021-09-01T12:00:00Z,2021-09-16T12:00:00Z,126,141,144,180,198,217,218,223,230,241,245,14,2,35,17,18,0,4,6,10,3,14,140,143,179,197,216,217,222,229,240,244,259
235,ames_ia,42.0215,-93.7745,2.5,2021,7,2021,mid2,1222.1296617438193,11,2021-05-06,2021-05-20,113,2021-09-10,2021-09-14,2021-09-28,Harvested at Maturity.,3.3499999524404607,3.540000041325887,1.775499998498708,2.9899999581809555,2.2999999997206033,0.05000000074505806,0.016666667225460213,5.795000111063321,3.7035714536905293,0.16499999398365617,0.713333357249697,3.3499999524404607,3.540000041325887,1.775499998498708,2.9899999581809555,2.2999999997206033,0.05000000074505806,0.016666667225460213,5.795000111063321,3.7035714536905293,0.16499999398365617,0.713333357249697,18.60733324686686,16.863332748413086,24.49725012779236,21.33523802530198,20.18849997520447,26.280000686645508,24.40166695912679,19.923333326975506,16.53499984741211,16.172500371932983,16.784666760762533,19.581333287556966,28.049999872843426,29.687750101089478,30.373333522251674,32.220000171661376,31.360000610351563,32.080000241597496,32.06500053405762,28.532143184116908,29.55999994277954,27.569333267211913,14.012666658560434,22.928333282470703,23.240750080347063,24.258571556636266,26.104500198364256,24.11999988555908,24.624166886011757,25.785833676656086,22.915714366095408,22.391250014305115,20.06099991798401,8.444000029563904,17.80666669209798,16.793750059604644,18.143809591020858,19.989000225067137,16.8799991607666,17.168333530426025,19.50666681925456,17.299285548073904,15.222500085830688,12.552666568756104,4.95133360178555,12.928333282470707,7.437258775819709,8.837276224857751,11.678743527102988,12.880867555630624,13.131162966774017,13.702069525645177,12.602428798025846,11.800311043433844,8.964538346102039,4.95133360178555,12.928333282470707,7.437258775819709,8.837276224857751,11.678743527102988,12.880867555630624,13.131162966774017,13.702069525645177,12.602428798025846,11.800311043433844,8.964538346102039,0,0,297.49035103278834,483.073151754801,716.648022296861,729.5288898524916,808.3158676531357,890.5282848070068,1066.9622879793685,1114.163532153104,1114.163532153104,0,0,0.8976999980211258,0.9971428553263346,1,1,1,1,0.9975714274815151,0.9848749876022339,0.06666666666666667,1,1,1,1,1,1,1,1,1,1,1,0.4126666736602783,1,0.8976999980211258,0.9971428553263346,1,1,1,1,0.9975714274815151,0.9848749876022339,0.8571333265304566,1,1,1,1,0.9960032531240666,0.933100356231968,0.8022266404290423,0.9849308448409638,1,1,1,2021-05-06T12:00:00Z,2021-05-21T12:00:00Z,2021-05-24T12:00:00Z,2021-07-03T12:00:00Z,2021-07-24T12:00:00Z,2021-08-13T12:00:00Z,2021-08-14T12:00:00Z,2021-08-20T12:00:00Z,2021-08-26T12:00:00Z,2021-09-09T12:00:00Z,2021-09-13T12:00:00Z,2021-05-20T12:00:00Z,2021-05-23T12:00:00Z,2021-07-02T12:00:00Z,2021-07-23T12:00:00Z,2021-08-12T12:00:00Z,2021-08-13T12:00:00Z,2021-08-19T12:00:00Z,2021-08-25T12:00:00Z,2021-09-08T12:00:00Z,2021-09-12T12:00:00Z,2021-09-27T12:00:00Z,126,141,144,184,205,225,226,232,238,252,256,14,2,39,20,19,0,5,5,13,3,14,140,143,183,204,224,225,231,237,251,255,270
236,ames_ia,42.0215,-93.7745,-1.5,2022,7,2022,mid000,182.392177095261,11,2022-04-11,2022-04-25,80,2022-07-14,2022-07-17,2022-07-31,Harvested at Maturity.,3.715333293750882,3.5861538938031745,NA,2.299499963782728,5.07850004453212,NA,1.7328571437725,0.7749999606360992,4.722499894443899,0.933333300674955,0.9900000189741452,3.715333293750882,3.5861538938031745,NA,2.299499963782728,5.07850004453212,NA,1.7328571437725,0.7749999606360992,4.722499894443899,0.933333300674955,0.9900000189741452,15.323333422342936,13.943077014042782,NA,20.57649998664856,21.7844997882843,NA,28.958571570260183,26.516666412353516,22.654166618982952,26.390000025431316,25.243999799092613,13.761333338419597,16.98615374931922,NA,24.195999717712404,27.008499717712404,NA,31.24571418762207,29.56500021616618,30.00916624069214,33.1999994913737,31.74866663614909,7.18566669623057,11.019230741720934,NA,18.187999898195265,21.403249907493592,NA,24.897857121058873,22.84583353996277,24.84499979019165,26.416666666666668,25.40266663233439,0.6100000540415444,5.0523077341226434,NA,12.18000007867813,15.79800009727478,NA,18.550000054495676,16.126666863759358,19.680833339691162,19.633333841959637,19.056666628519693,1.7530006648251664,2.71938111145015,NA,8.301658596293542,10.37286340254317,NA,12.985342504718973,11.43939481139241,13.494865586847363,13.725364698124297,12.76820325776418,1.7530006648251664,2.71938111145015,NA,8.301658596293542,10.37286340254317,NA,12.985342504718973,11.43939481139241,13.494865586847363,13.725364698124297,12.76820325776418,0,0,NA,166.03317192587082,373.4904399767343,NA,464.3878375097671,533.0242063781216,694.9625934202897,736.1386875146626,736.1386875146626,0,0,NA,0.6940999919176102,0.944474995136261,NA,1,0.9880833387374878,1,1,0.06666666666666667,1,1,NA,1,1,NA,1,1,1,1,1,0.12456667184829713,0.18338461564137387,NA,0.6940999919176102,0.944474995136261,NA,1,0.9880833387374878,1,1,0.9932666714986166,1,1,NA,1,1,NA,0.9999999999999999,0.9999999999999999,1,0.9999999999999999,1,2022-04-11T12:00:00Z,2022-04-26T12:00:00Z,NA,2022-05-09T12:00:00Z,2022-05-29T12:00:00Z,NA,2022-06-18T12:00:00Z,2022-06-25T12:00:00Z,2022-07-01T12:00:00Z,2022-07-13T12:00:00Z,2022-07-16T12:00:00Z,2022-04-25T12:00:00Z,2022-05-08T12:00:00Z,NA,2022-05-28T12:00:00Z,2022-06-17T12:00:00Z,NA,2022-06-24T12:00:00Z,2022-06-30T12:00:00Z,2022-07-12T12:00:00Z,2022-07-15T12:00:00Z,2022-07-30T12:00:00Z,101,116,NA,129,149,NA,169,176,182,194,197,14,12,0,19,19,0,6,5,11,2,14,115,128,NA,148,168,NA,175,181,193,196,211
237,ames_ia,42.0215,-93.7745,-0.5,2022,7,2022,mid00,808.9789822906272,11,2022-04-11,2022-04-25,105,2022-08-08,2022-08-11,2022-08-25,Harvested at Maturity.,3.715333293750882,3.5861538938031745,3.1928571756396975,3.7271427711738006,3.5674999203765765,0.00999999977648258,0.4899999837701519,1.426666693451504,0.9708333384866515,1.2200000286102295,1.7299999964733919,3.715333293750882,3.5861538938031745,3.1928571756396975,3.7271427711738006,3.5674999203765765,0.00999999977648258,0.4899999837701519,1.426666693451504,0.9708333384866515,1.2200000286102295,1.7299999964733919,15.323333422342936,13.943077014042782,20.922857066563196,26.232857159205846,23.83249980211258,28.229999542236328,24.513333479563396,24.501666386922203,25.78249979019165,20.520000139872234,18.609333419799803,13.761333338419597,16.98615374931922,24.838285391671317,30.516428538731166,30.233749747276306,30.88999938964844,32.84166622161865,32.948333422342934,33.323333422342934,32.28666623433431,30.613333384195965,7.18566669623057,11.019230741720934,19.06242846420833,24.41035713468279,24.52468740940094,24.114999771118164,26.56749979654948,26.605833530426025,25.932083328564964,25.918333053588867,24.039333279927572,0.6100000540415444,5.0523077341226434,13.286571536745344,18.304285730634415,18.815625071525574,17.34000015258789,20.293333371480305,20.263333638509113,18.540833234786987,19.549999872843426,17.46533317565918,1.7530006648251664,2.71938111145015,8.484300015226667,11.816228016321674,12.346119952725488,12.697682483860545,13.471872582613573,13.054164851654342,13.012151839149041,13.654038516378403,12.254041148297787,1.7530006648251664,2.71938111145015,8.484300015226667,11.816228016321674,12.346119952725488,12.697682483860545,13.471872582613573,13.054164851654342,13.012151839149041,13.654038516378403,12.254041148297787,0,0,296.95050053293335,462.3776927614368,659.9156120050449,672.6132944889054,753.4445299845869,831.7695190945129,987.9153411643013,1028.8774567134365,1028.8774567134365,0,0,0.7934714211736407,0.9948928594589234,1,1,1,0.9831666787465414,0.9924999952316285,0.9866666793823242,0.06666666666666667,1,1,1,1,1,1,1,1,1,1,1,0.12456667184829713,0.18338461564137387,0.7934714211736407,0.9948928594589234,1,1,1,0.9831666787465414,0.9924999952316285,0.9866666793823242,0.9984666633605958,1,1,1,0.9999999999999999,1,1,1,1,0.9999999999999999,1,1,2022-04-11T12:00:00Z,2022-04-26T12:00:00Z,2022-05-09T12:00:00Z,2022-06-13T12:00:00Z,2022-06-27T12:00:00Z,2022-07-13T12:00:00Z,2022-07-14T12:00:00Z,2022-07-20T12:00:00Z,2022-07-26T12:00:00Z,2022-08-07T12:00:00Z,2022-08-10T12:00:00Z,2022-04-25T12:00:00Z,2022-05-08T12:00:00Z,2022-06-12T12:00:00Z,2022-06-26T12:00:00Z,2022-07-12T12:00:00Z,2022-07-13T12:00:00Z,2022-07-19T12:00:00Z,2022-07-25T12:00:00Z,2022-08-06T12:00:00Z,2022-08-09T12:00:00Z,2022-08-24T12:00:00Z,101,116,129,164,178,194,195,201,207,219,222,14,12,34,13,15,0,5,5,11,2,14,115,128,163,177,193,194,200,206,218,221,236
238,ames_ia,42.0215,-93.7745,0.5,2022,7,2022,mid0,834.4343868795706,11,2022-04-11,2022-04-25,108,2022-08-11,2022-08-14,2022-08-28,Harvested at Maturity.,3.715333293750882,3.5861538938031745,3.13000003207061,3.432666585594416,3.508235213730265,0.10000000149011612,0.22500000676761076,2.233333373752733,0.7641666686783234,0.6333333483586708,4.427999891713261,3.715333293750882,3.5861538938031745,3.13000003207061,3.432666585594416,3.508235213730265,0.10000000149011612,0.22500000676761076,2.233333373752733,0.7641666686783234,0.6333333483586708,4.427999891713261,15.323333422342936,13.943077014042782,20.755555470784504,27.43733329772949,23.60529400320614,14.880000114440918,27.309999783833824,23.87833309173584,24.34083326657613,21.2400000890096,17.952666664123534,13.761333338419597,16.98615374931922,25.079721874660915,30.067333475748697,30.942940768073587,29.06999969482422,33.66499996185303,30.856666564941406,33.880833307902016,34.0466677347819,30.133999888102213,7.18566669623057,11.019230741720934,19.31638875603676,23.705000114440917,25.2711763381958,25.149999618530273,26.824166774749756,24.999999841054283,26.395833293596905,26.235000292460125,23.840666643778484,0.6100000540415444,5.0523077341226434,13.553055637412601,17.342666753133138,19.599411908318014,21.229999542236328,19.983333587646484,19.143333117167156,18.91083327929179,18.423332850138348,17.547333399454754,1.7530006648251664,2.71938111145015,8.055688526704218,10.471160230092899,11.845275326994228,13.064811982505436,12.659360874153982,12.290531133097309,12.763246633506377,13.711091479758421,12.320067634623845,1.7530006648251664,2.71938111145015,8.055688526704218,10.471160230092899,11.845275326994228,13.064811982505436,12.659360874153982,12.290531133097309,12.763246633506377,13.711091479758421,12.320067634623845,0,0,290.0047869613519,447.07219041274544,648.4418709716471,661.5066829541526,737.4628481990763,811.20603499766,964.3649945997367,1005.498269039012,1005.498269039012,0,0,0.7992083261410395,0.9952333354949952,1,1,1,0.9831666787465414,0.9891666650772095,1,0.06666666666666667,1,1,1,1,1,1,1,1,1,1,1,0.12456667184829713,0.18338461564137387,0.7992083261410395,0.9952333354949952,1,1,1,0.9831666787465414,0.9891666650772095,1,0.9984666633605958,1,1,1,0.9999999999999999,1,1,0.9999999999999999,1,1,1,1,2022-04-11T12:00:00Z,2022-04-26T12:00:00Z,2022-05-09T12:00:00Z,2022-06-14T12:00:00Z,2022-06-29T12:00:00Z,2022-07-16T12:00:00Z,2022-07-17T12:00:00Z,2022-07-23T12:00:00Z,2022-07-29T12:00:00Z,2022-08-10T12:00:00Z,2022-08-13T12:00:00Z,2022-04-25T12:00:00Z,2022-05-08T12:00:00Z,2022-06-13T12:00:00Z,2022-06-28T12:00:00Z,2022-07-15T12:00:00Z,2022-07-16T12:00:00Z,2022-07-22T12:00:00Z,2022-07-28T12:00:00Z,2022-08-09T12:00:00Z,2022-08-12T12:00:00Z,2022-08-27T12:00:00Z,101,116,129,165,180,197,198,204,210,222,225,14,12,35,14,16,0,5,5,11,2,14,115,128,164,179,196,197,203,209,221,224,239
239,ames_ia,42.0215,-93.7745,1.5,2022,7,2022,mid1,1297.0091430283646,11,2022-04-11,2022-04-25,121,2022-08-24,2022-08-28,2022-09-11,Harvested at Maturity.,3.715333293750882,3.5861538938031745,3.6000000040342166,2.8777777122126684,1.6569999873638153,1.4900000095367432,1.1314285748771258,0.8414285877453429,2.1399999956289926,0.06999999983236194,4.7386665937801205,3.715333293750882,3.5861538938031745,3.6000000040342166,2.8777777122126684,1.6569999873638153,1.4900000095367432,1.1314285748771258,0.8414285877453429,2.1399999956289926,0.06999999983236194,4.7386665937801205,15.323333422342936,13.943077014042782,21.410487709975826,25.74944437874688,24.325499868392946,27.84000015258789,26.375713893345424,23.08428587232317,17.930833498636883,18.709999561309814,18.73400001525879,13.761333338419597,16.98615374931922,25.706828978003525,30.672777705722385,31.51049976348877,31.979999542236328,32.97142900739397,33.999999727521626,29.92916663487752,32.15500020980835,29.4533332824707,7.18566669623057,11.019230741720934,19.87768282832169,24.51249999470181,25.5887499332428,26.059999465942383,25.601428781236923,26.527856963021417,23.69208327929179,25.12875008583069,23.079333337148032,0.6100000540415444,5.0523077341226434,14.048536678639854,18.352222283681233,19.667000102996827,20.13999938964844,18.23142855507987,19.055714198521205,17.454999923706055,18.102499961853027,16.70533339182536,1.7530006648251664,2.71938111145015,7.575894632140824,9.822134060285432,11.082276320724112,12.949760740589992,11.451337347532597,12.516257819475777,12.988200022489991,14.08750622856021,11.621902829581101,1.7530006648251664,2.71938111145015,7.575894632140824,9.822134060285432,11.082276320724112,12.949760740589992,11.451337347532597,12.516257819475777,12.988200022489991,14.08750622856021,11.621902829581101,0,0,310.61167991777387,487.4100930029117,709.0556194173942,722.0053801579842,802.1647415907122,889.7785463270426,1045.6369465969224,1101.9869715111631,1101.9869715111631,0,0,0.8236951156360347,0.9960277795791626,0.9949500036239624,1,0.9992142813546318,0.982214287349156,0.9980833292007446,1,0.06666666666666667,1,1,1,1,1,1,1,1,1,1,1,0.12456667184829713,0.18338461564137387,0.8236951156360347,0.9960277795791626,0.9949500036239624,1,0.9992142813546318,0.982214287349156,0.9980833292007446,1,0.9686333338419596,1,1,1,0.9999999999999999,0.9999999999999999,1,0.9899492738958371,0.9914064702036717,1,1,1,2022-04-11T12:00:00Z,2022-04-26T12:00:00Z,2022-05-09T12:00:00Z,2022-06-19T12:00:00Z,2022-07-07T12:00:00Z,2022-07-27T12:00:00Z,2022-07-28T12:00:00Z,2022-08-04T12:00:00Z,2022-08-11T12:00:00Z,2022-08-23T12:00:00Z,2022-08-27T12:00:00Z,2022-04-25T12:00:00Z,2022-05-08T12:00:00Z,2022-06-18T12:00:00Z,2022-07-06T12:00:00Z,2022-07-26T12:00:00Z,2022-07-27T12:00:00Z,2022-08-03T12:00:00Z,2022-08-10T12:00:00Z,2022-08-22T12:00:00Z,2022-08-26T12:00:00Z,2022-09-10T12:00:00Z,101,116,129,170,188,208,209,216,223,235,239,14,12,40,17,19,0,6,6,11,3,14,115,128,169,187,207,208,215,222,234,238,253
240,ames_ia,42.0215,-93.7745,2.5,2022,7,2022,mid2,1366.9310050800605,11,2022-04-11,2022-04-25,131,2022-09-03,2022-09-07,2022-09-21,Harvested at Maturity.,3.715333293750882,3.5861538938031745,3.361136367544532,3.1986955867513367,0.9313636408610777,2.2200000286102295,0.8185714475278344,3.355714272175516,4.415833197378864,0.0975000006146729,2.387333365653952,3.715333293750882,3.5861538938031745,3.361136367544532,3.1986955867513367,0.9313636408610777,2.2200000286102295,0.8185714475278344,3.355714272175516,4.415833197378864,0.0975000006146729,2.387333365653952,15.323333422342936,13.943077014042782,21.934318108992144,24.85956511290177,25.39272711493752,17.06999969482422,19.702857289995467,17.987143107822963,19.6266663869222,20.210000038146973,16.836000188191733,13.761333338419597,16.98615374931922,26.19886337627064,30.136521463808805,32.75636360862038,39.290000915527344,33.26571464538574,28.32999965122768,30.891666730244953,29.21250009536743,29.124666468302408,7.18566669623057,11.019230741720934,20.291590823368594,24.33739121063896,26.010454546321522,30.84500026702881,26.219999994550435,22.622857093811035,24.228750030199688,22.81625008583069,22.21166655222575,0.6100000540415444,5.0523077341226434,14.384318270466544,18.53826095746911,19.264545484022662,22.399999618530273,19.174285343715123,16.915714536394393,17.56583333015442,16.420000076293945,15.298666636149088,1.7530006648251664,2.71938111145015,6.7078359337208,8.561845413070099,10.373369912837388,10.093631269184993,12.491735056912688,12.27570224246556,13.622905566645661,12.316395465040205,10.882961551949977,1.7530006648251664,2.71938111145015,6.7078359337208,8.561845413070099,10.373369912837388,10.093631269184993,12.491735056912688,12.27570224246556,13.622905566645661,12.316395465040205,10.882961551949977,0,0,295.1447810837151,492.0672255843274,720.2813636667502,730.3749949359352,817.817140334324,903.747056031583,1067.221922831331,1116.487504691492,1116.487504691492,0,0,0.8357159032063051,0.9968913057576055,0.99515909281643955,0.9154999732971192,0.9942857197352818,0.996714278629848,1,1,0.06666666666666667,1,1,1,1,1,1,1,1,1,1,1,0.12456667184829713,0.18338461564137387,0.8357159032063051,0.9968913057576055,0.99515909281643955,0.9154999732971192,0.9942857197352818,0.996714278629848,1,1,0.9312666670481364,1,1,1,0.9999999999999999,0.9653136590936614,0.7906398941384309,0.8797678654228861,0.9651254171710357,0.999965791000331,1,1,2022-04-11T12:00:00Z,2022-04-26T12:00:00Z,2022-05-09T12:00:00Z,2022-06-22T12:00:00Z,2022-07-15T12:00:00Z,2022-08-06T12:00:00Z,2022-08-07T12:00:00Z,2022-08-14T12:00:00Z,2022-08-21T12:00:00Z,2022-09-02T12:00:00Z,2022-09-06T12:00:00Z,2022-04-25T12:00:00Z,2022-05-08T12:00:00Z,2022-06-21T12:00:00Z,2022-07-14T12:00:00Z,2022-08-05T12:00:00Z,2022-08-06T12:00:00Z,2022-08-13T12:00:00Z,2022-08-20T12:00:00Z,2022-09-01T12:00:00Z,2022-09-05T12:00:00Z,2022-09-20T12:00:00Z,101,116,129,173,196,218,219,226,233,245,249,14,12,43,22,21,0,6,6,11,3,14,115,128,172,195,217,218,225,232,244,248,263
241,ames_ia,42.0215,-93.7745,-1.5,2023,7,2023,mid000,206.09049321953532,11,2023-04-23,2023-05-07,70,2023-07-16,2023-07-19,2023-08-02,Harvested at Maturity.,1.954000062867999,3.6749998996965587,NA,1.2826315791003013,3.1433333162632255,3.2799999713897705,3.290000037600597,3.0357143080660274,3.681538600188035,0.29999999205271405,0.30200000082453093,1.954000062867999,3.6749998996965587,NA,1.2826315791003013,3.1433333162632255,3.2799999713897705,3.290000037600597,3.0357143080660274,3.681538600188035,0.29999999205271405,0.30200000082453093,21.184666665395103,20.854999542236328,NA,23.43421062670256,21.99222246805827,21.399999618530273,24.93833303451538,19.450000081743514,23.31999991490291,20.46333376566569,23.729999860127766,18.61066665649414,24.52750015258789,NA,25.587894740857575,28.401110967000324,27.920000076293945,32.201667149861656,28.661428451538086,29.010000082162712,28.163333257039387,32.746666717529294,11.392000007629393,18.762500047683716,NA,18.812631607055664,22.33666655752394,22.0649995803833,25.435000260670982,23.367142949785507,22.87346153992873,22.1883331934611,25.809999974568683,4.173333358764649,12.997499942779541,NA,12.037368473253752,16.272222148047554,16.209999084472656,18.66833337148031,18.072857448032924,16.736922997694748,16.213333129882813,18.873333231608072,3.5573844696876407,8.762500047683716,NA,8.685263020150476,11.327603343933573,11.100676644974122,13.190302611964572,12.116678827597772,11.80292539210066,11.807286488922717,12.758413046047687,3.5573844696876407,8.762500047683716,NA,8.685263020150476,11.327603343933573,11.100676644974122,13.190302611964572,12.116678827597772,11.80292539210066,11.807286488922717,12.758413046047687,0,0,NA,165.01999738285906,368.9168575736634,380.0175342186375,459.15934989042495,543.9761016836094,697.4141317809181,732.8359912476863,732.8359912476863,0,0,NA,0.8166315781442742,0.9708611090977987,1,1,1,0.9717692301823543,1,0.06666666666666667,1,1,NA,1,1,1,1,1,1,1,1,0.2459999978542328,0.8542500138282776,NA,0.8166315781442742,0.9708611090977987,1,1,1,0.9717692301823543,1,0.9919333267211914,1,1,NA,1,1,1,0.9999999999999998,0.9999999999999999,0.9999999999999999,1,1,2023-04-23T12:00:00Z,2023-05-08T12:00:00Z,NA,2023-05-12T12:00:00Z,2023-05-31T12:00:00Z,2023-06-18T12:00:00Z,2023-06-19T12:00:00Z,2023-06-25T12:00:00Z,2023-07-02T12:00:00Z,2023-07-15T12:00:00Z,2023-07-18T12:00:00Z,2023-05-07T12:00:00Z,2023-05-11T12:00:00Z,NA,2023-05-30T12:00:00Z,2023-06-17T12:00:00Z,2023-06-18T12:00:00Z,2023-06-24T12:00:00Z,2023-07-01T12:00:00Z,2023-07-14T12:00:00Z,2023-07-17T12:00:00Z,2023-08-01T12:00:00Z,113,128,NA,132,151,169,170,176,183,196,199,14,3,0,18,17,0,5,6,12,2,14,127,131,NA,150,168,169,175,182,195,198,213
242,ames_ia,42.0215,-93.7745,-0.5,2023,7,2023,mid00,811.3578951356922,11,2023-04-23,2023-05-07,95,2023-08-10,2023-08-13,2023-08-27,Harvested at Maturity.,1.954000062867999,3.6749998996965587,1.720303032660123,3.4178571305902943,4.02705893797033,0,0.21571428408580168,0.5766666655739149,4.189090908251026,7.750000059604645,0.3906666773060958,1.954000062867999,3.6749998996965587,1.720303032660123,3.4178571305902943,4.02705893797033,0,0.21571428408580168,0.5766666655739149,4.189090908251026,7.750000059604645,0.3906666773060958,21.184666665395103,20.854999542236328,22.4696971430923,23.45642852783203,22.444705794839297,19.100000381469727,23.852857044764928,22.290000120798748,20.129999941045586,22.156666437784832,21.393999989827474,18.61066665649414,24.52750015258789,26.509696902650774,30.562143053327286,29.0347058913287,30.34000015258789,28.64428574698312,35.60833326975504,30.144545468417082,29.4499994913737,32.30933329264323,11.392000007629393,18.762500047683716,20.181212092890885,23.875714370182582,23.2270588313832,23.48499965667725,22.488571575709752,28.044166564941406,24.805454427545722,24.018333117167156,25.715999921162922,4.173333358764649,12.997499942779541,13.852727283130992,17.189285687037877,17.4194117714377,16.6299991607666,16.332857404436385,20.479999860127766,19.46636338667436,18.586666742960613,19.122666549682616,3.5573844696876407,8.762500047683716,9.266276829715208,11.505584959828262,11.345038337158599,12.394613797436184,11.669789896651041,12.902198417216475,13.838627404730495,13.635377089051405,11.763783220879635,3.5573844696876407,8.762500047683716,9.266276829715208,11.505584959828262,11.345038337158599,12.394613797436184,11.669789896651041,12.902198417216475,13.838627404730495,13.635377089051405,11.763783220879635,0,0,305.78713538060185,466.8653248181975,659.7309765498937,672.1255903473299,753.8141196238869,831.2273101271857,983.4522115792212,1024.3583428463755,1024.3583428463755,0,0,0.8785303014697451,1,0.9784117642570944,1,1,0.9798333168029785,1,1,0.06666666666666667,1,1,1,1,1,1,1,1,1,1,1,0.2459999978542328,0.8542500138282776,0.8785303014697451,1,0.9784117642570944,1,1,0.9798333168029785,1,1,0.9739666652679443,1,1,1,0.9999999999999999,0.9999999999999999,0.9999999999999998,0.9999999999999999,0.9999999999999999,1,1,1,2023-04-23T12:00:00Z,2023-05-08T12:00:00Z,2023-05-12T12:00:00Z,2023-06-14T12:00:00Z,2023-06-28T12:00:00Z,2023-07-15T12:00:00Z,2023-07-16T12:00:00Z,2023-07-23T12:00:00Z,2023-07-29T12:00:00Z,2023-08-09T12:00:00Z,2023-08-12T12:00:00Z,2023-05-07T12:00:00Z,2023-05-11T12:00:00Z,2023-06-13T12:00:00Z,2023-06-27T12:00:00Z,2023-07-14T12:00:00Z,2023-07-15T12:00:00Z,2023-07-22T12:00:00Z,2023-07-28T12:00:00Z,2023-08-08T12:00:00Z,2023-08-11T12:00:00Z,2023-08-26T12:00:00Z,113,128,132,165,179,196,197,204,210,221,224,14,3,32,13,16,0,6,5,10,2,14,127,131,164,178,195,196,203,209,220,223,238
243,ames_ia,42.0215,-93.7745,0.5,2023,7,2023,mid0,857.0763968853978,11,2023-04-23,2023-05-07,98,2023-08-13,2023-08-16,2023-08-30,Harvested at Maturity.,1.954000062867999,3.6749998996965587,1.6702941199216772,3.4866666571547587,3.415789573306316,NA,0.0914285731102739,0.6016666650151213,6.285454561256549,1.0133333603541057,0.18800000523527463,1.954000062867999,3.6749998996965587,1.6702941199216772,3.4866666571547587,3.415789573306316,NA,0.0914285731102739,0.6016666650151213,6.285454561256549,1.0133333603541057,0.18800000523527463,21.184666665395103,20.854999542236328,22.573529580060175,23.285999933878582,22.23052632181268,NA,24.397142682756698,22.919999917348225,19.24454541639848,16.883333524068195,22.292666562398274,18.61066665649414,24.52750015258789,26.656470523161047,30.70333340962728,28.503157967015316,NA,31.338571548461914,35.19166660308838,29.25181805003773,27.71999994913737,32.81866658528646,11.392000007629393,18.762500047683716,20.28249997251174,24.088666725158692,22.709210521296452,NA,24.502857208251953,28.051666577657063,24.267727158286355,22.698333104451496,25.80033327738444,4.173333358764649,12.997499942779541,13.908529421862434,17.474000040690104,16.915263075577585,NA,17.667142868041992,20.91166655222575,19.28363626653498,17.676666259765625,18.78199996948242,3.5573844696876407,8.762500047683716,8.67831552312703,10.697262861675195,10.326166564383852,NA,12.085492356272812,12.789869078063784,13.461526942490176,12.653341322561104,12.107108921697536,3.5573844696876407,8.762500047683716,8.67831552312703,10.697262861675195,10.326166564383852,NA,12.085492356272812,12.789869078063784,13.461526942490176,12.653341322561104,12.107108921697536,0,0,295.06272778631904,455.52167071144703,651.7188354347402,NA,736.3172819286499,813.0564963970326,961.1332927644246,999.093316732108,999.093316732108,0,0,0.8821029396618114,1,0.9806842101247687,NA,1,0.9798333168029785,1,1,0.0656666660308838,1,1,1,1,1,NA,1,1,1,1,1,0.2459999978542328,0.8542500138282776,0.8821029396618114,1,0.9806842101247687,NA,1,0.9798333168029785,1,1,0.9739666652679443,1,1,1,0.9999999999999999,0.9999999999999999,NA,0.9999999999999999,1,0.9999999999999999,1,1,2023-04-23T12:00:00Z,2023-05-08T12:00:00Z,2023-05-12T12:00:00Z,2023-06-15T12:00:00Z,2023-06-30T12:00:00Z,NA,2023-07-19T12:00:00Z,2023-07-26T12:00:00Z,2023-08-01T12:00:00Z,2023-08-12T12:00:00Z,2023-08-15T12:00:00Z,2023-05-07T12:00:00Z,2023-05-11T12:00:00Z,2023-06-14T12:00:00Z,2023-06-29T12:00:00Z,2023-07-18T12:00:00Z,NA,2023-07-25T12:00:00Z,2023-07-31T12:00:00Z,2023-08-11T12:00:00Z,2023-08-14T12:00:00Z,2023-08-29T12:00:00Z,113,128,132,166,181,NA,200,207,213,224,227,14,3,33,14,18,0,6,5,10,2,14,127,131,165,180,199,NA,206,212,223,226,241
244,ames_ia,42.0215,-93.7745,1.5,2023,7,2023,mid1,1187.9428404926362,11,2023-04-23,2023-05-07,112,2023-08-27,2023-08-30,2023-09-13,Harvested at Maturity.,1.954000062867999,3.6749998996965587,2.162820504214137,2.503157911724166,2.2047619925191007,0.00999999977648258,2.6833332922930517,7.580000059945243,0.4492307815414209,0.006666666517655053,0.6466666553169489,1.954000062867999,3.6749998996965587,2.162820504214137,2.503157911724166,2.2047619925191007,0.00999999977648258,2.6833332922930517,7.580000059945243,0.4492307815414209,0.006666666517655053,0.6466666553169489,21.184666665395103,20.854999542236328,22.877692442673904,21.966315671017295,23.195238158816384,25.709999084472656,20.19499985376994,20.395714351109095,20.903076905470627,21.15333302815755,19.23800017038981,18.61066665649414,24.52750015258789,27.096410213372646,29.456315893875924,31.33380953470866,31.190000534057617,30.85000006357829,28.6757139478411,32.66692308279184,29.646666208902996,30.479333241780598,11.392000007629393,18.762500047683716,20.664615349891857,23.55131590993781,24.685952345530193,24.664999961853027,25.666666666666668,23.302142551967076,25.95692304464487,22.94499969482422,22.862000052134196,4.173333358764649,12.997499942779541,14.23282048641107,17.64631592599969,18.038095156351726,18.13999938964844,20.483333269755047,17.928571156093053,19.246923006497898,16.24333318074544,15.244666862487792,3.5573844696876407,8.762500047683716,7.998816178420617,9.261175929234437,10.543973792729103,12.642087332966367,13.10355383811575,12.690945137141306,12.55113173479071,12.81134482153654,10.605955214668116,3.5573844696876407,8.762500047683716,7.998816178420617,9.261175929234437,10.543973792729103,12.642087332966367,13.10355383811575,12.690945137141306,12.55113173479071,12.81134482153654,10.605955214668116,0,0,311.95383095840407,487.9161736138584,709.3396232611694,721.9817105941358,800.6030336228304,889.4396495828195,1052.6043621350989,1091.0383965997082,1091.0383965997082,0,0,0.8972179473974766,0.9806842101247687,0.9942380905151367,1,1,1,0.9699615368476281,1,0.06666666666666667,1,1,1,1,1,1,1,1,1,1,1,0.2459999978542328,0.8542500138282776,0.8972179473974766,0.9806842101247687,0.9942380905151367,1,1,1,0.9699615368476281,1,0.9774333318074544,1,1,1,1,0.9975473025453215,0.9999999999999998,0.988935425788894,1,0.9999999999999999,1,1,2023-04-23T12:00:00Z,2023-05-08T12:00:00Z,2023-05-12T12:00:00Z,2023-06-20T12:00:00Z,2023-07-09T12:00:00Z,2023-07-30T12:00:00Z,2023-07-31T12:00:00Z,2023-08-06T12:00:00Z,2023-08-13T12:00:00Z,2023-08-26T12:00:00Z,2023-08-29T12:00:00Z,2023-05-07T12:00:00Z,2023-05-11T12:00:00Z,2023-06-19T12:00:00Z,2023-07-08T12:00:00Z,2023-07-29T12:00:00Z,2023-07-30T12:00:00Z,2023-08-05T12:00:00Z,2023-08-12T12:00:00Z,2023-08-25T12:00:00Z,2023-08-28T12:00:00Z,2023-09-12T12:00:00Z,113,128,132,171,190,211,212,218,225,238,241,14,3,38,18,20,0,5,6,12,2,14,127,131,170,189,210,211,217,224,237,240,255
245,ames_ia,42.0215,-93.7745,2.5,2023,7,2023,mid2,1444.8363293894258,11,2023-04-23,2023-05-07,122,2023-09-06,2023-09-11,2023-09-25,Harvested at Maturity.,1.954000062867999,3.6749998996965587,1.9641860386919836,3.8695653123052223,2.2945454536344516,0.1899999976158142,3.7600000370293856,0.05142857054514544,0.18692308349105027,0.019999999925494193,2.576666678364078,1.954000062867999,3.6749998996965587,1.9641860386919836,3.8695653123052223,2.2945454536344516,0.1899999976158142,3.7600000370293856,0.05142857054514544,0.18692308349105027,0.019999999925494193,2.576666678364078,21.184666665395103,20.854999542236328,23.326279174449834,21.160434764364492,21.739999944513496,24.690000534057617,20.57285703931536,23.132857186453684,21.83769233410175,16.423999977111816,13.855333264668783,18.61066665649414,24.52750015258789,27.58209299486737,29.061739216680113,31.30272726579146,29.260000228881836,28.41857119968959,33.397142955235076,33.31076900775616,29.6939998626709,27.03933334350586,11.392000007629393,18.762500047683716,21.113023236740467,23.158260905224346,25.172727238048207,22.829999923706055,22.857142652784074,26.01642860685076,25.717692228463978,22.136000061035155,20.31266670227051,4.173333358764649,12.997499942779541,14.643953478613565,17.254782593768574,19.042727210304953,16.399999618530273,17.295714105878556,18.63571425846645,18.1246154491718,14.578000259399413,13.586000061035156,3.5573844696876407,8.762500047683716,7.041714720720599,8.02548836216851,10.428297968620884,11.33943717482386,11.771648723352612,12.573015562117305,12.839389081304807,11.599975717936754,9.586333338419596,3.5573844696876407,8.762500047683716,7.041714720720599,8.02548836216851,10.428297968620884,11.33943717482386,11.771648723352612,12.573015562117305,12.839389081304807,11.599975717936754,9.586333338419596,0,0,302.79373299098575,487.37996532086134,716.8025206305206,728.1419578053444,810.5434988688127,898.5546078036339,1065.4666658605963,1123.46654445028,1123.46654445028,0,0,0.9067790685698044,0.9840434779291568,0.9944999954917214,1,0.997857141494751,0.998571423121861,0.9718846174386832,0.9796000003814698,0.06666666666666667,1,1,1,1,1,1,1,1,1,1,1,0.2459999978542328,0.8542500138282776,0.9067790685698044,0.9840434779291568,0.9944999954917214,1,0.997857141494751,0.998571423121861,0.9718846174386832,0.9796000003814698,0.9506333319346111,1,1,1,1,0.988763216832063,0.9999999999999998,1,0.9759656872212399,0.9894768810729446,1,1,2023-04-23T12:00:00Z,2023-05-08T12:00:00Z,2023-05-12T12:00:00Z,2023-06-24T12:00:00Z,2023-07-17T12:00:00Z,2023-08-08T12:00:00Z,2023-08-09T12:00:00Z,2023-08-16T12:00:00Z,2023-08-23T12:00:00Z,2023-09-05T12:00:00Z,2023-09-10T12:00:00Z,2023-05-07T12:00:00Z,2023-05-11T12:00:00Z,2023-06-23T12:00:00Z,2023-07-16T12:00:00Z,2023-08-07T12:00:00Z,2023-08-08T12:00:00Z,2023-08-15T12:00:00Z,2023-08-22T12:00:00Z,2023-09-04T12:00:00Z,2023-09-09T12:00:00Z,2023-09-24T12:00:00Z,113,128,132,175,198,220,221,228,235,248,253,14,3,42,22,21,0,6,6,12,4,14,127,131,174,197,219,220,227,234,247,252,267
246,eastlansing_mi,42.6296,-84.4375,-1.5,2017,8,2017,mid000,243.8720501000833,11,2017-04-06,2017-04-20,102,2017-07-31,2017-08-03,2017-08-17,Harvested at Maturity.,4.227333385248979,2.8584210437379385,NA,1.9220000027989348,2.7913636529648844,0.4600000083446502,2.3437499639112502,4.797500020125881,0.6758333522205552,0.03666666646798452,2.3419999758402508,4.227333385248979,2.8584210437379385,NA,1.9220000027989348,2.7913636529648844,0.4600000083446502,2.3437499639112502,4.797500020125881,0.6758333522205552,0.03666666646798452,2.3419999758402508,16.22000001271566,18.69947378258956,NA,22.11366669336955,22.32818183031949,26.479999542236328,26.922499895095825,19.007500171661377,22.1883331934611,25.549999872843426,19.961333592732746,16.936000061035156,15.107368419044896,NA,21.512666734059653,25.0259089903398,25.540000915527344,26.62624979019165,26.578749895095825,28.50166654586792,30.073333740234375,27.16933339436849,10.626000027855238,9.147631576186733,NA,15.349333357810973,19.912727225910533,21.540000915527344,20.59562486410141,21.741250097751617,22.266666571299236,22.510000387827553,20.92566677729289,4.315999994675319,3.1878947333285685,NA,9.185999981562297,14.799545461481268,17.540000915527344,14.56499993801117,16.90375030040741,16.031666596730552,14.946667035420736,14.682000160217285,3.0340099557601414,1.9708777276033047,NA,5.465414651800272,9.064422153611059,10.617980564667544,9.953870962729445,11.224673898393174,12.189756691892875,12.510000387827555,10.006681796061994,3.0340099557601414,1.9708777276033047,NA,5.465414651800272,9.064422153611059,10.617980564667544,9.953870962729445,11.224673898393174,12.189756691892875,12.510000387827555,10.006681796061994,0,0,NA,163.9624395540082,363.3797269334517,373.9977074981192,453.6286751999548,543.4260663871003,689.7031466898148,727.2331478532975,727.2331478532975,0,0,NA,0.5262833348910014,0.8625909090042114,1,0.9694999933242798,0.9841250061988831,0.9787083387374877,1,0.06666666666666667,1,1,NA,1,1,1,1,1,1,1,1,0.23296667098999027,0.11844736965079058,NA,0.5262833348910014,0.8625909090042114,1,0.9694999933242798,0.9841250061988831,0.9787083387374877,1,0.9479666646321615,1,1,NA,1,1,1,1,1,1,1,1,2017-04-06T12:00:00Z,2017-04-21T12:00:00Z,NA,2017-05-10T12:00:00Z,2017-06-09T12:00:00Z,2017-07-01T12:00:00Z,2017-07-02T12:00:00Z,2017-07-10T12:00:00Z,2017-07-18T12:00:00Z,2017-07-30T12:00:00Z,2017-08-02T12:00:00Z,2017-04-20T12:00:00Z,2017-05-09T12:00:00Z,NA,2017-06-08T12:00:00Z,2017-06-30T12:00:00Z,2017-07-01T12:00:00Z,2017-07-09T12:00:00Z,2017-07-17T12:00:00Z,2017-07-29T12:00:00Z,2017-08-01T12:00:00Z,2017-08-16T12:00:00Z,96,111,NA,130,160,182,183,191,199,211,214,14,18,0,29,21,0,7,7,11,2,14,110,129,NA,159,181,182,190,198,210,213,228
247,eastlansing_mi,42.6296,-84.4375,-0.5,2017,8,2017,mid00,804.9446255696721,11,2017-04-06,2017-04-20,132,2017-08-30,2017-09-03,2017-09-17,Harvested at Maturity.,4.227333385248979,2.8584210437379385,2.353043489117661,3.462777770538297,0.7888888992990056,NA,2.3024999555200343,1.4342857173510961,1.8349999910486596,0.2574999975040555,0.6286666784435511,4.227333385248979,2.8584210437379385,2.353043489117661,3.462777770538297,0.7888888992990056,NA,2.3024999555200343,1.4342857173510961,1.8349999910486596,0.2574999975040555,0.6286666784435511,16.22000001271566,18.69947378258956,22.304130429806918,22.92111110687256,22.301666683620876,NA,19.90499997138977,21.0742860521589,18.08000005994524,18.019999980926514,17.185999997456868,16.936000061035156,15.107368419044896,23.034565241440482,25.413888719346787,27.886666615804035,NA,26.93375015258789,27.715714318411692,26.83071449824742,24.664999961853027,24.444666798909505,10.626000027855238,9.147631576186733,17.22739131036012,20.14777774280972,21.837777773539226,NA,20.841875195503235,20.927857194628036,20.753928763525828,18.201249957084656,17.238000011444093,4.315999994675319,3.1878947333285685,11.420217379279759,14.881666766272652,15.788888931274414,NA,14.750000238418579,14.140000070844378,14.677143028804235,11.737499952316284,10.03133322397868,3.0340099557601414,1.9708777276033047,6.597317315261298,8.898578010804528,11.107300045569882,NA,11.005492671107483,11.148966688752173,11.070347764377082,9.04231117836833,6.979203527709445,3.0340099557601414,1.9708777276033047,6.597317315261298,8.898578010804528,11.107300045569882,NA,11.005492671107483,11.148966688752173,11.070347764377082,9.04231117836833,6.979203527709445,0,0,303.4765965020198,463.6510006965013,663.5824015167592,NA,751.626342885619,829.6691097068842,984.6539784081634,1020.8232231216368,1020.8232231216368,0,0,0.6671195667722951,0.8796666622161865,0.9787500063578288,NA,0.9258124947547913,0.9732857159205845,0.9133571488516672,0.7978749990463258,0.04476666768391927,1,1,1,1,1,NA,1,1,1,1,1,0.23296667098999027,0.11844736965079058,0.6671195667722951,0.8796666622161865,0.9787500063578288,NA,0.9258124947547913,0.9732857159205845,0.9133571488516672,0.7978749990463258,0.684366668065389,1,1,1,1,1,NA,1,1,1,1,1,2017-04-06T12:00:00Z,2017-04-21T12:00:00Z,2017-05-10T12:00:00Z,2017-06-25T12:00:00Z,2017-07-13T12:00:00Z,NA,2017-07-31T12:00:00Z,2017-08-08T12:00:00Z,2017-08-15T12:00:00Z,2017-08-29T12:00:00Z,2017-09-02T12:00:00Z,2017-04-20T12:00:00Z,2017-05-09T12:00:00Z,2017-06-24T12:00:00Z,2017-07-12T12:00:00Z,2017-07-30T12:00:00Z,NA,2017-08-07T12:00:00Z,2017-08-14T12:00:00Z,2017-08-28T12:00:00Z,2017-09-01T12:00:00Z,2017-09-16T12:00:00Z,96,111,130,176,194,NA,212,220,227,241,245,14,18,45,17,17,0,7,6,13,3,14,110,129,175,193,211,NA,219,226,240,244,259
248,eastlansing_mi,42.6296,-84.4375,0.5,2017,8,2017,mid0,867.0538875846521,11,2017-04-06,2017-04-20,136,2017-09-03,2017-09-06,2017-09-20,Harvested at Maturity.,4.227333385248979,2.8584210437379385,2.218163275787113,3.9958823421860443,0.45888890139758587,1.25,2.2274999544024467,2.676666667064031,1.2462499933317304,0.8099999924500784,0.9940000070879856,4.227333385248979,2.8584210437379385,2.218163275787113,3.9958823421860443,0.45888890139758587,1.25,2.2274999544024467,2.676666667064031,1.2462499933317304,0.8099999924500784,0.9940000070879856,16.22000001271566,18.69947378258956,22.41693878173828,22.109999937169693,23.17555554707845,21.790000915527344,19.53250002861023,20.228333791097004,17.56749999523163,17.610000292460125,15.965999984741211,16.936000061035156,15.107368419044896,22.840204102652415,26.511764526367188,28.305555555555557,29.440000534057617,26.396250009536743,27.821666717529297,25.991250157356262,27.420000712076824,24.358666737874348,10.626000027855238,9.147631576186733,17.078061225462932,21.30999999887803,21.912777794731987,23.780000686645508,20.163750052452087,21.46583342552185,19.836250126361847,19.0566668510437,17.697666708628336,4.315999994675319,3.1878947333285685,11.315918348273453,16.108235471388873,15.52000003390842,18.1200008392334,13.931250095367432,15.110000133514404,13.681250095367432,10.693332990010578,11.036666679382325,3.0340099557601414,1.9708777276033047,5.952590090401167,9.184876464629053,10.637747807711651,13.18651465729517,10.295510613471158,11.615765575770537,10.323680434416234,10.048286305612326,7.474311149489284,3.0340099557601414,1.9708777276033047,5.952590090401167,9.184876464629053,10.637747807711651,13.18651465729517,10.295510613471158,11.615765575770537,10.323680434416234,10.048286305612326,7.474311149489284,0,0,291.6769144296572,447.8198143283511,639.2992748671609,652.4857895244561,734.8498744322254,804.5444678868487,969.7233548375084,999.8682137543452,999.8682137543452,0,0,0.6555918377272937,0.9645588201635025,0.9787500063578288,1,0.9206874966621399,0.9756666660308838,0.8736562550067902,0.8450000127156576,0.03926666577657064,1,1,1,1,1,1,1,1,1,1,1,0.23296667098999027,0.11844736965079058,0.6555918377272937,0.9645588201635025,0.9787500063578288,1,0.9206874966621399,0.9756666660308838,0.8736562550067902,0.8450000127156576,0.7043333339691162,1,1,1,0.9999999999999999,1,1,1,1,0.9999999999999999,0.9999999999999999,1,2017-04-06T12:00:00Z,2017-04-21T12:00:00Z,2017-05-10T12:00:00Z,2017-06-28T12:00:00Z,2017-07-15T12:00:00Z,2017-08-02T12:00:00Z,2017-08-03T12:00:00Z,2017-08-11T12:00:00Z,2017-08-17T12:00:00Z,2017-09-02T12:00:00Z,2017-09-05T12:00:00Z,2017-04-20T12:00:00Z,2017-05-09T12:00:00Z,2017-06-27T12:00:00Z,2017-07-14T12:00:00Z,2017-08-01T12:00:00Z,2017-08-02T12:00:00Z,2017-08-10T12:00:00Z,2017-08-16T12:00:00Z,2017-09-01T12:00:00Z,2017-09-04T12:00:00Z,2017-09-19T12:00:00Z,96,111,130,179,196,214,215,223,229,245,248,14,18,48,16,17,0,7,5,15,2,14,110,129,178,195,213,214,222,228,244,247,262
249,eastlansing_mi,42.6296,-84.4375,1.5,2017,8,2017,mid1,1177.2261225114291,11,2017-04-06,2017-04-20,153,2017-09-20,2017-09-23,2017-10-07,Harvested at Maturity.,4.227333385248979,2.8584210437379385,2.2789091003550723,2.9290000017732383,1.3322727121412754,6.519999980926514,1.9599999816467364,0.8439999993890523,0.808333340100944,1.6699999918540318,2.229333321377635,4.227333385248979,2.8584210437379385,2.2789091003550723,2.9290000017732383,1.3322727121412754,6.519999980926514,1.9599999816467364,0.8439999993890523,0.808333340100944,1.6699999918540318,2.229333321377635,16.22000001271566,18.69947378258956,22.39890910061923,22.148999977111817,21.447272820906207,22.100000381469727,18.879999955495197,16.91500005722046,17.054444471995037,13.15999984741211,14.99600009918213,16.936000061035156,15.107368419044896,23.157272737676447,27.639499759674074,27.36545467376709,27.979999542236328,29.19000021616618,24.959000205993654,24.871666802300346,27.8000005086263,26.687999725341797,10.626000027855238,9.147631576186733,17.475181826678188,22.112749910354612,20.820000128312543,22.829999923706055,23.12333353360494,18.675000143051147,17.74055560429891,22.195000330607098,19.625666522979735,4.315999994675319,3.1878947333285685,11.793090915679931,16.586000061035158,14.274545582858,17.68000030517578,17.0566668510437,12.391000080108643,10.609444406297472,16.59000015258789,12.563333320617676,3.0340099557601414,1.9708777276033047,5.5617118257877625,9.212486165333438,9.835921294256789,12.829999923706056,13.080849945290883,9.278311185024977,9.075131361913682,12.062642293361822,8.072840619176626,3.0340099557601414,1.9708777276033047,5.5617118257877625,9.212486165333438,9.835921294256789,12.829999923706056,13.080849945290883,9.278311185024977,9.075131361913682,12.062642293361822,8.072840619176626,0,0,305.8941504183269,490.1438737249955,706.5341421986449,719.3641421223509,797.8492417940963,890.632353644346,1053.9847181587922,1090.1726450388776,1090.1726450388776,0,0,0.6866454553604127,0.9814499998092652,0.9529090924696489,1,1,0.847450008392334,0.709416667620341,0.9448333422342936,0.06666666666666667,1,1,1,1,1,1,1,1,1,1,1,0.23296667098999027,0.11844736965079058,0.6866454553604127,0.9814499998092652,0.9529090924696489,1,1,0.847450008392334,0.709416667620341,0.9448333422342936,0.7528666687011719,1,1,1,1,1,1,0.9955019896635212,1,1,1,1,2017-04-06T12:00:00Z,2017-04-21T12:00:00Z,2017-05-10T12:00:00Z,2017-07-04T12:00:00Z,2017-07-24T12:00:00Z,2017-08-15T12:00:00Z,2017-08-16T12:00:00Z,2017-08-22T12:00:00Z,2017-09-01T12:00:00Z,2017-09-19T12:00:00Z,2017-09-22T12:00:00Z,2017-04-20T12:00:00Z,2017-05-09T12:00:00Z,2017-07-03T12:00:00Z,2017-07-23T12:00:00Z,2017-08-14T12:00:00Z,2017-08-15T12:00:00Z,2017-08-21T12:00:00Z,2017-08-31T12:00:00Z,2017-09-18T12:00:00Z,2017-09-21T12:00:00Z,2017-10-06T12:00:00Z,96,111,130,185,205,227,228,234,244,262,265,14,18,54,19,21,0,5,9,17,2,14,110,129,184,204,226,227,233,243,261,264,279
250,eastlansing_mi,42.6296,-84.4375,2.5,2017,8,2017,mid2,1300.4167008574425,11,2017-04-06,2017-04-20,161,2017-09-28,2017-10-05,2017-10-19,Harvested at Maturity.,4.227333385248979,2.8584210437379385,2.2668852486693467,2.113181835802441,2.340454524382949,0,0.41099999807775023,0.8163636536760763,0.8284615318362529,2.048571470592703,9.790666552384694,4.227333385248979,2.8584210437379385,2.2668852486693467,2.113181835802441,2.340454524382949,0,0.41099999807775023,0.8163636536760763,0.8284615318362529,2.048571470592703,9.790666552384694,16.22000001271566,18.69947378258956,22.89327868477243,21.41590907356956,19.486363757740367,19.290000915527344,17.893000030517577,16.651818102056332,15.886153808006874,15.660000256129674,10.213333344459533,16.936000061035156,15.107368419044896,23.516393426988945,27.948181759227406,27.69681826504794,24.530000686645508,24.57400016784668,23.133636474609375,30.586153763991135,23.051428386143275,20.9953332901001,10.626000027855238,9.147631576186733,17.784672123486878,22.09181820262562,21.501591032201592,18.75500011444092,17.883000135421753,16.178181821649726,23.63115384028508,15.812142712729317,15.344000069300334,4.315999994675319,3.1878947333285685,12.052950819984812,16.235454646023836,15.306363799355248,12.979999542236328,11.192000102996827,9.222727168690074,16.676153916579025,8.57285703931536,9.69266684850057,3.0340099557601414,1.9708777276033047,4.906130086394795,8.496615572800877,10.504508255256933,8.755000114440918,8.866777310415506,7.9978769710426985,12.720789746508691,7.7857756627065795,5.225452530618509,3.0340099557601414,1.9708777276033047,4.906130086394795,8.496615572800877,10.504508255256933,8.755000114440918,8.866777310415506,7.9978769710426985,12.720789746508691,7.7857756627065795,5.225452530618509,0,0,299.2739352700825,486.1994778717018,717.298659487354,726.053659601795,814.72143270595,902.6980793874196,1068.0683460920327,1122.5687757309788,1122.5687757309788,0,0,0.713467212974048,0.9826136415654962,0.9645227258855646,0.8755000114440918,0.777450008392334,0.5994545459747315,0.9872692328232985,0.5747857093811035,0.057433331807454434,1,1,1,1,1,1,1,1,1,1,1,0.23296667098999027,0.11844736965079058,0.713467212974048,0.9826136415654962,0.9645227258855646,0.8755000114440918,0.777450008392334,0.5994545459747315,0.9872692328232985,0.5747857093811035,0.5371333360671997,1,1,1,0.9999999999999999,0.9934411346110098,1,0.9834409198976248,1,0.9999889869543519,1,1,2017-04-06T12:00:00Z,2017-04-21T12:00:00Z,2017-05-10T12:00:00Z,2017-07-10T12:00:00Z,2017-08-01T12:00:00Z,2017-08-23T12:00:00Z,2017-08-24T12:00:00Z,2017-09-03T12:00:00Z,2017-09-14T12:00:00Z,2017-09-27T12:00:00Z,2017-10-04T12:00:00Z,2017-04-20T12:00:00Z,2017-05-09T12:00:00Z,2017-07-09T12:00:00Z,2017-07-31T12:00:00Z,2017-08-22T12:00:00Z,2017-08-23T12:00:00Z,2017-09-02T12:00:00Z,2017-09-13T12:00:00Z,2017-09-26T12:00:00Z,2017-10-03T12:00:00Z,2017-10-18T12:00:00Z,96,111,130,191,213,235,236,246,257,270,277,14,18,60,21,21,0,9,10,12,6,14,110,129,190,212,234,235,245,256,269,276,291
251,eastlansing_mi,42.6296,-84.4375,-1.5,2018,8,2018,mid000,208.080377292641,11,2018-04-19,2018-05-03,84,2018-07-26,2018-07-30,2018-08-13,Harvested at Maturity.,2.1593333028256896,5.702000024542213,NA,4.021052657479518,2.3875999703258275,9.390000343322754,0.2699999992425243,0.01374999969266355,2.6615384427400737,0.7450000112876296,3.4106666256984073,2.1593333028256896,5.702000024542213,NA,4.021052657479518,2.3875999703258275,9.390000343322754,0.2699999992425243,0.01374999969266355,2.6615384427400737,0.7450000112876296,3.4106666256984073,21.87733325958252,18.43800015449524,NA,21.4042104419909,19.908400039672852,11.210000038146973,28.016666730244953,28.644999742507935,19.81615367302528,23.290000438690186,20.19199988047282,16.215999857584634,19.185999965667726,NA,24.89421051426938,24.386399993896486,24.63999938964844,29.60166645050049,27.071249961853027,26.512307680570164,25.84000015258789,28.429333368937176,9.439999917522073,12.938999974727631,NA,18.82342102653102,18.918400011062623,21.114999771118164,24.362499713897705,21.039374887943268,21.70076924103957,20.27375030517578,22.76766675313314,2.6639999774595102,6.691999983787537,NA,12.752631538792661,13.45040002822876,17.59000015258789,19.123332977294922,15.007499814033508,16.889230801508976,14.707500457763672,17.1060001373291,2.608182632396035,3.9528843899857997,NA,8.512552292930554,8.14867535560177,10.16460682708879,13.179098569800649,10.598899234952071,11.343671039951172,10.37195328662599,11.95932292435646,2.608182632396035,3.9528843899857997,NA,8.512552292930554,8.14867535560177,10.16460682708879,13.179098569800649,10.598899234952071,11.343671039951172,10.37195328662599,11.95932292435646,0,0,NA,161.73849356568053,365.4553774557247,375.6199842828135,454.6945757016174,539.485769581234,686.9534931005995,728.4413062471035,728.4413062471035,0,0,NA,0.7751315769396331,0.8241199998855591,1,1,0.9271875023841858,0.9828461536994347,0.9491250038146973,0.06666666666666667,1,1,NA,1,1,1,1,1,1,1,1,0.17319999052832524,0.3367999994754791,NA,0.7751315769396331,0.8241199998855591,1,1,0.9271875023841858,0.9828461536994347,0.9491250038146973,1,1,1,NA,1,1,0.9999999999999998,0.9999999999999999,0.9999999999999999,1,1,1,2018-04-19T12:00:00Z,2018-05-04T12:00:00Z,NA,2018-05-14T12:00:00Z,2018-06-02T12:00:00Z,2018-06-27T12:00:00Z,2018-06-28T12:00:00Z,2018-07-04T12:00:00Z,2018-07-12T12:00:00Z,2018-07-25T12:00:00Z,2018-07-29T12:00:00Z,2018-05-03T12:00:00Z,2018-05-13T12:00:00Z,NA,2018-06-01T12:00:00Z,2018-06-26T12:00:00Z,2018-06-27T12:00:00Z,2018-07-03T12:00:00Z,2018-07-11T12:00:00Z,2018-07-24T12:00:00Z,2018-07-28T12:00:00Z,2018-08-12T12:00:00Z,109,124,NA,134,153,178,179,185,193,206,210,14,9,0,18,24,0,5,7,12,3,14,123,133,NA,152,177,178,184,192,205,209,224
252,eastlansing_mi,42.6296,-84.4375,-0.5,2018,8,2018,mid00,821.566715690583,11,2018-04-19,2018-05-03,111,2018-08-22,2018-08-26,2018-09-09,Harvested at Maturity.,2.1593333028256896,5.702000024542213,3.3251351250990018,1.4217647328315413,1.8247368291608597,2.1700000762939453,2.1799999975732396,5.838333234190941,1.4599999754379194,3.0674999430775642,5.746000043054422,2.1593333028256896,5.702000024542213,3.3251351250990018,1.4217647328315413,1.8247368291608597,2.1700000762939453,2.1799999975732396,5.838333234190941,1.4599999754379194,3.0674999430775642,5.746000043054422,21.87733325958252,18.43800015449524,21.239729752411712,22.45823517967673,22.588420918113307,22.18000030517578,19.935714312962123,20.27499993642171,18.294999917348225,18.925000190734863,15.313333320617676,16.215999857584634,19.185999965667726,24.771351376095335,26.523529164931354,26.687368493331107,25.84000015258789,26.109999792916433,29.65666675567627,28.43583345413208,25.05500030517578,27.281333287556965,9.439999917522073,12.938999974727631,18.989729745967967,21.363529205322266,21.30763161809821,20.80500030517578,20.45642852783203,24.22916682561239,22.974166830380756,19.59250020980835,22.37800006866455,2.6639999774595102,6.691999983787537,13.208108115840602,16.203529245713177,15.927894742865313,15.770000457763672,14.80285726274763,18.801666895548504,17.512500206629436,14.130000114440918,17.474666849772134,2.608182632396035,3.9528843899857997,7.989780416238121,9.80265910321709,10.349541475358839,10.40116602676602,10.379946943764029,13.949140615614255,12.970535318823655,9.748142985467613,11.326683763806026,2.608182632396035,3.9528843899857997,7.989780416238121,9.80265910321709,10.349541475358839,10.40116602676602,10.379946943764029,13.949140615614255,12.970535318823655,9.748142985467613,11.326683763806026,0,0,295.6218754008104,462.2670801555009,658.9083681873187,669.3095342140847,741.969162820433,825.6640065141185,981.3104303400024,1020.3030022818728,1020.3030022818728,0,0,0.7995540548015285,0.9106764653149774,0.9715789493761565,1,0.9709285736083985,1,1,0.9333750009536743,0.06666666666666667,1,1,1,1,1,1,1,1,1,1,1,0.17319999052832524,0.3367999994754791,0.7995540548015285,0.9106764653149774,0.9715789493761565,1,0.9709285736083985,1,1,0.9333750009536743,0.9222666645050049,1,1,1,1,0.9999999999999999,1,0.9999999999999999,1,0.9999999999999999,1,1,2018-04-19T12:00:00Z,2018-05-04T12:00:00Z,2018-05-14T12:00:00Z,2018-06-20T12:00:00Z,2018-07-07T12:00:00Z,2018-07-26T12:00:00Z,2018-07-27T12:00:00Z,2018-08-03T12:00:00Z,2018-08-09T12:00:00Z,2018-08-21T12:00:00Z,2018-08-25T12:00:00Z,2018-05-03T12:00:00Z,2018-05-13T12:00:00Z,2018-06-19T12:00:00Z,2018-07-06T12:00:00Z,2018-07-25T12:00:00Z,2018-07-26T12:00:00Z,2018-08-02T12:00:00Z,2018-08-08T12:00:00Z,2018-08-20T12:00:00Z,2018-08-24T12:00:00Z,2018-09-08T12:00:00Z,109,124,134,171,188,207,208,215,221,233,237,14,9,36,16,18,0,6,5,11,3,14,123,133,170,187,206,207,214,220,232,236,251
253,eastlansing_mi,42.6296,-84.4375,0.5,2018,8,2018,mid0,864.5028840362722,11,2018-04-19,2018-05-03,115,2018-08-26,2018-08-28,2018-09-11,Harvested at Maturity.,2.1593333028256896,5.702000024542213,3.291025634377431,1.0472222414488594,1.8914999897591769,0.03999999910593033,2.4849999994039536,5.959999900311232,2.183076884884101,6.700000286102295,4.938000006973743,2.1593333028256896,5.702000024542213,3.291025634377431,1.0472222414488594,1.8914999897591769,0.03999999910593033,2.4849999994039536,5.959999900311232,2.183076884884101,6.700000286102295,4.938000006973743,21.87733325958252,18.43800015449524,20.95974359756861,24.552777661217583,21.472499990463255,18.719999313354492,20.573333263397217,18.66166655222575,17.884615384615383,11.724999904632568,15.066666666666666,16.215999857584634,19.185999965667726,24.683589739677235,26.91388871934679,26.473000049591064,26.799999237060547,28.753333409627277,28.593333562215168,27.31153854956994,29.300000190734863,25.877333196004233,9.439999917522073,12.938999974727631,18.969999991930447,21.331388738420273,21.303250074386597,21.12999963760376,22.882500012715656,23.266666889190674,22.015000159923847,23.922500133514404,21.175333340962727,2.6639999774595102,6.691999983787537,13.256410244183662,15.748888757493761,16.13350009918213,15.460000038146973,17.011666615804035,17.94000021616618,16.718461770277756,18.545000076293945,16.473333485921223,2.608182632396035,3.9528843899857997,7.350843837732563,9.014642152250365,9.822891910783264,10.413124084255074,12.127388959338553,13.220881341465203,12.059538080227833,13.907172406983376,9.915751652654011,2.608182632396035,3.9528843899857997,7.350843837732563,9.014642152250365,9.822891910783264,10.413124084255074,12.127388959338553,13.220881341465203,12.059538080227833,13.907172406983376,9.915751652654011,0,0,286.68290967157003,448.9464684120767,645.4043066277419,655.817430711997,728.5817644680282,807.9070525168194,964.6810475597812,992.495392373748,992.495392373748,0,0,0.8026794855411237,0.9135277801089817,0.9786750006675721,1,1,1,0.9795000002934383,1,0.06666666666666667,1,1,1,1,1,1,1,1,1,1,1,0.17319999052832524,0.3367999994754791,0.8026794855411237,0.9135277801089817,0.9786750006675721,1,1,1,0.9795000002934383,1,0.8542999935150146,1,1,1,1,1,1,0.9999999999999999,1,1,0.9999999999999998,1,2018-04-19T12:00:00Z,2018-05-04T12:00:00Z,2018-05-14T12:00:00Z,2018-06-22T12:00:00Z,2018-07-10T12:00:00Z,2018-07-30T12:00:00Z,2018-07-31T12:00:00Z,2018-08-06T12:00:00Z,2018-08-12T12:00:00Z,2018-08-25T12:00:00Z,2018-08-27T12:00:00Z,2018-05-03T12:00:00Z,2018-05-13T12:00:00Z,2018-06-21T12:00:00Z,2018-07-09T12:00:00Z,2018-07-29T12:00:00Z,2018-07-30T12:00:00Z,2018-08-05T12:00:00Z,2018-08-11T12:00:00Z,2018-08-24T12:00:00Z,2018-08-26T12:00:00Z,2018-09-10T12:00:00Z,109,124,134,173,191,211,212,218,224,237,239,14,9,38,17,19,0,5,5,12,1,14,123,133,172,190,210,211,217,223,236,238,253
254,eastlansing_mi,42.6296,-84.4375,1.5,2018,8,2018,mid1,1143.7587920679723,11,2018-04-19,2018-05-03,127,2018-09-07,2018-09-13,2018-09-27,Harvested at Maturity.,2.1593333028256896,5.702000024542213,3.163260871584973,0.8559999930672347,3.2940908787264065,NA,0.6471428477338382,3.0612499453127384,7.029166719565789,0.5233333402623733,2.2573333772520225,2.1593333028256896,5.702000024542213,3.163260871584973,0.8559999930672347,3.2940908787264065,NA,0.6471428477338382,3.0612499453127384,7.029166719565789,0.5233333402623733,2.2573333772520225,21.87733325958252,18.43800015449524,20.54630435031393,26.741499805450438,19.039090936834164,NA,20.3628568649292,16.762500166893005,16.480833292007446,12.210000038146973,15.50799986521403,16.215999857584634,19.185999965667726,24.692608667456586,27.998999881744385,26.98681822690097,NA,28.977143151419504,26.263750076293945,28.975833415985107,20.66499964396159,26.02266654968262,9.439999917522073,12.938999974727631,18.993804335594177,22.44574990272522,21.81113641912287,NA,23.33500017438616,21.032500207424164,23.697916825612385,16.43916646639506,19.85399996439616,2.6639999774595102,6.691999983787537,13.295000003731769,16.892499923706055,16.63545461134477,NA,17.69285719735282,15.801250338554382,18.420000235239666,12.213333288828533,13.6853333791097,2.608182632396035,3.9528843899857997,6.538137390633282,9.10709605070264,10.240669908685467,NA,13.182760454058247,11.110321595253795,13.55848551087131,7.281866606635849,9.319164369173448,2.608182632396035,3.9528843899857997,6.538137390633282,9.10709605070264,10.240669908685467,NA,13.182760454058247,11.110321595253795,13.55848551087131,7.281866606635849,9.319164369173448,0,0,300.75431996913085,482.89624098318376,708.190978974264,NA,800.4703021526717,889.3528749147022,1052.054701045158,1095.7459006849729,1095.7459006849729,0,0,0.811532607804174,0.9667249989509583,0.9843863660638983,NA,1,0.9666875004768372,0.9753750046094258,0.6439166466395061,0.055433333714803065,1,1,1,1,1,NA,1,1,1,1,1,0.17319999052832524,0.3367999994754791,0.811532607804174,0.9667249989509583,0.9843863660638983,NA,1,0.9666875004768372,0.9753750046094258,0.6439166466395061,0.8466666730244955,1,1,1,1,0.9999999999999999,NA,0.9999999999999999,1,1,1,1,2018-04-19T12:00:00Z,2018-05-04T12:00:00Z,2018-05-14T12:00:00Z,2018-06-29T12:00:00Z,2018-07-19T12:00:00Z,NA,2018-08-10T12:00:00Z,2018-08-17T12:00:00Z,2018-08-25T12:00:00Z,2018-09-06T12:00:00Z,2018-09-12T12:00:00Z,2018-05-03T12:00:00Z,2018-05-13T12:00:00Z,2018-06-28T12:00:00Z,2018-07-18T12:00:00Z,2018-08-09T12:00:00Z,NA,2018-08-16T12:00:00Z,2018-08-24T12:00:00Z,2018-09-05T12:00:00Z,2018-09-11T12:00:00Z,2018-09-26T12:00:00Z,109,124,134,180,200,NA,222,229,237,249,255,14,9,45,19,21,0,6,7,11,5,14,123,133,179,199,221,NA,228,236,248,254,269
255,eastlansing_mi,42.6296,-84.4375,2.5,2018,8,2018,mid2,1237.3917167315217,11,2018-04-19,2018-05-03,139,2018-09-19,2018-09-24,2018-10-08,Harvested at Maturity.,2.1593333028256896,5.702000024542213,2.939600001834333,1.4542307613704066,3.0884999580681325,0.5199999809265137,3.7942857444286346,7.897142915321248,1.4193749881815165,5.156000143289566,5.568666636943817,2.1593333028256896,5.702000024542213,2.939600001834333,1.4542307613704066,3.0884999580681325,0.5199999809265137,3.7942857444286346,7.897142915321248,1.4193749881815165,5.156000143289566,5.568666636943817,21.87733325958252,18.43800015449524,21.12480001449585,23.361153712639442,19.309499883651732,18.3700008392334,16.592857224600657,16.00857135227748,16.091874957084656,14.409999656677247,9.912000020345053,16.215999857584634,19.185999965667726,25.091599960327148,26.727307686438927,28.443000030517577,29.030000686645508,26.187143053327286,28.352857317243302,25.883124709129333,25.911999893188476,20.599333318074546,9.439999917522073,12.938999974727631,19.48989996433258,21.343076926011307,22.947000074386597,23.160000801086422,20.782857281821116,22.759286063058035,20.608437329530716,20.034999942779542,14.874666674931843,2.6639999774595102,6.691999983787537,13.888199968338013,15.958846165583685,17.451000118255614,17.290000915527344,15.378571510314941,17.165714808872767,15.333749949932098,14.157999992370605,9.150000031789144,2.608182632396035,3.9528843899857997,5.83537699350937,7.580865741108989,11.223863183830225,12.945868932473706,10.86330875875795,12.68302279743382,10.925433884765953,10.595225715394019,4.972242256879012,2.608182632396035,3.9528843899857997,5.83537699350937,7.580865741108989,11.223863183830225,12.945868932473706,10.86330875875795,12.68302279743382,10.925433884765953,10.595225715394019,4.972242256879012,0,0,291.7688496754685,488.87135894430224,713.3486226209067,726.2944915533803,802.3376528646861,891.1188124467228,1065.925754602978,1118.901883179948,1118.901883179948,0,0,0.8266099991798401,0.9611923089394203,1,1,0.9619285719735282,0.9577857221875872,0.8532187432050705,0.8586999988555908,0.03596666971842448,1,1,1,1,1,1,1,1,1,1,1,0.17319999052832524,0.3367999994754791,0.8266099991798401,0.9611923089394203,1,1,0.9619285719735282,0.9577857221875872,0.8532187432050705,0.8586999988555908,0.46670000076293944,1,1,1,0.9999999999999999,0.9997488106960959,0.9999999999999998,1,1,1,0.9999999999999999,1,2018-04-19T12:00:00Z,2018-05-04T12:00:00Z,2018-05-14T12:00:00Z,2018-07-03T12:00:00Z,2018-07-29T12:00:00Z,2018-08-18T12:00:00Z,2018-08-19T12:00:00Z,2018-08-26T12:00:00Z,2018-09-02T12:00:00Z,2018-09-18T12:00:00Z,2018-09-23T12:00:00Z,2018-05-03T12:00:00Z,2018-05-13T12:00:00Z,2018-07-02T12:00:00Z,2018-07-28T12:00:00Z,2018-08-17T12:00:00Z,2018-08-18T12:00:00Z,2018-08-25T12:00:00Z,2018-09-01T12:00:00Z,2018-09-17T12:00:00Z,2018-09-22T12:00:00Z,2018-10-07T12:00:00Z,109,124,134,184,210,230,231,238,245,261,266,14,9,49,25,19,0,6,6,15,4,14,123,133,183,209,229,230,237,244,260,265,280
256,eastlansing_mi,42.6296,-84.4375,-1.5,2019,8,2019,mid000,224.41383001322905,11,2019-04-22,2019-05-06,91,2019-08-05,2019-08-08,2019-08-22,Harvested at Maturity.,4.296666633586089,3.1883333126703897,NA,4.66448273124366,4.297894689793649,3.559999942779541,0.387500009033829,3.938333441813787,1.557857161121709,2.2333333492279053,1.692000009616216,4.296666633586089,3.1883333126703897,NA,4.66448273124366,4.297894689793649,3.559999942779541,0.387500009033829,3.938333441813787,1.557857161121709,2.2333333492279053,1.692000009616216,16.410000165303547,16.00750009218852,NA,18.30103431898972,23.165789553993626,18.15999984741211,26.44125008583069,19.81166664759318,23.272857393537247,20.753333409627277,19.77333335876465,15.953999996185303,17.601666688919067,NA,21.615172386169434,26.343157818442897,28.299999237060547,26.669999837875366,29.00666618347168,26.329285757882253,27.136666615804035,28.126666641235353,9.556666678190231,11.55166670680046,NA,15.869655181621683,21.356578902194375,23.299999237060547,20.279999911785126,24.97083282470703,20.99571418762207,22.458333333333332,22.449666754404703,3.15933336019516,5.501666724681854,NA,10.124137977073932,16.369999985945853,18.299999237060547,13.889999985694885,20.934999465942383,15.662142617361887,17.780000050862633,16.772666867574056,2.211187043134856,3.0530963701533773,NA,5.7299570120430765,10.413262475992525,12.373127340325182,9.939280938426606,14.363939439427293,11.103065197306067,12.458333333333332,11.645807081463337,2.211187043134856,3.0530963701533773,NA,5.7299570120430765,10.413262475992525,12.373127340325182,9.939280938426606,14.363939439427293,11.103065197306067,12.458333333333332,11.645807081463337,0,0,NA,166.16875334924922,364.0207403931072,376.3938677334324,455.9081152408452,542.091751877409,697.534664639694,734.909664639694,734.909664639694,0,0,NA,0.5895172423329846,0.913710523906507,1,0.9438125014305114,1,0.9513928583690099,1,0.06666666666666667,1,1,NA,1,1,1,1,1,1,1,1,0.12836666663487753,0.23666666944821677,NA,0.5895172423329846,0.913710523906507,1,0.9438125014305114,1,0.9513928583690099,1,0.9935333347320556,1,1,NA,1,1,1,1,0.9999999999999999,0.9999999999999999,0.9999999999999999,1,2019-04-22T12:00:00Z,2019-05-07T12:00:00Z,NA,2019-05-19T12:00:00Z,2019-06-17T12:00:00Z,2019-07-06T12:00:00Z,2019-07-07T12:00:00Z,2019-07-15T12:00:00Z,2019-07-21T12:00:00Z,2019-08-04T12:00:00Z,2019-08-07T12:00:00Z,2019-05-06T12:00:00Z,2019-05-18T12:00:00Z,NA,2019-06-16T12:00:00Z,2019-07-05T12:00:00Z,2019-07-06T12:00:00Z,2019-07-14T12:00:00Z,2019-07-20T12:00:00Z,2019-08-03T12:00:00Z,2019-08-06T12:00:00Z,2019-08-21T12:00:00Z,112,127,NA,139,168,187,188,196,202,216,219,14,11,0,28,18,0,7,5,13,2,14,126,138,NA,167,186,187,195,201,215,218,233
257,eastlansing_mi,42.6296,-84.4375,-0.5,2019,8,2019,mid00,799.3016703048945,11,2019-04-22,2019-05-06,120,2019-09-03,2019-09-07,2019-09-21,Harvested at Maturity.,4.296666633586089,3.1883333126703897,4.60177773974008,1.6573333494365214,2.18176474729005,0.8899999856948853,1.2114285911832536,1.7933333367109299,2.7393333693345387,0.7025000187568367,2.999333307147026,4.296666633586089,3.1883333126703897,4.60177773974008,1.6573333494365214,2.18176474729005,0.8899999856948853,1.2114285911832536,1.7933333367109299,2.7393333693345387,0.7025000187568367,2.999333307147026,16.410000165303547,16.00750009218852,20.066888840993247,23.93733329772949,22.54058843500474,23.290000915527344,22.088571548461914,18.88333336512248,18.24066670735677,15.847500085830688,13.901999950408936,15.953999996185303,17.601666688919067,23.1013332578871,27.551999918619792,26.989999883315143,27.149999618530273,27.030000141688756,28.34333324432373,26.17799987792969,25.37999963760376,25.698000081380208,9.556666678190231,11.55166670680046,17.57611108356052,22.090333207448325,21.94235274370979,22.164999961853027,21.353571551186697,22.615833441416424,20.400666681925458,19.15999972820282,20.01633332570394,3.15933336019516,5.501666724681854,12.050888909233942,16.628666496276857,16.894705604104434,17.18000030517578,15.677142960684641,16.888333638509113,14.623333485921224,12.93999981880188,14.33466657002767,2.211187043134856,3.0530963701533773,6.74920982682334,10.777211827950769,11.433430583826746,12.164999961853027,11.435105296623707,12.615350897119443,10.72839321735859,9.634688420370221,9.422666676839192,2.211187043134856,3.0530963701533773,6.74920982682334,10.777211827950769,11.433430583826746,12.164999961853027,11.435105296623707,12.615350897119443,10.72839321735859,9.634688420370221,9.422666676839192,0,0,303.71444220705024,465.3726196263118,659.7409395513664,671.9059395132194,751.9516765895854,827.6437819723021,988.5696802326808,1027.1084339141617,1027.1084339141617,0,0,0.6990333329306708,0.9700333340962728,0.959970589245067,1,0.9861428601401193,1,0.9068333339691163,0.8641249895095826,0.05936666488647461,1,1,1,1,1,1,1,1,1,1,1,0.12836666663487753,0.23666666944821677,0.6990333329306708,0.9700333340962728,0.959970589245067,1,0.9861428601401193,1,0.9068333339691163,0.8641249895095826,0.9244000053405762,1,1,1,1,1,1,0.9999999999999999,0.9999999999999999,1,0.9999999999999998,1,2019-04-22T12:00:00Z,2019-05-07T12:00:00Z,2019-05-19T12:00:00Z,2019-07-03T12:00:00Z,2019-07-18T12:00:00Z,2019-08-04T12:00:00Z,2019-08-05T12:00:00Z,2019-08-12T12:00:00Z,2019-08-18T12:00:00Z,2019-09-02T12:00:00Z,2019-09-06T12:00:00Z,2019-05-06T12:00:00Z,2019-05-18T12:00:00Z,2019-07-02T12:00:00Z,2019-07-17T12:00:00Z,2019-08-03T12:00:00Z,2019-08-04T12:00:00Z,2019-08-11T12:00:00Z,2019-08-17T12:00:00Z,2019-09-01T12:00:00Z,2019-09-05T12:00:00Z,2019-09-20T12:00:00Z,112,127,139,184,199,216,217,224,230,245,249,14,11,44,14,16,0,6,5,14,3,14,126,138,183,198,215,216,223,229,244,248,263
258,eastlansing_mi,42.6296,-84.4375,0.5,2019,8,2019,mid0,806.4460752426271,11,2019-04-22,2019-05-06,123,2019-09-06,2019-09-10,2019-09-24,Harvested at Maturity.,4.296666633586089,3.1883333126703897,4.521086918999967,1.7113333535691102,2.215263194943729,NA,0.6671428765569415,2.3183333228031793,2.4212500399444252,0.33000000985339284,4.0733333140611645,4.296666633586089,3.1883333126703897,4.521086918999967,1.7113333535691102,2.215263194943729,NA,0.6671428765569415,2.3183333228031793,2.4212500399444252,0.33000000985339284,4.0733333140611645,16.410000165303547,16.00750009218852,20.11739124422488,23.459333356221517,22.64368438720703,NA,21.915714536394393,18.356666564941406,17.68625009059906,13.952499985694885,14.345999908447265,15.953999996185303,17.601666688919067,23.213912984599236,27.575333150227866,26.926842037000153,NA,27.775714329310826,28.074999809265137,25.713124871253967,23.994999885559082,26.327333450317383,9.556666678190231,11.55166670680046,17.724239110946655,22.081666469573975,21.901841966729414,NA,21.689285891396658,22.641666571299236,19.849062502384186,18.03374993801117,20.70366668701172,3.15933336019516,5.501666724681854,12.234565237294072,16.587999788920083,16.876841896458675,NA,15.60285745348249,17.208333333333336,13.985000133514404,12.072499990463257,15.079999923706055,2.211187043134856,3.0530963701533773,6.323395097063755,10.024069382670683,10.941208834563977,NA,11.760950718757025,12.641666571299236,10.195246269929783,8.663438219432532,10.217333316802979,2.211187043134856,3.0530963701533773,6.323395097063755,10.024069382670683,10.941208834563977,NA,11.760950718757025,12.641666571299236,10.195246269929783,8.663438219432532,10.217333316802979,0,0,290.87617446493266,441.2372152049928,649.1201830617083,NA,731.4468380930076,807.296837520803,970.4207778396794,1005.0745307174096,1005.0745307174096,0,0,0.7055760865626128,0.9700333340962728,0.9641842114297967,NA,0.9861428601401193,1,0.8952499985694886,0.803374993801117,0.04863333702087402,1,1,1,1,1,NA,1,1,1,1,1,0.12836666663487753,0.23666666944821677,0.7055760865626128,0.9700333340962728,0.9641842114297967,NA,0.9861428601401193,1,0.8952499985694886,0.803374993801117,0.9421666717529297,1,1,1,1,0.9999999999999999,NA,1,0.9999999999999999,0.9999999999999999,1,1,2019-04-22T12:00:00Z,2019-05-07T12:00:00Z,2019-05-19T12:00:00Z,2019-07-04T12:00:00Z,2019-07-19T12:00:00Z,NA,2019-08-07T12:00:00Z,2019-08-14T12:00:00Z,2019-08-20T12:00:00Z,2019-09-05T12:00:00Z,2019-09-09T12:00:00Z,2019-05-06T12:00:00Z,2019-05-18T12:00:00Z,2019-07-03T12:00:00Z,2019-07-18T12:00:00Z,2019-08-06T12:00:00Z,NA,2019-08-13T12:00:00Z,2019-08-19T12:00:00Z,2019-09-04T12:00:00Z,2019-09-08T12:00:00Z,2019-09-23T12:00:00Z,112,127,139,185,200,NA,219,226,232,248,252,14,11,45,14,18,0,6,5,15,3,14,126,138,184,199,218,NA,225,231,247,251,266
259,eastlansing_mi,42.6296,-84.4375,1.5,2019,8,2019,mid1,1064.6246175526217,11,2019-04-22,2019-05-06,138,2019-09-21,2019-09-25,2019-10-09,Harvested at Maturity.,4.296666633586089,3.1883333126703897,4.296538429263119,1.873888935479853,1.5242857246526649,NA,1.4975000058766454,3.652500061551109,2.804705863708959,4.357500035781413,6.4213333876182634,4.296666633586089,3.1883333126703897,4.296538429263119,1.873888935479853,1.5242857246526649,NA,1.4975000058766454,3.652500061551109,2.804705863708959,4.357500035781413,6.4213333876182634,16.410000165303547,16.00750009218852,20.544999920404873,23.03444454405043,21.595714523678733,NA,19.361250042915344,17.167500138282776,13.945294071646298,14.819999694824219,10.906000057856241,15.953999996185303,17.601666688919067,23.72076916694641,27.227777587042915,27.357619058518182,NA,27.079999923706055,25.429999828338623,25.305882397819968,27.47249984741211,21.042000325520835,9.556666678190231,11.55166670680046,18.207211503615746,22.100555340449016,21.811904793693905,NA,21.295625030994415,19.598124980926514,19.63852938483743,21.74624991416931,15.741333452860514,3.15933336019516,5.501666724681854,12.693653840285082,16.973333093855118,16.26619052886963,NA,15.511250138282776,13.766250133514404,13.971176371854893,16.019999980926514,10.440666580200196,2.211187043134856,3.0530963701533773,5.965309014421216,9.491938516964785,11.066356586836783,NA,11.61015483456403,9.898082431294025,9.938868282921524,11.852517903521658,5.560473417559464,2.211187043134856,3.0530963701533773,5.965309014421216,9.491938516964785,11.066356586836783,NA,11.61015483456403,9.898082431294025,9.938868282921524,11.852517903521658,5.560473417559464,0,0,310.1960687499031,481.0509620552692,713.4444503788418,NA,806.325689055354,885.5103485057061,1054.471109315372,1101.8811809294589,1101.8811809294589,0,0,0.7343942298338964,0.9620555559794108,0.9868571463085356,NA,0.9197500050067902,0.9055624961853028,0.9013235316557043,0.9362499952316284,0.0518333371480306,1,1,1,1,1,NA,1,1,1,1,1,0.12836666663487753,0.23666666944821677,0.7343942298338964,0.9620555559794108,0.9868571463085356,NA,0.9197500050067902,0.9055624961853028,0.9013235316557043,0.9362499952316284,0.5477000125249227,1,1,1,0.9999999999999999,0.9999999999999999,NA,1,1,0.9999999999999999,1,1,2019-04-22T12:00:00Z,2019-05-07T12:00:00Z,2019-05-19T12:00:00Z,2019-07-10T12:00:00Z,2019-07-28T12:00:00Z,NA,2019-08-18T12:00:00Z,2019-08-26T12:00:00Z,2019-09-03T12:00:00Z,2019-09-20T12:00:00Z,2019-09-24T12:00:00Z,2019-05-06T12:00:00Z,2019-05-18T12:00:00Z,2019-07-09T12:00:00Z,2019-07-27T12:00:00Z,2019-08-17T12:00:00Z,NA,2019-08-25T12:00:00Z,2019-09-02T12:00:00Z,2019-09-19T12:00:00Z,2019-09-23T12:00:00Z,2019-10-08T12:00:00Z,112,127,139,191,209,NA,230,238,246,263,267,14,11,51,17,20,0,7,7,16,3,14,126,138,190,208,229,NA,237,245,262,266,281
260,eastlansing_mi,42.6296,-84.4375,2.5,2019,8,2019,mid2,1177.1876329500406,11,2019-04-22,2019-05-06,149,2019-10-02,2019-10-10,2019-10-24,Harvested at Maturity.,4.296666633586089,3.1883333126703897,3.9226315495999238,2.206190518680073,1.4866666764553105,10.5600004196167,2.3722222387376757,4.8862499503884465,4.427777760351698,4.993750159395859,2.439999970421195,4.296666633586089,3.1883333126703897,3.9226315495999238,2.206190518680073,1.4866666764553105,10.5600004196167,2.3722222387376757,4.8862499503884465,4.427777760351698,4.993750159395859,2.439999970421195,16.410000165303547,16.00750009218852,21.062631531765586,22.284762110028947,20.133809589204333,10.09000015258789,16.955555597941082,13.291250050067902,13.323333183924357,11.055000215768814,10.410000101725261,15.953999996185303,17.601666688919067,24.017894661217404,27.133333206176758,27.424285707019624,24.270000457763672,25.37444411383735,25.007500171661377,25.046666781107586,19.452500343322754,15.073999977111816,9.556666678190231,11.55166670680046,18.447982420001114,22.187142644609725,21.692142940702894,19.625,19.47888877656725,19.508750081062317,19.351388904783462,14.301875114440918,9.613000013430913,3.15933336019516,5.501666724681854,12.878070178784823,17.24095208304269,15.960000174386161,14.979999542236328,13.583333439297146,14.009999990463257,13.656111028459337,9.151249885559082,4.1520000497500105,2.211187043134856,3.0530963701533773,5.222329672042406,8.955887359725367,10.990648146603181,9.625000000000002,9.814744537919761,9.938738154082,9.72260011369553,6.938173676579073,1.4657197211449593,2.211187043134856,3.0530963701533773,5.222329672042406,8.955887359725367,10.990648146603181,9.625000000000002,9.814744537919761,9.938738154082,9.72260011369553,6.938173676579073,1.4657197211449593,0,0,297.6727913064171,485.7464258606497,716.5500369393166,726.1750369393166,814.5077377805943,894.0176430132503,1069.02444505977,1124.5298344724024,1124.5298344724024,0,0,0.7545087718127067,0.9675952389126732,0.9648095267159599,0.9625,0.8892777707841661,0.8650625109672547,0.8654166724946764,0.3829375058412552,0.02413333574930827,1,1,1,1,1,1,1,1,1,1,1,0.12836666663487753,0.23666666944821677,0.7545087718127067,0.9675952389126732,0.9648095267159599,0.9625,0.8892777707841661,0.8650625109672547,0.8654166724946764,0.3829375058412552,0.10390000025431316,1,1,1,0.9999999999999999,0.9999999999999999,1,1,1,0.9999999999999999,1,1,2019-04-22T12:00:00Z,2019-05-07T12:00:00Z,2019-05-19T12:00:00Z,2019-07-15T12:00:00Z,2019-08-05T12:00:00Z,2019-08-26T12:00:00Z,2019-08-27T12:00:00Z,2019-09-05T12:00:00Z,2019-09-13T12:00:00Z,2019-10-01T12:00:00Z,2019-10-09T12:00:00Z,2019-05-06T12:00:00Z,2019-05-18T12:00:00Z,2019-07-14T12:00:00Z,2019-08-04T12:00:00Z,2019-08-25T12:00:00Z,2019-08-26T12:00:00Z,2019-09-04T12:00:00Z,2019-09-12T12:00:00Z,2019-09-30T12:00:00Z,2019-10-08T12:00:00Z,2019-10-23T12:00:00Z,112,127,139,196,217,238,239,248,256,274,282,14,11,56,20,20,0,8,7,17,7,14,126,138,195,216,237,238,247,255,273,281,296
261,eastlansing_mi,42.6296,-84.4375,-1.5,2020,8,2020,mid000,221.3484585105869,11,2020-04-18,2020-05-02,89,2020-07-30,2020-08-02,2020-08-16,Harvested at Maturity.,2.788666636993488,7.014117715222871,NA,1.1095238130184866,3.826086952148572,NA,0.34166666120290756,9.864285782245654,2.0115384872143083,1.5933333269009988,3.0040000185370443,2.788666636993488,7.014117715222871,NA,1.1095238130184866,3.826086952148572,NA,0.34166666120290756,9.864285782245654,2.0115384872143083,1.5933333269009988,3.0040000185370443,17.159999974568684,18.261764694662656,NA,23.63571448553176,26.181304309679113,NA,26.645000139872234,23.555714470999582,21.39230753825261,23.290000279744465,21.056666564941406,13.734666776657104,14.98882366629208,NA,23.93190456572033,25.52521738798722,NA,30.076666831970215,27.002857208251953,27.61307716369629,26.836666742960613,26.548666508992515,7.719000083208084,9.132647137431537,NA,18.1952379885174,19.645434773486592,NA,24.824166774749756,22.21071434020996,22.580769355480488,21.746666590372723,21.181000010172525,1.7033333897590637,3.2764706085709965,NA,12.458571411314464,13.765652158985967,NA,19.571666717529297,17.41857147216797,17.548461547264687,16.656666437784832,15.813333511352539,1.4852613658874978,2.1761242046195135,NA,7.88509007264181,8.925076381235643,NA,13.773494148690842,11.554435078815668,12.402201367839034,11.748632095674674,10.438333384195964,1.4852613658874978,2.1761242046195135,NA,7.88509007264181,8.925076381235643,NA,13.773494148690842,11.554435078815668,12.402201367839034,11.748632095674674,10.438333384195964,0,0,NA,165.586891525478,370.86364829389777,NA,453.5046131860428,534.3856587377525,695.6142765196598,730.8601728066839,730.8601728066839,0,0,NA,0.7429523740495955,0.837586956438811,NA,1,0.9915000029972622,1,1,0.06666666666666667,1,1,NA,1,1,NA,1,1,1,1,1,0.08543333927790324,0.16485294594484218,NA,0.7429523740495955,0.837586956438811,NA,1,0.9915000029972622,1,1,0.943033332824707,1,1,NA,1,1,NA,1,0.9999999999999999,1,0.9999999999999999,1,2020-04-18T12:00:00Z,2020-05-03T12:00:00Z,NA,2020-05-20T12:00:00Z,2020-06-10T12:00:00Z,NA,2020-07-03T12:00:00Z,2020-07-09T12:00:00Z,2020-07-16T12:00:00Z,2020-07-29T12:00:00Z,2020-08-01T12:00:00Z,2020-05-02T12:00:00Z,2020-05-19T12:00:00Z,NA,2020-06-09T12:00:00Z,2020-07-02T12:00:00Z,NA,2020-07-08T12:00:00Z,2020-07-15T12:00:00Z,2020-07-28T12:00:00Z,2020-07-31T12:00:00Z,2020-08-15T12:00:00Z,109,124,NA,141,162,NA,185,191,198,211,214,14,16,0,20,22,0,5,6,12,2,14,123,140,NA,161,184,NA,190,197,210,213,228
262,eastlansing_mi,42.6296,-84.4375,-0.5,2020,8,2020,mid00,870.1245574229353,11,2020-04-18,2020-05-02,117,2020-08-27,2020-08-29,2020-09-12,Harvested at Maturity.,2.788666636993488,7.014117715222871,2.7824999993201347,5.254615420905443,1.702352959114839,4.769999980926514,4.47125003952533,0.5285714196839503,0.6124999982615312,3.5500000715255737,5.753333380321662,2.788666636993488,7.014117715222871,2.7824999993201347,5.254615420905443,1.702352959114839,4.769999980926514,4.47125003952533,0.5285714196839503,0.6124999982615312,3.5500000715255737,5.753333380321662,17.159999974568684,18.261764694662656,24.552750086784364,26.192307839026817,22.28058812197517,23.420000076293945,18.486249923706055,24.641428538731166,22.21999994913737,18.769999504089355,15.38666682243347,13.734666776657104,14.98882366629208,24.35699987411499,29.327692325298603,27.209412069881665,27.90999984741211,24.288749933242798,28.089999880109517,28.511666297912598,32.17500114440918,24.854666900634765,7.719000083208084,9.132647137431537,18.526249927282333,24.088076958289513,22.218823685365564,23.420000076293945,19.351249933242798,22.465000016348704,22.24458320935567,26.11750030517578,19.33733345667521,1.7033333897590637,3.2764706085709965,12.695499980449677,18.848461591280422,17.228235300849466,18.93000030517578,14.413749933242798,16.84000015258789,15.977500120798746,20.059999465942383,13.820000012715658,1.4852613658874978,2.1761242046195135,7.5898824810514824,12.340894226296786,11.467396955045086,13.224569485215396,9.5806405496498,12.465000016348704,12.247849738316734,15.030061584711074,8.28066676457723,1.4852613658874978,2.1761242046195135,7.5898824810514824,12.340894226296786,11.467396955045086,13.224569485215396,9.5806405496498,12.465000016348704,12.247849738316734,15.030061584711074,8.28066676457723,0,0,303.5952992420593,464.02692418391746,658.9726724196839,672.1972419048993,748.8423663020978,836.0973664165388,983.0715632763396,1013.1316864457616,1013.1316864457616,0,0,0.7716624963283539,1,0.9965000012341667,1,0.8931874990463257,1,0.9605416615804037,1,0.06666666666666667,1,1,1,1,1,1,1,1,1,1,1,0.08543333927790324,0.16485294594484218,0.7716624963283539,1,0.9965000012341667,1,0.8931874990463257,1,0.9605416615804037,1,0.8392999966939291,1,1,1,1,1,0.9999999999999998,1,1,1,1,1,2020-04-18T12:00:00Z,2020-05-03T12:00:00Z,2020-05-20T12:00:00Z,2020-06-29T12:00:00Z,2020-07-12T12:00:00Z,2020-07-29T12:00:00Z,2020-07-30T12:00:00Z,2020-08-07T12:00:00Z,2020-08-14T12:00:00Z,2020-08-26T12:00:00Z,2020-08-28T12:00:00Z,2020-05-02T12:00:00Z,2020-05-19T12:00:00Z,2020-06-28T12:00:00Z,2020-07-11T12:00:00Z,2020-07-28T12:00:00Z,2020-07-29T12:00:00Z,2020-08-06T12:00:00Z,2020-08-13T12:00:00Z,2020-08-25T12:00:00Z,2020-08-27T12:00:00Z,2020-09-11T12:00:00Z,109,124,141,181,194,211,212,220,227,239,241,14,16,39,12,16,0,7,6,11,1,14,123,140,180,193,210,211,219,226,238,240,255
263,eastlansing_mi,42.6296,-84.4375,0.5,2020,8,2020,mid0,873.1440040576308,11,2020-04-18,2020-05-02,119,2020-08-29,2020-09-01,2020-09-15,Harvested at Maturity.,2.788666636993488,7.014117715222871,2.71463414567818,4.880000033681946,1.872777793659932,7.409999847412109,3.572500058449805,1.51166666050752,0.7375000081956387,9.506666481494904,4.312666749705871,2.788666636993488,7.014117715222871,2.71463414567818,4.880000033681946,1.872777793659932,7.409999847412109,3.572500058449805,1.51166666050752,0.7375000081956387,9.506666481494904,4.312666749705871,17.159999974568684,18.261764694662656,24.644634223565824,25.943571635654994,22.089444345898098,9.729999542236328,20.99874997138977,23.021666526794434,21.854999860127766,17.46666717529297,14.945333433151244,13.734666776657104,14.98882366629208,24.467804745929996,28.690000125340053,27.431666904025608,25.8799991607666,24.78499984741211,29.011666615804035,28.883333206176758,26.39666684468587,24.099333572387696,7.719000083208084,9.132647137431537,18.63499992068221,23.561428683144705,22.40333342552185,21.13999938964844,19.65625,23.22083346048991,22.641666571299236,21.37166674931844,18.480666828155517,1.7033333897590637,3.2764706085709965,12.80219509543442,18.432857240949357,17.374999947018093,16.399999618530273,14.52750015258789,17.43000030517578,16.39999993642171,16.34666665395101,12.86200008392334,1.4852613658874978,2.1761242046195135,7.06282246812983,11.008235783450687,11.086376578630329,10.66021465269012,9.782109800049822,13.22083346048991,12.46369331351618,11.545320603432256,7.747312988706827,1.4852613658874978,2.1761242046195135,7.06282246812983,11.008235783450687,11.086376578630329,10.66021465269012,9.782109800049822,13.22083346048991,12.46369331351618,11.545320603432256,7.747312988706827,0,0,289.5757211933231,443.6910221616327,643.2458005769787,653.9060152296688,732.1628936300674,811.4878943930069,961.052214155201,995.6881759654976,995.6881759654976,0,0,0.7772317037349794,0.995750001498631,1,1,0.8931874990463257,1,0.9605416615804037,0.9323333263397217,0.06666666666666667,1,1,1,1,1,1,1,1,1,1,1,0.08543333927790324,0.16485294594484218,0.7772317037349794,0.995750001498631,1,1,0.8931874990463257,1,0.9605416615804037,0.9323333263397217,0.7946000035603842,1,1,1,1,0.9999999999999999,0.9999999999999998,1,1,0.9999999999999999,1,1,2020-04-18T12:00:00Z,2020-05-03T12:00:00Z,2020-05-20T12:00:00Z,2020-06-30T12:00:00Z,2020-07-14T12:00:00Z,2020-08-01T12:00:00Z,2020-08-02T12:00:00Z,2020-08-10T12:00:00Z,2020-08-16T12:00:00Z,2020-08-28T12:00:00Z,2020-08-31T12:00:00Z,2020-05-02T12:00:00Z,2020-05-19T12:00:00Z,2020-06-29T12:00:00Z,2020-07-13T12:00:00Z,2020-07-31T12:00:00Z,2020-08-01T12:00:00Z,2020-08-09T12:00:00Z,2020-08-15T12:00:00Z,2020-08-27T12:00:00Z,2020-08-30T12:00:00Z,2020-09-14T12:00:00Z,109,124,141,182,196,214,215,223,229,241,244,14,16,40,13,17,0,7,5,11,2,14,123,140,181,195,213,214,222,228,240,243,258
264,eastlansing_mi,42.6296,-84.4375,1.5,2020,8,2020,mid1,1157.18767109796,11,2020-04-18,2020-05-02,136,2020-09-15,2020-09-22,2020-10-06,Harvested at Maturity.,2.788666636993488,7.014117715222871,2.419565216800117,5.341666709838642,2.0609091015701946,NA,0.7700000028125942,1.3816666832814615,5.481764746501165,0.004285714189921106,1.4893333115925391,2.788666636993488,7.014117715222871,2.419565216800117,5.341666709838642,2.0609091015701946,NA,0.7700000028125942,1.3816666832814615,5.481764746501165,0.004285714189921106,1.4893333115925391,17.159999974568684,18.261764694662656,25.091304426607877,22.418888966242474,22.156363530592486,NA,23.113749980926514,19.87833309173584,15.267058947507072,18.797143254961288,12.731333351135254,13.734666776657104,14.98882366629208,24.972391211468242,27.893889003329807,26.64227277582342,NA,27.4787495136261,31.110000292460125,24.750000224393958,20.045714242117747,19.7366668065389,7.719000083208084,9.132647137431537,19.18499995832858,23.03583335876465,21.374772787094116,NA,21.136249780654907,25.013333479563396,19.22323543885175,13.461428591183253,14.021666741371154,1.7033333897590637,3.2764706085709965,13.397608705188917,18.17777771419949,16.107272798364814,NA,14.793750047683716,18.916666666666668,13.696470653309541,6.877142940248762,8.30666667620341,1.4852613658874978,2.1761242046195135,6.65517865958978,9.910597676480888,10.3346276187105,NA,11.38050578954667,14.331712285474936,9.642623338736856,6.5187220277896945,4.472408286167283,1.4852613658874978,2.1761242046195135,6.65517865958978,9.910597676480888,10.3346276187105,NA,11.38050578954667,14.331712285474936,9.642623338736856,6.5187220277896945,4.472408286167283,0,0,306.1382183411299,484.5289765177859,711.8907841294167,NA,802.9348304457901,888.9251041586397,1052.849700917166,1098.480755111694,1098.480755111694,0,0,0.8014456489811773,0.9966944456100464,0.9611590905623002,NA,0.9408124923706055,1,0.8390000006731819,0.3499285800116403,0.029366664886474606,1,1,1,1,1,NA,1,1,1,1,1,0.08543333927790324,0.16485294594484218,0.8014456489811773,0.9966944456100464,0.9611590905623002,NA,0.9408124923706055,1,0.8390000006731819,0.3499285800116403,0.43556666692097984,1,1,1,1,0.9999999999999999,NA,0.9999999999999999,0.9999999999999999,1,1,1,2020-04-18T12:00:00Z,2020-05-03T12:00:00Z,2020-05-20T12:00:00Z,2020-07-05T12:00:00Z,2020-07-23T12:00:00Z,NA,2020-08-14T12:00:00Z,2020-08-22T12:00:00Z,2020-08-28T12:00:00Z,2020-09-14T12:00:00Z,2020-09-21T12:00:00Z,2020-05-02T12:00:00Z,2020-05-19T12:00:00Z,2020-07-04T12:00:00Z,2020-07-22T12:00:00Z,2020-08-13T12:00:00Z,NA,2020-08-21T12:00:00Z,2020-08-27T12:00:00Z,2020-09-13T12:00:00Z,2020-09-20T12:00:00Z,2020-10-05T12:00:00Z,109,124,141,187,205,NA,227,235,241,258,265,14,16,45,17,21,0,7,5,16,6,14,123,140,186,204,226,NA,234,240,257,264,279
265,eastlansing_mi,42.6296,-84.4375,2.5,2020,8,2020,mid2,1343.9508550773255,11,2020-04-18,2020-05-02,151,2020-09-30,2020-10-09,2020-10-23,Harvested at Maturity.,2.788666636993488,7.014117715222871,2.2669999988004563,4.544545490464026,1.9834782729006333,NA,5.558333260938525,2.03333329802586,2.622272794304246,1.615555526688695,3.941999928529064,2.788666636993488,7.014117715222871,2.2669999988004563,4.544545490464026,1.9834782729006333,NA,5.558333260938525,2.03333329802586,2.622272794304246,1.615555526688695,3.941999928529064,17.159999974568684,18.261764694662656,25.1678000831604,22.185454520312224,22.077391251273777,NA,18.171666463216145,17.947777960035538,14.869545622305436,12.21888886557685,8.727333482106527,13.734666776657104,14.98882366629208,25.402199935913085,27.393181974237617,26.756086764128312,NA,30.943333625793457,25.837778091430664,22.35772735422308,16.044444402058918,17.346666526794433,7.719000083208084,9.132647137431537,19.65779996395111,22.460681893608786,21.020217315010402,NA,25.321666876475017,19.754444652133518,16.252954618497327,10.92111106713613,11.16299991408984,1.7033333897590637,3.2764706085709965,13.913399991989136,17.52818181297996,15.284347865892494,NA,19.700000127156574,13.67111121283637,10.14818188277158,5.797777732213338,4.979333301385243,1.4852613658874978,2.1761242046195135,5.920608287350374,8.77519475698217,10.103365201085555,NA,14.694818848995368,10.130320814408195,7.827065449247034,5.533907927778032,2.568075481400862,1.4852613658874978,2.1761242046195135,5.920608287350374,8.77519475698217,10.103365201085555,NA,14.694818848995368,10.130320814408195,7.827065449247034,5.533907927778032,2.568075481400862,0,0,296.0304143675187,489.0846990211263,721.4620986460941,NA,809.6310117400662,900.80389906974,1072.9993389531749,1122.804510303177,1122.804510303177,0,0,0.8173299970626832,0.9972954554991289,0.9422608665798021,NA,1,0.8914444446563721,0.6186136408285662,0.15866666105058458,0.019733333587646486,1,1,1,1,1,NA,1,1,1,1,1,0.08543333927790324,0.16485294594484218,0.8173299970626832,0.9972954554991289,0.9422608665798021,NA,1,0.8914444446563721,0.6186136408285662,0.15866666105058458,0.2173333263397217,1,1,1,1,1,NA,1,1,1,1,1,2020-04-18T12:00:00Z,2020-05-03T12:00:00Z,2020-05-20T12:00:00Z,2020-07-09T12:00:00Z,2020-07-31T12:00:00Z,NA,2020-08-23T12:00:00Z,2020-08-29T12:00:00Z,2020-09-07T12:00:00Z,2020-09-29T12:00:00Z,2020-10-08T12:00:00Z,2020-05-02T12:00:00Z,2020-05-19T12:00:00Z,2020-07-08T12:00:00Z,2020-07-30T12:00:00Z,2020-08-22T12:00:00Z,NA,2020-08-28T12:00:00Z,2020-09-06T12:00:00Z,2020-09-28T12:00:00Z,2020-10-07T12:00:00Z,2020-10-22T12:00:00Z,109,124,141,191,213,NA,236,242,251,273,282,14,16,49,21,22,0,5,8,21,8,14,123,140,190,212,235,NA,241,250,272,281,296
266,eastlansing_mi,42.6296,-84.4375,-1.5,2021,8,2021,mid000,167.1538238523884,11,2021-03-12,2021-03-26,114,2021-07-18,2021-07-22,2021-08-05,Harvested at Maturity.,2.180000011747082,1.4271428614322628,NA,1.0473333480871385,1.9686956264726494,0.5099999904632568,13.666250310838223,10.028571544481176,4.160000011724021,0.207499994430691,3.0366666122029224,2.180000011747082,1.4271428614322628,NA,1.0473333480871385,1.9686956264726494,0.5099999904632568,13.666250310838223,10.028571544481176,4.160000011724021,0.207499994430691,3.0366666122029224,16.15533313751221,16.845714364733013,NA,18.338222217559814,23.71521761106408,30.299999237060547,16.178750038146973,20.11000006539481,17.881428616387502,21.87249994277954,22.706666946411133,11.776666593551635,15.65285690341677,NA,17.40622222158644,26.04043496173361,30.799999237060547,25.6662495136261,26.671428407941544,26.12071418762207,27.049999713897705,26.576000086466472,5.197333291172981,8.471428431038346,NA,11.174222252435154,19.657826244831085,21.429999828338623,19.794999688863754,22.42142847606114,21.380357061113628,21.459999799728394,20.80766668319702,-1.3820000112056732,1.2899999586599213,NA,4.942222283283869,13.27521752792856,12.0600004196167,13.92374986410141,18.171428544180735,16.63999993460519,15.869999885559082,15.039333279927572,0.9273998101624599,2.7456662933173455,NA,3.564178106076536,9.08939830362898,10.329401380650568,9.661881969033695,11.478159936753443,10.768487541756214,11.12004914022771,10.233666706085204,0.9273998101624599,2.7456662933173455,NA,3.564178106076536,9.08939830362898,10.329401380650568,9.661881969033695,11.478159936753443,10.768487541756214,11.12004914022771,10.233666706085204,0,0,NA,160.38801477344413,369.4441757569106,379.7735771375612,457.0686328898307,537.4157524471048,688.1745780316919,732.6547745926027,732.6547745926027,0,0,NA,0.27717777768770857,0.7763478276522263,1,0.8029999881982803,0.9554285662514823,0.9553928511483328,1,0.05739999771118164,1,1,NA,1,1,1,1,1,1,1,1,0.05303332885106405,0.20749998944146295,NA,0.27717777768770857,0.7763478276522263,1,0.8029999881982803,0.9554285662514823,0.9553928511483328,1,0.9370333353678385,1,1,NA,1,0.9999999999999999,1,0.9999999999999999,0.9999999999999999,1,1,1,2021-03-12T12:00:00Z,2021-03-27T12:00:00Z,NA,2021-04-10T12:00:00Z,2021-05-25T12:00:00Z,2021-06-17T12:00:00Z,2021-06-18T12:00:00Z,2021-06-26T12:00:00Z,2021-07-03T12:00:00Z,2021-07-17T12:00:00Z,2021-07-21T12:00:00Z,2021-03-26T12:00:00Z,2021-04-09T12:00:00Z,NA,2021-05-24T12:00:00Z,2021-06-16T12:00:00Z,2021-06-17T12:00:00Z,2021-06-25T12:00:00Z,2021-07-02T12:00:00Z,2021-07-16T12:00:00Z,2021-07-20T12:00:00Z,2021-08-04T12:00:00Z,71,86,NA,100,145,168,169,177,184,198,202,14,13,0,44,22,0,7,6,13,3,14,85,99,NA,144,167,168,176,183,197,201,216
267,eastlansing_mi,42.6296,-84.4375,-0.5,2021,8,2021,mid00,741.5293740813105,11,2021-03-12,2021-03-26,143,2021-08-16,2021-08-19,2021-09-02,Harvested at Maturity.,2.180000011747082,1.4271428614322628,1.4259677438606178,9.766470790676335,3.8179999982006847,0.00999999977648258,5.727142743766308,0.7499999946448952,6.195833262987435,0.016666666915019352,1.739333330343167,2.180000011747082,1.4271428614322628,1.4259677438606178,9.766470790676335,3.8179999982006847,0.00999999977648258,5.727142743766308,0.7499999946448952,6.195833262987435,0.016666666915019352,1.739333330343167,16.15533313751221,16.845714364733013,19.394838779203354,20.95294122134938,19.25050003528595,22.84000015258789,20.987143107822963,23.388750314712524,20.15749986966451,21.143333435058594,20.68666648864746,11.776666593551635,15.65285690341677,19.537096811879067,27.263529272640454,26.082999801635744,27.38999938964844,27.05285726274763,26.33750009536743,27.959166367848713,26.176666895548504,29.83799997965495,5.197333291172981,8.471428431038346,13.292258123476659,21.159411724875955,21.401749849319458,21.12999963760376,21.492142881665913,20.448750019073486,23.045833190282185,20.09833335876465,24.37000010808309,-1.3820000112056732,1.2899999586599213,7.047419435074253,15.055294177111458,16.720499897003172,14.869999885559082,15.931428500584193,14.559999942779541,18.132500012715656,14.019999821980795,18.90200023651123,0.9273998101624599,2.7456662933173455,4.747406979496199,9.475444795993456,10.078332999528552,10.265268468571284,10.916030429224433,10.48048806195569,13.030012272111575,10.428660982902846,13.272436926580271,0.9273998101624599,2.7456662933173455,4.747406979496199,9.475444795993456,10.078332999528552,10.265268468571284,10.916030429224433,10.48048806195569,13.030012272111575,10.428660982902846,13.272436926580271,0,0,294.3392327287642,455.4217942606529,656.9884542512239,667.2537227197952,743.6659357243664,827.5098402200118,983.8699874853507,1015.1559704340592,1015.1559704340592,0,0,0.3986774204238769,0.8844117571325864,0.9531749939918518,1,0.9655000005449568,0.9121250033378602,0.9847499966621399,0.9178333282470703,0.06666666666666667,1,1,1,1,1,1,1,1,1,1,1,0.05303332885106405,0.20749998944146295,0.3986774204238769,0.8844117571325864,0.9531749939918518,1,0.9655000005449568,0.9121250033378602,0.9847499966621399,0.9178333282470703,0.993733336130778,1,1,1,0.9999999999999999,0.9999999999999999,1,1,0.9999999999999999,1,1,1,2021-03-12T12:00:00Z,2021-03-27T12:00:00Z,2021-04-10T12:00:00Z,2021-06-11T12:00:00Z,2021-06-28T12:00:00Z,2021-07-18T12:00:00Z,2021-07-19T12:00:00Z,2021-07-26T12:00:00Z,2021-08-03T12:00:00Z,2021-08-15T12:00:00Z,2021-08-18T12:00:00Z,2021-03-26T12:00:00Z,2021-04-09T12:00:00Z,2021-06-10T12:00:00Z,2021-06-27T12:00:00Z,2021-07-17T12:00:00Z,2021-07-18T12:00:00Z,2021-07-25T12:00:00Z,2021-08-02T12:00:00Z,2021-08-14T12:00:00Z,2021-08-17T12:00:00Z,2021-09-01T12:00:00Z,71,86,100,162,179,199,200,207,215,227,230,14,13,61,16,19,0,6,7,11,2,14,85,99,161,178,198,199,206,214,226,229,244
268,eastlansing_mi,42.6296,-84.4375,0.5,2021,8,2021,mid0,828.6774079967053,11,2021-03-12,2021-03-26,146,2021-08-19,2021-08-22,2021-09-05,Harvested at Maturity.,2.180000011747082,1.4271428614322628,1.4184127001180535,10.042222404542068,2.7927272778681735,0,5.875714170081275,1.2387500067707151,6.245454463430426,0.05666666726271311,1.7899999973674616,2.180000011747082,1.4271428614322628,1.4184127001180535,10.042222404542068,2.7927272778681735,0,5.875714170081275,1.2387500067707151,6.245454463430426,0.05666666726271311,1.7899999973674616,16.15533313751221,16.845714364733013,19.52873022594149,20.498888863457573,19.715454643422905,23.860000610351563,21.165714536394393,22.90125012397766,19.782727241516113,21.959999720255535,19.795999844868977,11.776666593551635,15.65285690341677,19.75365083558219,27.057777616712784,25.95727252960205,25.690000534057617,28.501428604125977,25.80750012397766,27.609090631658383,29.326666514078777,29.076000086466472,5.197333291172981,8.471428431038346,13.48500006468523,21.28694434960683,21.03477259115739,18.975000381469727,22.799999986376083,19.927500069141388,22.763181643052533,24.138333638509113,23.26000010172526,-1.3820000112056732,1.2899999586599213,7.216349293788275,15.516111082500881,16.112272652712736,12.260000228881836,17.098571368626185,14.047500014305115,17.917272654446688,18.950000762939453,17.44400011698405,0.9273998101624599,2.7456662933173455,4.5707128736416855,8.854143500045605,9.145004093763877,7.932735817444157,11.63550564395,9.795302658782745,12.829223641040462,14.119770671256383,12.094007653319837,0.9273998101624599,2.7456662933173455,4.5707128736416855,8.854143500045605,9.145004093763877,7.932735817444157,11.63550564395,9.795302658782745,12.829223641040462,14.119770671256383,12.094007653319837,0,0,287.95491103942624,447.329494040247,648.5195841030524,656.4523199204965,737.9008594281465,816.2632806984086,957.3847407498538,999.7440527636228,999.7440527636228,0,0,0.40822222327429153,0.8908333261807759,0.9511136293411255,0.8975000381469727,1,0.9121250033378602,0.9609545404260809,1,0.06666666666666667,1,1,1,1,1,1,1,1,1,1,1,0.05303332885106405,0.20749998944146295,0.40822222327429153,0.8908333261807759,0.9511136293411255,0.8975000381469727,1,0.9121250033378602,0.9609545404260809,1,0.9655000082651775,1,1,1,0.9999999999999999,1,0.9999999999999998,0.9999999999999999,1,0.9999999999999999,0.9999999999999999,1,2021-03-12T12:00:00Z,2021-03-27T12:00:00Z,2021-04-10T12:00:00Z,2021-06-12T12:00:00Z,2021-06-30T12:00:00Z,2021-07-22T12:00:00Z,2021-07-23T12:00:00Z,2021-07-30T12:00:00Z,2021-08-07T12:00:00Z,2021-08-18T12:00:00Z,2021-08-21T12:00:00Z,2021-03-26T12:00:00Z,2021-04-09T12:00:00Z,2021-06-11T12:00:00Z,2021-06-29T12:00:00Z,2021-07-21T12:00:00Z,2021-07-22T12:00:00Z,2021-07-29T12:00:00Z,2021-08-06T12:00:00Z,2021-08-17T12:00:00Z,2021-08-20T12:00:00Z,2021-09-04T12:00:00Z,71,86,100,163,181,203,204,211,219,230,233,14,13,62,17,21,0,6,7,10,2,14,85,99,162,180,202,203,210,218,229,232,247
269,eastlansing_mi,42.6296,-84.4375,1.5,2021,8,2021,mid1,1142.4890056152803,11,2021-03-12,2021-03-26,157,2021-08-30,2021-09-04,2021-09-18,Harvested at Maturity.,2.180000011747082,1.4271428614322628,1.346666667583412,8.909091061065821,3.523999971151352,0.05000000074505806,3.538333371281624,6.6249998663552105,1.990999983996153,1.2360000230371953,1.639333336179455,2.180000011747082,1.4271428614322628,1.346666667583412,8.909091061065821,3.523999971151352,0.05000000074505806,3.538333371281624,6.6249998663552105,1.990999983996153,1.2360000230371953,1.639333336179455,16.15533313751221,16.845714364733013,20.30391310263371,19.109545534307305,20.19920015335083,23.239999771118164,18.713333129882813,20.508750081062317,20.728999900817872,21.41199951171875,16.568000189463298,11.776666593551635,15.65285690341677,20.47840584533802,26.497272491455078,26.15199996948242,27.81999969482422,29.116666475931805,26.709999799728394,30.760999870300292,27.44200019836426,26.67866668701172,5.197333291172981,8.471428431038346,14.150724707522254,21.388408931818876,20.817199954986574,21.614999771118164,24.03166651725769,21.746249973773956,25.334000015258788,21.33900022506714,19.99166663487752,-1.3820000112056732,1.2899999586599213,7.823043569706488,16.27954537218267,15.482399940490723,15.40999984741211,18.94666655858358,16.78250014781952,19.907000160217287,15.236000251770019,13.304666582743327,0.9273998101624599,2.7456662933173455,4.475942802786364,8.042677154252296,8.783160953079234,10.58756225333277,13.164532882503662,11.830120994286355,15.080903132787943,11.507221529998779,9.444737705624103,0.9273998101624599,2.7456662933173455,4.475942802786364,8.042677154252296,8.783160953079234,10.58756225333277,13.164532882503662,11.830120994286355,15.080903132787943,11.507221529998779,9.444737705624103,0,0,308.8400533922592,485.7789507858096,705.3579746127906,715.9455368661233,794.9327341611453,889.5737021154362,1040.3827334433156,1097.9188410933095,1097.9188410933095,0,0,0.45404347872388534,0.9025909022851424,0.947439998626709,1,1,0.9463124930858612,1,0.9364000129699708,0.05370000203450521,1,1,1,1,1,1,1,1,1,1,1,0.05303332885106405,0.20749998944146295,0.45404347872388534,0.9025909022851424,0.947439998626709,1,1,0.9463124930858612,1,0.9364000129699708,0.9218333371480306,1,1,1,1,1,1,1,1,0.9999999999999999,0.9999999999999999,1,2021-03-12T12:00:00Z,2021-03-27T12:00:00Z,2021-04-10T12:00:00Z,2021-06-18T12:00:00Z,2021-07-10T12:00:00Z,2021-08-04T12:00:00Z,2021-08-05T12:00:00Z,2021-08-11T12:00:00Z,2021-08-19T12:00:00Z,2021-08-29T12:00:00Z,2021-09-03T12:00:00Z,2021-03-26T12:00:00Z,2021-04-09T12:00:00Z,2021-06-17T12:00:00Z,2021-07-09T12:00:00Z,2021-08-03T12:00:00Z,2021-08-04T12:00:00Z,2021-08-10T12:00:00Z,2021-08-18T12:00:00Z,2021-08-28T12:00:00Z,2021-09-02T12:00:00Z,2021-09-17T12:00:00Z,71,86,100,169,191,216,217,223,231,241,246,14,13,68,21,24,0,5,7,9,4,14,85,99,168,190,215,216,222,230,240,245,260
270,eastlansing_mi,42.6296,-84.4375,2.5,2021,8,2021,mid2,1381.0057916555695,11,2021-03-12,2021-03-26,170,2021-09-12,2021-09-16,2021-09-30,Harvested at Maturity.,2.180000011747082,1.4271428614322628,2.0152702805007228,6.728888991392321,4.374347753093942,19.75,0.03750000009313226,3.004999971638123,1.278000014896194,3.3274999856948853,5.133333400636912,2.180000011747082,1.4271428614322628,2.0152702805007228,6.728888991392321,4.374347753093942,19.75,0.03750000009313226,3.004999971638123,1.278000014896194,3.3274999856948853,5.133333400636912,16.15533313751221,16.845714364733013,20.205270329037226,18.194814876273828,21.234782716502313,21.299999237060547,21.950000047683716,20.291666666666668,19.376666577657065,12.485000014305115,14.687333488464356,11.776666593551635,15.65285690341677,20.868243259352607,26.182592391967773,27.390434762705926,28.459999084472656,27.03749990463257,30.81499989827474,26.996666844685873,28.634999752044678,23.200666618347167,5.197333291172981,8.471428431038346,14.527162206535404,21.465925799475777,21.924347794574242,25.69499969482422,21.46812504529953,25.259166558583576,20.678666814168295,22.304999828338623,17.112999979654948,-1.3820000112056732,1.2899999586599213,8.1860811537182,16.74925920698378,16.458260826442555,22.93000030517578,15.898750185966492,19.703333218892414,14.360666783650716,15.974999904632568,11.025333340962728,0.9273998101624599,2.7456662933173455,4.025964925006335,7.090300467078859,9.535862330330568,14.378839963000882,11.283131984339331,15.039173849107822,10.956081806570689,12.283739296817782,6.760352786196073,0.9273998101624599,2.7456662933173455,4.025964925006335,7.090300467078859,9.535862330330568,14.378839963000882,11.283131984339331,15.039173849107822,10.956081806570689,12.283739296817782,6.760352786196073,0,0,297.92140445046874,489.3595170615979,708.6843506592011,723.063190622202,813.3282464969164,903.5632895915634,1067.9045166901235,1117.0394738773946,1117.0394738773946,0,0,0.4750743236090686,0.9504074026037146,0.9589347839355469,1,0.9463124930858612,1,0.9152666759490967,1,0.05839999834696452,1,1,1,1,1,1,1,1,1,1,1,0.05303332885106405,0.20749998944146295,0.4750743236090686,0.9504074026037146,0.9589347839355469,1,0.9463124930858612,1,0.9152666759490967,1,0.6922666660944621,1,1,1,0.9999999999999999,1,1,1,0.9999999999999999,1,0.9999999999999999,1,2021-03-12T12:00:00Z,2021-03-27T12:00:00Z,2021-04-10T12:00:00Z,2021-06-23T12:00:00Z,2021-07-20T12:00:00Z,2021-08-12T12:00:00Z,2021-08-13T12:00:00Z,2021-08-21T12:00:00Z,2021-08-27T12:00:00Z,2021-09-11T12:00:00Z,2021-09-15T12:00:00Z,2021-03-26T12:00:00Z,2021-04-09T12:00:00Z,2021-06-22T12:00:00Z,2021-07-19T12:00:00Z,2021-08-11T12:00:00Z,2021-08-12T12:00:00Z,2021-08-20T12:00:00Z,2021-08-26T12:00:00Z,2021-09-10T12:00:00Z,2021-09-14T12:00:00Z,2021-09-29T12:00:00Z,71,86,100,174,201,224,225,233,239,254,258,14,13,73,26,22,0,7,5,14,3,14,85,99,173,200,223,224,232,238,253,257,272
271,eastlansing_mi,42.6296,-84.4375,-1.5,2022,8,2022,mid000,242.75412202293097,11,2022-04-11,2022-04-25,93,2022-07-27,2022-07-30,2022-08-13,Harvested at Maturity.,3.5873333887507517,3.1199999577055375,NA,2.2608695491014617,2.219583318956817,0.07500000018626451,4.868571519851685,1.988749996991828,3.7008332995076976,0.8466666539510092,3.389333330218991,3.5873333887507517,3.1199999577055375,NA,2.2608695491014617,2.219583318956817,0.07500000018626451,4.868571519851685,1.988749996991828,3.7008332995076976,0.8466666539510092,3.389333330218991,15.399333286285401,16.83933343887329,NA,20.57391311811364,24.46458335717519,30.059999465942383,23.074285779680526,21.61875021457672,22.24833329518636,21.543333689371742,21.34666659037272,13.407333246866862,15.477333450317383,NA,23.231304251629375,25.426249821980793,23.94499969482422,28.662857600620814,26.93374991416931,28.990833123524983,28.016667048136394,28.78199971516927,7.720999952157339,9.245333415269851,NA,17.411086859910384,19.268125007549923,17.274999856948853,22.23214319774083,20.684999883174896,23.41249982515971,21.43833351135254,22.778999900817873,2.034666657447815,3.0133333802223206,NA,11.590869468191396,13.110000193119049,10.605000019073486,15.80142879486084,14.436249852180481,17.834166526794434,14.859999974568685,16.77600008646647,2.0018782809039952,2.0555225414589544,NA,7.4154482278224565,8.456275147042607,6.657812905716025,11.277009670640359,10.221414018455848,12.816309809001972,11.549375690853596,11.862125336143174,2.0018782809039952,2.0555225414589544,NA,7.4154482278224565,8.456275147042607,6.657812905716025,11.277009670640359,10.221414018455848,12.816309809001972,11.549375690853596,11.862125336143174,0,0,NA,170.55530923991648,373.505912768939,386.82153858037105,465.7606062748536,547.5319184225002,701.3276361305241,735.9757632030849,735.9757632030849,0,0,NA,0.691760860318723,0.8160625010728836,0.7274999856948854,0.9989285809653146,0.9728124976158142,0.9992916663487752,0.999833345413208,0.06666666666666667,1,1,NA,1,1,1,1,1,1,1,1,0.14119999965031943,0.10976667245229085,NA,0.691760860318723,0.8160625010728836,0.7274999856948854,0.9989285809653146,0.9728124976158142,0.9992916663487752,0.999833345413208,0.9847000026702881,1,1,NA,1,1,1,1,1,0.9999999999999999,1,1,2022-04-11T12:00:00Z,2022-04-26T12:00:00Z,NA,2022-05-11T12:00:00Z,2022-06-03T12:00:00Z,2022-06-27T12:00:00Z,2022-06-29T12:00:00Z,2022-07-06T12:00:00Z,2022-07-14T12:00:00Z,2022-07-26T12:00:00Z,2022-07-29T12:00:00Z,2022-04-25T12:00:00Z,2022-05-10T12:00:00Z,NA,2022-06-02T12:00:00Z,2022-06-26T12:00:00Z,2022-06-28T12:00:00Z,2022-07-05T12:00:00Z,2022-07-13T12:00:00Z,2022-07-25T12:00:00Z,2022-07-28T12:00:00Z,2022-08-12T12:00:00Z,101,116,NA,131,154,178,180,187,195,207,210,14,14,0,22,23,1,6,7,11,2,14,115,130,NA,153,177,179,186,194,206,209,224
272,eastlansing_mi,42.6296,-84.4375,-0.5,2022,8,2022,mid00,760.8870090193941,11,2022-04-11,2022-04-25,121,2022-08-24,2022-08-27,2022-09-10,Harvested at Maturity.,3.5873333887507517,3.1199999577055375,2.46714283925082,2.7458823968601576,2.751111083250079,NA,0.47999999592346804,8.946000012755395,3.5900000209609666,0.4333333329608043,1.7519999933739503,3.5873333887507517,3.1199999577055375,2.46714283925082,2.7458823968601576,2.751111083250079,NA,0.47999999592346804,8.946000012755395,3.5900000209609666,0.4333333329608043,1.7519999933739503,15.399333286285401,16.83933343887329,21.965714318411692,24.05294121012968,23.151111178927952,NA,22.17428616115025,17.583999633789063,20.135333331425986,20.196666717529297,17.718000221252442,13.407333246866862,15.477333450317383,24.0007141658238,27.444705963134766,28.288888719346787,NA,28.751428604125977,30.695999526977538,26.437999979654947,27.609999974568684,27.424666976928712,7.720999952157339,9.245333415269851,18.01321425892058,21.15470594518325,22.405833191341824,NA,22.03071423939296,25.642999839782714,20.61400006612142,21.203333377838135,21.107333437601724,2.034666657447815,3.0133333802223206,12.025714352017358,14.864705927231732,16.52277766333686,NA,15.309999874659947,20.59000015258789,14.79000015258789,14.796666781107584,14.78999989827474,2.0018782809039952,2.0555225414589544,7.271326929907389,9.651117064583762,11.290073968061805,NA,11.875018128055586,14.9713760465765,10.719304816243648,11.367960191686947,10.396875636393627,2.0018782809039952,2.0555225414589544,7.271326929907389,9.651117064583762,11.290073968061805,NA,11.875018128055586,14.9713760465765,10.719304816243648,11.367960191686947,10.396875636393627,0,0,305.39573105611044,469.46472115403424,672.6860525791468,NA,755.8111794755358,830.6680597084184,991.457631952073,1025.5615125271338,1025.5615125271338,0,0,0.7284523770922706,0.9616764713736141,0.9874166674084134,NA,1,1,0.9653333377838135,0.9798333168029786,0.06666666666666667,1,1,1,1,1,NA,1,1,1,1,1,0.14119999965031943,0.10976667245229085,0.7284523770922706,0.9616764713736141,0.9874166674084134,NA,1,1,0.9653333377838135,0.9798333168029786,0.9831666660308838,1,1,1,1,0.9999999999999999,NA,0.9999999999999999,1,1,1,1,2022-04-11T12:00:00Z,2022-04-26T12:00:00Z,2022-05-11T12:00:00Z,2022-06-22T12:00:00Z,2022-07-09T12:00:00Z,NA,2022-07-27T12:00:00Z,2022-08-03T12:00:00Z,2022-08-08T12:00:00Z,2022-08-23T12:00:00Z,2022-08-26T12:00:00Z,2022-04-25T12:00:00Z,2022-05-10T12:00:00Z,2022-06-21T12:00:00Z,2022-07-08T12:00:00Z,2022-07-26T12:00:00Z,NA,2022-08-02T12:00:00Z,2022-08-07T12:00:00Z,2022-08-22T12:00:00Z,2022-08-25T12:00:00Z,2022-09-09T12:00:00Z,101,116,131,173,190,NA,208,215,220,235,238,14,14,41,16,17,0,6,4,14,2,14,115,130,172,189,207,NA,214,219,234,237,252
273,eastlansing_mi,42.6296,-84.4375,0.5,2022,8,2022,mid0,904.9117047296328,11,2022-04-11,2022-04-25,124,2022-08-27,2022-08-30,2022-09-13,Harvested at Maturity.,3.5873333887507517,3.1199999577055375,2.354999982921237,2.6761111536373696,2.8133333023223615,0,5.511666609905661,2.9500000489254794,3.561428602385734,2.299999992052714,2.0626666538417338,3.5873333887507517,3.1199999577055375,2.354999982921237,2.6761111536373696,2.8133333023223615,0,5.511666609905661,2.9500000489254794,3.561428602385734,2.299999992052714,2.0626666538417338,15.399333286285401,16.83933343887329,22.36590914292769,23.63999997244941,22.311111238267685,24.65999984741211,19.165000279744465,21.553332964579266,19.55357151372092,18.913333574930828,16.14333346684774,13.407333246866862,15.477333450317383,24.113636233589865,27.526111178927952,28.38388877444797,29.010000228881836,29.97333304087321,28.354999542236328,26.540714400155203,28.196667353312176,26.837333552042644,7.720999952157339,9.245333415269851,18.131704503839668,21.024444527096218,22.664999855889214,21.30999994277954,23.90333326657613,23.044166564941406,20.538571528026036,21.091667016347248,20.98566672007243,2.034666657447815,3.0133333802223206,12.149772774089467,14.522777875264484,16.94611093733046,13.609999656677246,17.833333492279053,17.733333587646484,14.536428655896868,13.986666679382324,15.133999888102213,2.0018782809039952,2.0555225414589544,6.804527545170943,8.82070998037787,10.947739838292666,10.581530694679971,13.049109489198418,12.807594470582435,10.668948722977298,11.160372079434,10.027679454039733,2.0018782809039952,2.0555225414589544,6.804527545170943,8.82070998037787,10.947739838292666,10.581530694679971,13.049109489198418,12.807594470582435,10.668948722977298,11.160372079434,10.027679454039733,0,0,299.3992119875215,458.1719916343231,655.231308723591,665.812839418271,744.1074963534616,820.9530631769561,970.3183452986384,1003.7994615369404,1003.7994615369404,0,0,0.7385454502972689,0.9572222232818604,0.9995000018013849,1,1,0.9901666720708211,0.9627499989100865,1,0.06666666666666667,1,1,1,1,1,1,1,1,1,1,1,0.14119999965031943,0.10976667245229085,0.7385454502972689,0.9572222232818604,0.9995000018013849,1,1,0.9901666720708211,0.9627499989100865,1,0.9620000012715658,1,1,1,1,0.9999999999999999,1,0.9999999999999999,1,1,1,1,2022-04-11T12:00:00Z,2022-04-26T12:00:00Z,2022-05-11T12:00:00Z,2022-06-24T12:00:00Z,2022-07-12T12:00:00Z,2022-07-30T12:00:00Z,2022-07-31T12:00:00Z,2022-08-06T12:00:00Z,2022-08-12T12:00:00Z,2022-08-26T12:00:00Z,2022-08-29T12:00:00Z,2022-04-25T12:00:00Z,2022-05-10T12:00:00Z,2022-06-23T12:00:00Z,2022-07-11T12:00:00Z,2022-07-29T12:00:00Z,2022-07-30T12:00:00Z,2022-08-05T12:00:00Z,2022-08-11T12:00:00Z,2022-08-25T12:00:00Z,2022-08-28T12:00:00Z,2022-09-12T12:00:00Z,101,116,131,175,193,211,212,218,224,238,241,14,14,43,17,17,0,5,5,13,2,14,115,130,174,192,210,211,217,223,237,240,255
274,eastlansing_mi,42.6296,-84.4375,1.5,2022,8,2022,mid1,1239.6610275011087,11,2022-04-11,2022-04-25,138,2022-09-10,2022-09-15,2022-09-29,Harvested at Maturity.,3.5873333887507517,3.1199999577055375,2.169999984167516,3.1147619251694,4.152105250444852,0.01999999955296516,3.043749955948442,3.236250099958852,1.877142850043518,2.3479999780654905,1.7753333271791538,3.5873333887507517,3.1199999577055375,2.169999984167516,3.1147619251694,4.152105250444852,0.01999999955296516,3.043749955948442,3.236250099958852,1.877142850043518,2.3479999780654905,1.7753333271791538,15.399333286285401,16.83933343887329,22.888200035095213,21.948571477617538,21.073684290835732,21.75,20.16749992966652,20.640000104904175,17.43428591319493,14.024000072479248,13.778000195821127,13.407333246866862,15.477333450317383,24.382799873352052,28.15142858596075,29.285789288972552,25.959999084472656,25.80999994277954,27.34250020980835,27.312143189566477,25.756000137329103,22.87466672261556,7.720999952157339,9.245333415269851,18.359799957275392,22.00619043622698,23.452105220995453,20.799999713897705,19.6424999833107,21.38625019788742,21.162500108991352,19.643000030517577,16.908666682243346,2.034666657447815,3.0133333802223206,12.33680004119873,15.86095228649321,17.61842115301835,15.640000343322754,13.475000023841858,15.430000185966492,15.012857028416224,13.529999923706054,10.942666641871135,2.0018782809039952,2.0555225414589544,6.205894852841132,8.837644636696318,11.541786010195816,10.331225976191524,9.738676403037065,11.447985253080725,11.21620899146923,10.204322298074961,6.616430819263855,2.0018782809039952,2.0555225414589544,6.205894852841132,8.837644636696318,11.541786010195816,10.331225976191524,9.738676403037065,11.447985253080725,11.21620899146923,10.204322298074961,6.616430819263855,0,0,310.29474264205663,495.8852800126793,715.1792142063998,725.5104401825913,803.4198514068879,895.0037334315338,1052.0306593121031,1103.052270802478,1103.052270802478,0,0,0.7590199956893922,0.9888809544699533,0.999973686117875,1,0.9350000083446502,0.9924374938011169,0.9819642850330897,0.8651000022888183,0.06423333485921225,1,1,1,1,1,1,1,1,1,1,1,0.14119999965031943,0.10976667245229085,0.7590199956893922,0.9888809544699533,0.999973686117875,1,0.9350000083446502,0.9924374938011169,0.9819642850330897,0.8651000022888183,0.6268999902407328,1,1,1,1,0.9999999999999999,0.9999999999999998,0.9999999999999999,0.9999999999999999,0.9999999999999999,1,1,2022-04-11T12:00:00Z,2022-04-26T12:00:00Z,2022-05-11T12:00:00Z,2022-06-30T12:00:00Z,2022-07-21T12:00:00Z,2022-08-09T12:00:00Z,2022-08-10T12:00:00Z,2022-08-18T12:00:00Z,2022-08-26T12:00:00Z,2022-09-09T12:00:00Z,2022-09-14T12:00:00Z,2022-04-25T12:00:00Z,2022-05-10T12:00:00Z,2022-06-29T12:00:00Z,2022-07-20T12:00:00Z,2022-08-08T12:00:00Z,2022-08-09T12:00:00Z,2022-08-17T12:00:00Z,2022-08-25T12:00:00Z,2022-09-08T12:00:00Z,2022-09-13T12:00:00Z,2022-09-28T12:00:00Z,101,116,131,181,202,221,222,230,238,252,257,14,14,49,20,18,0,7,7,13,4,14,115,130,180,201,220,221,229,237,251,256,271
275,eastlansing_mi,42.6296,-84.4375,2.5,2022,8,2022,mid2,1368.9242149577672,11,2022-04-11,2022-04-25,149,2022-09-21,2022-09-29,2022-10-13,Harvested at Maturity.,3.5873333887507517,3.1199999577055375,2.3229090936820618,3.144347797026453,3.40130432865218,NA,3.1100000992882997,3.2671428450516293,1.4262500039767474,2.33499996480532,1.1346666908512513,3.5873333887507517,3.1199999577055375,2.3229090936820618,3.144347797026453,3.40130432865218,NA,3.1100000992882997,3.2671428450516293,1.4262500039767474,2.33499996480532,1.1346666908512513,15.399333286285401,16.83933343887329,22.956727287986062,21.803478365359098,20.55739134290944,NA,19.21625006198883,19.39714309147426,15.3825002014637,11.557500123977661,14.662000115712484,13.407333246866862,15.477333450317383,24.782727189497514,28.265652117521867,27.966521553371265,NA,26.917500257492065,28.54428618294852,26.365625143051147,20.429999947547913,19.80066655476888,7.720999952157339,9.245333415269851,18.684181811592797,22.380217303400453,21.942391250444494,NA,21.046875178813934,22.409285954066686,20.106875032186508,14.813124909996986,12.093666630983353,2.034666657447815,3.0133333802223206,12.585636433688077,16.494782489279043,15.918260947517727,NA,15.176250100135803,16.27428572518485,13.848124921321869,9.19624987244606,4.386666707197825,2.0018782809039952,2.0555225414589544,5.4613541894424475,8.268195834691586,10.264527753918797,NA,11.148381862276793,12.382690914736477,10.402763959244266,7.165268285720609,3.56802413510489,2.0018782809039952,2.0555225414589544,5.4613541894424475,8.268195834691586,10.264527753918797,NA,11.148381862276793,12.382690914736477,10.402763959244266,7.165268285720609,3.56802413510489,0,0,300.3744804193346,490.542984617241,726.6271229573734,NA,815.8141778555878,902.4930142587432,1068.9372376066517,1126.2593838924165,1126.2593838924165,0,0,0.780790906385942,0.9901521744935409,0.9773913072503131,NA,0.9924374938011169,1,0.9301562488079071,0.44481248408555984,0.0023666667938232423,1,1,1,1,1,NA,1,1,1,1,1,0.14119999965031943,0.10976667245229085,0.780790906385942,0.9901521744935409,0.9773913072503131,NA,0.9924374938011169,1,0.9301562488079071,0.44481248408555984,0.25669999718666076,1,1,1,1,1,NA,1,0.9999999999999999,0.9999999999999999,1,1,2022-04-11T12:00:00Z,2022-04-26T12:00:00Z,2022-05-11T12:00:00Z,2022-07-05T12:00:00Z,2022-07-28T12:00:00Z,NA,2022-08-20T12:00:00Z,2022-08-28T12:00:00Z,2022-09-04T12:00:00Z,2022-09-20T12:00:00Z,2022-09-28T12:00:00Z,2022-04-25T12:00:00Z,2022-05-10T12:00:00Z,2022-07-04T12:00:00Z,2022-07-27T12:00:00Z,2022-08-19T12:00:00Z,NA,2022-08-27T12:00:00Z,2022-09-03T12:00:00Z,2022-09-19T12:00:00Z,2022-09-27T12:00:00Z,2022-10-12T12:00:00Z,101,116,131,186,209,NA,232,240,247,263,271,14,14,54,22,22,0,7,6,15,7,14,115,130,185,208,231,NA,239,246,262,270,285
281,wanatah_in,41.4444,-86.9437,-1.5,2017,9,2017,mid000,195.96353666240347,11,2017-04-15,2017-04-29,86,2017-07-24,2017-07-28,2017-08-11,Harvested at Maturity.,2.769999991481503,4.729374940972775,NA,2.226249992614612,2.4005263257575664,0.02999999932944774,7.139999985694885,4.650000037891524,7.464545423334295,0.6249999715946615,2.405999959881107,2.769999991481503,4.729374940972775,NA,2.226249992614612,2.4005263257575664,0.02999999932944774,7.139999985694885,4.650000037891524,7.464545423334295,0.6249999715946615,2.405999959881107,17.91600014368693,18.918124973773956,NA,22.22291664282481,23.223684210526315,15.949999809265137,22.461666742960613,21.17142813546317,20.404545480554756,23.2475004196167,20.933333110809325,18.245333099365233,15.800625026226044,NA,22.199999968210857,26.121578718486585,25.3700008392334,27.14666684468587,27.548571177891322,27.979090777310457,26.522499561309814,26.371333185831705,12.885666529337565,10.87562500743661,NA,16.96374997496605,21.653157811415824,19.21000051498413,22.78499992688497,22.842142513820104,23.6009090163491,21.90749967098236,21.25733331044515,7.525999959309896,5.950624988647178,NA,11.727499981721243,17.184736904345062,13.050000190734863,18.423333009084068,18.135713849748885,19.22272725538774,17.292499780654907,16.143333435058594,3.866466020692388,2.4921787283026626,NA,6.795322056097205,10.848249775791531,8.600510408729354,12.004760248136892,12.25146240831879,13.329985966957477,11.90749967098236,10.309999974568685,3.866466020692388,2.4921787283026626,NA,6.795322056097205,10.848249775791531,8.600510408729354,12.004760248136892,12.25146240831879,13.329985966957477,11.90749967098236,10.309999974568685,0,0,NA,163.0877293463329,369.204475086372,377.80498549510133,449.83354698392264,535.5937838421542,682.2236294786865,729.8536281626159,729.8536281626159,0,0,NA,0.669520832101504,0.943184212634438,0.9210000514984132,1,0.9919999940054757,1,1,0.06666666666666667,1,1,NA,1,1,1,1,1,1,1,1,0.33053332010904946,0.21487499475479127,NA,0.669520832101504,0.943184212634438,0.9210000514984132,1,0.9919999940054757,1,1,0.9634666633605957,1,1,NA,1,1,1,0.9999999999999999,1,0.9999999999999999,0.9999999999999999,1,2017-04-15T12:00:00Z,2017-04-30T12:00:00Z,NA,2017-05-16T12:00:00Z,2017-06-09T12:00:00Z,2017-06-28T12:00:00Z,2017-06-29T12:00:00Z,2017-07-05T12:00:00Z,2017-07-12T12:00:00Z,2017-07-23T12:00:00Z,2017-07-27T12:00:00Z,2017-04-29T12:00:00Z,2017-05-15T12:00:00Z,NA,2017-06-08T12:00:00Z,2017-06-27T12:00:00Z,2017-06-28T12:00:00Z,2017-07-04T12:00:00Z,2017-07-11T12:00:00Z,2017-07-22T12:00:00Z,2017-07-26T12:00:00Z,2017-08-10T12:00:00Z,105,120,NA,136,160,179,180,186,193,204,208,14,15,0,23,18,0,5,6,10,3,14,119,135,NA,159,178,179,185,192,203,207,222
282,wanatah_in,41.4444,-86.9437,-0.5,2017,9,2017,mid00,759.8056422207753,11,2017-04-15,2017-04-29,114,2017-08-21,2017-08-24,2017-09-07,Harvested at Maturity.,2.769999991481503,4.729374940972775,2.285945947156162,4.699999987729825,6.197499992791563,0.02999999932944774,1.0916666326423485,3.549999949289486,0.6691666776314378,6.869999885559082,0.9860000119855007,2.769999991481503,4.729374940972775,2.285945947156162,4.699999987729825,6.197499992791563,0.02999999932944774,1.0916666326423485,3.549999949289486,0.6691666776314378,6.869999885559082,0.9860000119855007,17.91600014368693,18.918124973773956,22.783783758008802,21.678749978542328,20.668749898672104,21.010000228881836,24.073333263397217,17.86249989271164,21.809166431427002,18.4900000890096,18.691999880472817,18.245333099365233,15.800625026226044,23.975945807792044,26.03375005722046,27.715624809265137,23.469999313354492,26.763333320617676,25.84249997138977,27.63666645685832,28.773333231608074,24.33133341471354,12.885666529337565,10.87562500743661,18.987026955630327,21.406249940395355,23.376249879598618,20.25999927520752,21.52666664123535,21.006875038146973,22.389583349227905,23.531666437784832,18.915333366394044,7.525999959309896,5.950624988647178,13.998108103468612,16.77874982357025,19.0368749499321,17.049999237060547,16.289999961853027,16.171250104904175,17.142500241597492,18.28999964396159,13.499333318074545,3.866466020692388,2.4921787283026626,8.130080181711882,10.115832537173919,12.471402776549185,9.941794435577991,11.408271930333902,11.084312855613232,12.361807158303261,13.47712583830754,8.250540810362498,3.866466020692388,2.4921787283026626,8.130080181711882,10.115832537173919,12.471402776549185,9.941794435577991,11.408271930333902,11.084312855613232,12.361807158303261,13.47712583830754,8.250540810362498,0,0,300.8129667233397,462.6662873181224,662.2087317429092,672.1505261784872,740.6001577604906,829.2746606053964,977.6163465050356,1018.0477240199582,1018.0477240199582,0,0,0.7837837831394092,0.931875005364418,0.9964999973773956,1,0.993583329518636,0.9363124966621399,0.999958332379659,1,0.06666666666666667,1,1,1,1,1,1,1,1,1,1,1,0.33053332010904946,0.21487499475479127,0.7837837831394092,0.931875005364418,0.9964999973773956,1,0.993583329518636,0.9363124966621399,0.999958332379659,1,0.8518666712443034,1,1,1,1,0.9999999999999999,1,1,1,1,0.9999999999999999,1,2017-04-15T12:00:00Z,2017-04-30T12:00:00Z,2017-05-16T12:00:00Z,2017-06-22T12:00:00Z,2017-07-08T12:00:00Z,2017-07-24T12:00:00Z,2017-07-25T12:00:00Z,2017-07-31T12:00:00Z,2017-08-08T12:00:00Z,2017-08-20T12:00:00Z,2017-08-23T12:00:00Z,2017-04-29T12:00:00Z,2017-05-15T12:00:00Z,2017-06-21T12:00:00Z,2017-07-07T12:00:00Z,2017-07-23T12:00:00Z,2017-07-24T12:00:00Z,2017-07-30T12:00:00Z,2017-08-07T12:00:00Z,2017-08-19T12:00:00Z,2017-08-22T12:00:00Z,2017-09-06T12:00:00Z,105,120,136,173,189,205,206,212,220,232,235,14,15,36,15,15,0,5,7,11,2,14,119,135,172,188,204,205,211,219,231,234,249
283,wanatah_in,41.4444,-86.9437,0.5,2017,9,2017,mid0,812.4450494007676,11,2017-04-15,2017-04-29,117,2017-08-24,2017-08-28,2017-09-11,Harvested at Maturity.,2.769999991481503,4.729374940972775,2.3607894778741816,4.167058806318571,5.79529410984148,NA,1.569999948143959,3.1374999701511115,2.2833333148931465,0.06499999761581421,1.1633333530277015,2.769999991481503,4.729374940972775,2.3607894778741816,4.167058806318571,5.79529410984148,NA,1.569999948143959,3.1374999701511115,2.2833333148931465,0.06499999761581421,1.1633333530277015,17.91600014368693,18.918124973773956,22.641052622544137,22.67352928834803,20.302941238178928,NA,22.884285381862096,19.226249873638153,20.09416651725769,21.37999963760376,17.538000043233236,18.245333099365233,15.800625026226044,24.103420910082367,25.740588244269876,27.678823358872357,NA,27.439999989100865,25.43624973297119,28.018333276112873,24.15250015258789,23.69333330790202,12.885666529337565,10.87562500743661,19.151973617704293,21.00529401442584,23.337058684405157,NA,22.430000100816997,20.23124986886978,22.94416670004527,18.62250018119812,18.20799992879232,7.525999959309896,5.950624988647178,14.200526325326218,16.269999784581803,18.99529400993796,NA,17.420000212533132,15.026250004768372,17.87000012397766,13.09250020980835,12.722666549682618,3.866466020692388,2.4921787283026626,7.668811208367717,9.055663633885208,11.778853362044224,NA,11.890282794252023,10.263425662936195,12.902755359251302,8.976577680984139,7.593582484228611,3.866466020692388,2.4921787283026626,7.668811208367717,9.055663633885208,11.778853362044224,NA,11.890282794252023,10.263425662936195,12.902755359251302,8.976577680984139,7.593582484228611,0,0,291.41482591797325,445.3611076940217,645.6016148487734,NA,728.8335944085376,810.9409997120272,965.7740640230428,1001.6803747469794,1001.6803747469794,0,0,0.789473683583109,0.9325882378746482,1,NA,0.9944999967302595,0.9363124966621399,0.999958332379659,0.8622500181198121,0.0637333329518636,1,1,1,1,1,NA,1,1,1,1,1,0.33053332010904946,0.21487499475479127,0.789473683583109,0.9325882378746482,1,NA,0.9944999967302595,0.9363124966621399,0.999958332379659,0.8622500181198121,0.7811333274841309,1,1,1,1,1,NA,1,0.9999999999999999,0.9999999999999999,1,1,2017-04-15T12:00:00Z,2017-04-30T12:00:00Z,2017-05-16T12:00:00Z,2017-06-23T12:00:00Z,2017-07-10T12:00:00Z,NA,2017-07-27T12:00:00Z,2017-08-03T12:00:00Z,2017-08-11T12:00:00Z,2017-08-23T12:00:00Z,2017-08-27T12:00:00Z,2017-04-29T12:00:00Z,2017-05-15T12:00:00Z,2017-06-22T12:00:00Z,2017-07-09T12:00:00Z,2017-07-26T12:00:00Z,NA,2017-08-02T12:00:00Z,2017-08-10T12:00:00Z,2017-08-22T12:00:00Z,2017-08-26T12:00:00Z,2017-09-10T12:00:00Z,105,120,136,174,191,NA,208,215,223,235,239,14,15,37,16,16,0,6,7,11,3,14,119,135,173,190,207,NA,214,222,234,238,253
284,wanatah_in,41.4444,-86.9437,1.5,2017,9,2017,mid1,1105.183202420196,11,2017-04-15,2017-04-29,134,2017-09-10,2017-09-16,2017-09-30,Harvested at Maturity.,2.769999991481503,4.729374940972775,2.629555560896794,3.9194444459345608,5.001904707401991,0,0.3071428617196424,3.141666648288568,1.4000000081335504,0.2216666635746757,1.79666664203008,2.769999991481503,4.729374940972775,2.629555560896794,3.9194444459345608,5.001904707401991,0,0.3071428617196424,3.141666648288568,1.4000000081335504,0.2216666635746757,1.79666664203008,17.91600014368693,18.918124973773956,22.433999972873263,21.127222034666275,20.90904764902024,27.149999618530273,21.841428211757115,20.278333346048992,17.75666660732693,17.236666758855183,16.19999993642171,18.245333099365233,15.800625026226044,24.052222145928276,27.021666526794434,27.102380843389604,26.709999084472656,26.96285711015974,29.35166645050049,24.0772221883138,23.990000406901043,28.811333211263022,12.885666529337565,10.87562500743661,19.1564444065094,22.53333314259847,22.32738090696789,21.03999948501587,21.666428634098597,24.087499936421715,18.792777750227188,17.630000193913776,22.830333296457926,7.525999959309896,5.950624988647178,14.260666667090522,18.044999758402508,17.552380970546178,15.369999885559082,16.37000015803746,18.823333422342937,13.508333312140572,11.269999980926514,16.849333381652833,3.866466020692388,2.4921787283026626,6.860877462872215,9.541339772691298,10.737603545803488,10.659080462206454,11.583764329477505,14.004677254833778,9.229762362385127,8.65199124020338,11.505812457844415,3.866466020692388,2.4921787283026626,6.860877462872215,9.541339772691298,10.737603545803488,10.659080462206454,11.583764329477505,14.004677254833778,9.229762362385127,8.65199124020338,11.505812457844415,0,0,308.7394858292496,480.48360173769294,705.973276199566,716.6323566617725,797.718706968115,881.7467704971177,1047.88249302005,1099.7944404612704,1099.7944404612704,0,0,0.7980000013775296,0.996888886557685,0.9739047595432827,1,0.9999285697937011,1,0.8348888874053956,0.7474166870117187,0.06666666666666667,1,1,1,1,1,1,1,1,1,1,1,0.33053332010904946,0.21487499475479127,0.7980000013775296,0.996888886557685,0.9739047595432827,1,0.9999285697937011,1,0.8348888874053956,0.7474166870117187,0.9447666613260906,1,1,1,1,0.9999999999999999,1,1,0.9999999999999999,1,1,1,2017-04-15T12:00:00Z,2017-04-30T12:00:00Z,2017-05-16T12:00:00Z,2017-06-30T12:00:00Z,2017-07-18T12:00:00Z,2017-08-08T12:00:00Z,2017-08-09T12:00:00Z,2017-08-16T12:00:00Z,2017-08-22T12:00:00Z,2017-09-09T12:00:00Z,2017-09-15T12:00:00Z,2017-04-29T12:00:00Z,2017-05-15T12:00:00Z,2017-06-29T12:00:00Z,2017-07-17T12:00:00Z,2017-08-07T12:00:00Z,2017-08-08T12:00:00Z,2017-08-15T12:00:00Z,2017-08-21T12:00:00Z,2017-09-08T12:00:00Z,2017-09-14T12:00:00Z,2017-09-29T12:00:00Z,105,120,136,181,199,220,221,228,234,252,258,14,15,44,17,20,0,6,5,17,5,14,119,135,180,198,219,220,227,233,251,257,272
285,wanatah_in,41.4444,-86.9437,2.5,2017,9,2017,mid2,1354.0263063432303,11,2017-04-15,2017-04-29,145,2017-09-21,2017-09-24,2017-10-08,Harvested at Maturity.,2.769999991481503,4.729374940972775,2.848163265734911,5.686190462449477,1.6234782355149155,NA,3.7499999659402032,0.6889999935403466,2.2582352914135244,0.050000000124176346,1.914000020797054,2.769999991481503,4.729374940972775,2.848163265734911,5.686190462449477,1.6234782355149155,NA,3.7499999659402032,0.6889999935403466,2.2582352914135244,0.050000000124176346,1.914000020797054,17.91600014368693,18.918124973773956,22.495510179169326,20.91857135863531,21.239999791850217,NA,19.925714356558665,18.77899980545044,16.012941276325897,17.463333129882813,14.203999932607015,18.245333099365233,15.800625026226044,24.31326523605658,27.581904547555105,26.696521676105,NA,28.022856848580496,24.435000038146974,24.9900001077091,32.256666819254555,25.80399971008301,12.885666529337565,10.87562500743661,19.427040776427912,23.20833312897455,21.497391327567723,NA,23.149285588945663,18.900000047683715,19.108235275044162,25.734999974568684,20.292666578292845,7.525999959309896,5.950624988647178,14.540816316799242,18.834761710393998,16.298260979030445,NA,18.275714329310826,13.36500005722046,13.226470442379222,19.213333129882813,14.781333446502686,3.866466020692388,2.4921787283026626,6.052537647224741,9.122983574258189,9.960060330835827,NA,13.10133749313599,9.305017247300148,9.677679187368645,14.561535098357995,9.052923552062113,3.866466020692388,2.4921787283026626,6.052537647224741,9.122983574258189,9.960060330835827,NA,13.10133749313599,9.305017247300148,9.677679187368645,14.561535098357995,9.052923552062113,0,0,296.57434471401234,488.1569997734344,717.2383873826583,NA,808.9477498346102,901.9979223076118,1066.5184684928788,1110.2030737879527,1110.2030737879527,0,0,0.8144897971834455,0.9973333313351586,0.9761521712593411,NA,1,0.8657000017166138,0.815029416364782,1,0.06666666666666667,1,1,1,1,1,NA,1,1,1,1,1,0.33053332010904946,0.21487499475479127,0.8144897971834455,0.9973333313351586,0.9761521712593411,NA,1,0.8657000017166138,0.815029416364782,1,0.8648666620254517,1,1,1,1,0.9999999999999999,NA,0.9893300387966063,1,0.9999999999999999,0.9999999999999998,1,2017-04-15T12:00:00Z,2017-04-30T12:00:00Z,2017-05-16T12:00:00Z,2017-07-04T12:00:00Z,2017-07-25T12:00:00Z,NA,2017-08-17T12:00:00Z,2017-08-24T12:00:00Z,2017-09-03T12:00:00Z,2017-09-20T12:00:00Z,2017-09-23T12:00:00Z,2017-04-29T12:00:00Z,2017-05-15T12:00:00Z,2017-07-03T12:00:00Z,2017-07-24T12:00:00Z,2017-08-16T12:00:00Z,NA,2017-08-23T12:00:00Z,2017-09-02T12:00:00Z,2017-09-19T12:00:00Z,2017-09-22T12:00:00Z,2017-10-07T12:00:00Z,105,120,136,185,206,NA,229,236,246,263,266,14,15,48,20,22,0,6,9,16,2,14,119,135,184,205,228,NA,235,245,262,265,280
286,wanatah_in,41.4444,-86.9437,-1.5,2018,9,2018,mid000,175.8346414007154,11,2018-04-19,2018-05-03,75,2018-07-17,2018-07-20,2018-08-03,Harvested at Maturity.,2.335999974235892,1.1583333493520815,NA,2.9899999748915436,3.1004999957978727,6.860000133514404,7.671250120969489,0.3333333283662796,1.383333328180015,1.586666666592161,3.069333436588446,2.335999974235892,1.1583333493520815,NA,2.9899999748915436,3.1004999957978727,6.860000133514404,7.671250120969489,0.3333333283662796,1.383333328180015,1.586666666592161,3.069333436588446,22.135333442687987,23.068333625793457,NA,19.7269996881485,20.906000089645385,13.729999542236328,16.31250011920929,27.641667048136394,25.09916655222575,25.65333366394043,19.122000058492024,15.456666660308837,22.33500035603841,NA,23.17999997138977,25.911999797821046,28.940000534057617,24.014999866485596,29.72833315531413,28.701666514078777,27.730000178019207,26.608000055948892,9.594333313219249,16.155000289281208,NA,18.03925002813339,20.970499873161316,23.8100004196167,20.592499911785126,24.93500010172526,23.55833327770233,22.638333638509113,22.09633337656657,3.731999966129661,9.975000222524008,NA,12.898500084877014,16.028999948501585,18.68000030517578,17.169999957084656,20.141667048136394,18.415000041325886,17.546667098999023,17.584666697184243,2.585249850382359,6.223672396751245,NA,7.7914685637154255,10.258753044814835,12.826349425638693,9.8539582267999,13.936838772003654,12.972032603932428,12.32925998882447,11.255333391825358,2.585249850382359,6.223672396751245,NA,7.7914685637154255,10.258753044814835,12.826349425638693,9.8539582267999,13.936838772003654,12.972032603932428,12.32925998882447,11.255333391825358,0,0,NA,155.82937127430847,361.0044321706051,373.8307815962438,452.66244741064304,536.283480042665,691.9478712898542,728.9356512563277,728.9356512563277,0,0,NA,0.6868250024318695,0.9263999962806702,1,0.9772499978542328,1,0.9911666631698608,1,0.06666666666666667,1,1,NA,1,1,1,1,1,1,1,1,0.18673333207766216,0.615500028928121,NA,0.6868250024318695,0.9263999962806702,1,0.9772499978542328,1,0.9911666631698608,1,0.9998333326975505,1,1,NA,1,1,1,1,1,1,0.9999999999999999,1,2018-04-19T12:00:00Z,2018-05-04T12:00:00Z,NA,2018-05-10T12:00:00Z,2018-05-30T12:00:00Z,2018-06-19T12:00:00Z,2018-06-20T12:00:00Z,2018-06-28T12:00:00Z,2018-07-04T12:00:00Z,2018-07-16T12:00:00Z,2018-07-19T12:00:00Z,2018-05-03T12:00:00Z,2018-05-09T12:00:00Z,NA,2018-05-29T12:00:00Z,2018-06-18T12:00:00Z,2018-06-19T12:00:00Z,2018-06-27T12:00:00Z,2018-07-03T12:00:00Z,2018-07-15T12:00:00Z,2018-07-18T12:00:00Z,2018-08-02T12:00:00Z,109,124,NA,130,150,170,171,179,185,197,200,14,5,0,19,19,0,7,5,11,2,14,123,129,NA,149,169,170,178,184,196,199,214
287,wanatah_in,41.4444,-86.9437,-0.5,2018,9,2018,mid00,782.5173074747674,11,2018-04-19,2018-05-03,101,2018-08-12,2018-08-14,2018-08-28,Harvested at Maturity.,2.335999974235892,1.1583333493520815,3.144444428384304,5.134000073000789,1.1518749941606075,4.75,4.987143067909138,0.10428571461566857,4.9909091767939655,0.05000000074505806,3.3313333054383594,2.335999974235892,1.1583333493520815,3.144444428384304,5.134000073000789,1.1518749941606075,4.75,4.987143067909138,0.10428571461566857,4.9909091767939655,0.05000000074505806,3.3313333054383594,22.135333442687987,23.068333625793457,19.68833323319753,20.35599994659424,25.61312508583069,20.350000381469727,18.975714411054337,22.265714372907368,19.92272732474587,24.835000038146973,16.969999853769938,15.456666660308837,22.33500035603841,23.98527767923143,26.629999923706055,28.92312479019165,30.739999771118164,26.11857169015067,26.35571425301688,29.620909430763938,29.03499984741211,28.004666646321613,9.594333313219249,16.155000289281208,18.95361108912362,22.36333328882853,23.95468744635582,25.585000038146973,21.957142966134207,21.611428669520787,24.624090974981133,24.039999961853027,23.638666566212972,3.731999966129661,9.975000222524008,13.921944499015808,18.096666653951008,18.98625010251999,20.43000030517578,17.795714242117747,16.867143086024694,19.627272519198332,19.045000076293945,19.27266648610433,2.585249850382359,6.223672396751245,8.165000386915144,10.801345790435068,12.550851071243025,14.380013924154795,11.357710015141256,11.425058866295947,14.248462861994179,14.039999961853027,12.501093609515825,2.585249850382359,6.223672396751245,8.165000386915144,10.801345790435068,12.550851071243025,14.380013924154795,11.357710015141256,11.425058866295947,14.248462861994179,14.039999961853027,12.501093609515825,0,0,293.94001392894523,455.9602007854713,656.7738179253596,671.1538318495144,750.6578019555031,830.6332140195746,987.3663055015104,1015.4463054252166,1015.4463054252166,0,0,0.7851249992847443,0.9878666655222574,0.9933749973773957,1,1,0.9996428557804653,1,1,0.06666666666666667,1,1,1,1,1,1,1,1,1,1,1,0.18673333207766216,0.615500028928121,0.7851249992847443,0.9878666655222574,0.9933749973773957,1,1,0.9996428557804653,1,1,0.9923333295186361,1,1,1,1,1,0.9999999999999998,0.9999999999999998,1,1,0.9999999999999998,1,2018-04-19T12:00:00Z,2018-05-04T12:00:00Z,2018-05-10T12:00:00Z,2018-06-15T12:00:00Z,2018-06-30T12:00:00Z,2018-07-16T12:00:00Z,2018-07-17T12:00:00Z,2018-07-24T12:00:00Z,2018-07-31T12:00:00Z,2018-08-11T12:00:00Z,2018-08-13T12:00:00Z,2018-05-03T12:00:00Z,2018-05-09T12:00:00Z,2018-06-14T12:00:00Z,2018-06-29T12:00:00Z,2018-07-15T12:00:00Z,2018-07-16T12:00:00Z,2018-07-23T12:00:00Z,2018-07-30T12:00:00Z,2018-08-10T12:00:00Z,2018-08-12T12:00:00Z,2018-08-27T12:00:00Z,109,124,130,166,181,197,198,205,212,223,225,14,5,35,14,15,0,6,6,10,1,14,123,129,165,180,196,197,204,211,222,224,239
288,wanatah_in,41.4444,-86.9437,0.5,2018,9,2018,mid0,835.8447506568876,11,2018-04-19,2018-05-03,103,2018-08-14,2018-08-17,2018-08-31,Harvested at Maturity.,2.335999974235892,1.1583333493520815,3.065945930174879,4.8987500668736175,1.2694117609849747,0.00999999977648258,5.0585716390716176,1.5171428679355554,4.459000087529421,0.36000001430511475,4.095333302517732,2.335999974235892,1.1583333493520815,3.065945930174879,4.8987500668736175,1.2694117609849747,0.00999999977648258,5.0585716390716176,1.5171428679355554,4.459000087529421,0.36000001430511475,4.095333302517732,22.135333442687987,23.068333625793457,19.8535133954641,20.870000064373016,25.434705958646887,25.1200008392334,18.074285643441335,19.312857219151088,21.407000064849854,19.06666660308838,16.69266653060913,15.456666660308837,22.33500035603841,24.044324230503392,27.146249890327454,28.523529277128333,29.18000030517578,26.18714305332729,26.661428451538086,29.965000343322753,29.576667149861652,27.44199994405111,9.594333313219249,16.155000289281208,19.02445943291123,22.977812498807907,23.377647035262164,22.614999771118164,22.44642870766776,21.672142846243723,25.01500005722046,24.695000330607098,23.184666538238528,3.731999966129661,9.975000222524008,14.004594635319066,18.80937510728836,18.231764793395996,16.049999237060547,18.70571436200823,16.682857240949357,20.064999771118163,19.81333351135254,18.927333132425943,2.585249850382359,6.223672396751245,7.66225610323307,10.461655853221556,11.30607868105363,11.204620821223315,11.332710236063521,11.153729303341718,14.552441533949258,14.623675292460124,11.93673375238816,2.585249850382359,6.223672396751245,7.66225610323307,10.461655853221556,11.30607868105363,11.204620821223315,11.332710236063521,11.153729303341718,14.552441533949258,14.623675292460124,11.93673375238816,0,0,283.50347581962353,450.8899694711685,643.0933070490802,654.2979278703035,733.6268995227481,811.7030046461401,957.2274199856328,1001.098445863013,1001.098445863013,0,0,0.790932431736508,0.9886249989271164,0.9937647034140195,1,1,0.9996428557804653,1,1,0.06666666666666667,1,1,1,1,1,1,1,1,1,1,1,0.18673333207766216,0.615500028928121,0.790932431736508,0.9886249989271164,0.9937647034140195,1,1,0.9996428557804653,1,1,0.985033327738444,1,1,1,1,0.9999999999999999,1,0.9999999999999999,1,1,1,1,2018-04-19T12:00:00Z,2018-05-04T12:00:00Z,2018-05-10T12:00:00Z,2018-06-16T12:00:00Z,2018-07-02T12:00:00Z,2018-07-19T12:00:00Z,2018-07-20T12:00:00Z,2018-07-27T12:00:00Z,2018-08-03T12:00:00Z,2018-08-13T12:00:00Z,2018-08-16T12:00:00Z,2018-05-03T12:00:00Z,2018-05-09T12:00:00Z,2018-06-15T12:00:00Z,2018-07-01T12:00:00Z,2018-07-18T12:00:00Z,2018-07-19T12:00:00Z,2018-07-26T12:00:00Z,2018-08-02T12:00:00Z,2018-08-12T12:00:00Z,2018-08-15T12:00:00Z,2018-08-30T12:00:00Z,109,124,130,167,183,200,201,208,215,225,228,14,5,36,15,16,0,6,6,9,2,14,123,129,166,182,199,200,207,214,224,227,242
289,wanatah_in,41.4444,-86.9437,1.5,2018,9,2018,mid1,1032.7051157013796,11,2018-04-19,2018-05-03,116,2018-08-27,2018-08-30,2018-09-13,Harvested at Maturity.,2.335999974235892,1.1583333493520815,3.188571417792922,3.746315836808399,2.1809091656892137,NA,3.3383333509167037,5.153333441664775,3.7084615047161398,1.3499999940395355,3.7080000198135776,2.335999974235892,1.1583333493520815,3.188571417792922,3.746315836808399,2.1809091656892137,NA,3.3383333509167037,5.153333441664775,3.7084615047161398,1.3499999940395355,3.7080000198135776,22.135333442687987,23.068333625793457,19.993095114117576,23.293158029255114,20.838181885805998,NA,22.66166639328003,20.850000381469727,16.609999913435715,18.683333079020183,15.984666474660237,15.456666660308837,22.33500035603841,24.67142847606114,26.941052386635228,27.347727342085406,NA,30.76500066121419,28.888333320617676,27.402307657095104,32.12666702270508,26.085333251953124,9.594333313219249,16.155000289281208,19.66999996843792,22.519210464075993,22.715227343819357,NA,25.161666870117188,24.309166590372723,23.14038449067336,27.195000330607098,21.582999897003173,3.731999966129661,9.975000222524008,14.668571460814704,18.097368541516754,18.082727345553312,NA,19.558333079020183,19.729999860127766,18.878461324251614,22.263333638509113,17.080666542053223,2.585249850382359,6.223672396751245,7.337592298923357,9.183685087938784,10.432327843071445,NA,13.489922982823188,13.94520713752904,13.123924866485595,15.992002953581014,10.622580713939668,2.585249850382359,6.223672396751245,7.337592298923357,9.183685087938784,10.432327843071445,NA,13.489922982823188,13.94520713752904,13.123924866485595,15.992002953581014,10.622580713939668,0,0,308.17887655478097,482.6688932256178,712.1801057731897,NA,793.1196436701287,876.7908864953029,1047.4019097596156,1095.3779186203587,1095.3779186203587,0,0,0.8158214279583522,0.9848421021511681,0.9998863632028753,NA,1,1,0.9911538417522724,1,0.06666666666666667,1,1,1,1,1,NA,1,1,1,1,1,0.18673333207766216,0.615500028928121,0.8158214279583522,0.9848421021511681,0.9998863632028753,NA,1,1,0.9911538417522724,1,0.9210999997456869,1,1,1,1,0.9999999999999999,NA,0.9545760834843628,1,1,1,1,2018-04-19T12:00:00Z,2018-05-04T12:00:00Z,2018-05-10T12:00:00Z,2018-06-21T12:00:00Z,2018-07-10T12:00:00Z,NA,2018-08-01T12:00:00Z,2018-08-07T12:00:00Z,2018-08-13T12:00:00Z,2018-08-26T12:00:00Z,2018-08-29T12:00:00Z,2018-05-03T12:00:00Z,2018-05-09T12:00:00Z,2018-06-20T12:00:00Z,2018-07-09T12:00:00Z,2018-07-31T12:00:00Z,NA,2018-08-06T12:00:00Z,2018-08-12T12:00:00Z,2018-08-25T12:00:00Z,2018-08-28T12:00:00Z,2018-09-12T12:00:00Z,109,124,130,172,191,NA,213,219,225,238,241,14,5,41,18,21,0,5,5,12,2,14,123,129,171,190,212,NA,218,224,237,240,255
290,wanatah_in,41.4444,-86.9437,2.5,2018,9,2018,mid2,1221.107984350846,11,2018-04-19,2018-05-03,125,2018-09-05,2018-09-10,2018-09-24,Harvested at Maturity.,2.335999974235892,1.1583333493520815,3.8319149084309947,1.5852380822457017,3.2939131396782138,NA,2.2800000363162587,5.668333242336909,3.7161538744202027,4.819999994337559,0.4460000062982241,2.335999974235892,1.1583333493520815,3.8319149084309947,1.5852380822457017,3.2939131396782138,NA,2.2800000363162587,5.668333242336909,3.7161538744202027,4.819999994337559,0.4460000062982241,22.135333442687987,23.068333625793457,19.665106276248363,24.76285725548154,20.232608712237816,NA,21.337143080575125,15.856666564941406,17.17769215657161,12.3520001411438,17.933999888102214,15.456666660308837,22.33500035603841,24.541702047307442,28.712856928507488,27.520869794099227,NA,29.567143031529017,27.463333129882813,28.316153746384842,25.361999893188475,26.55533332824707,9.594333313219249,16.155000289281208,19.7180850810193,23.804285662514822,22.897391402203105,NA,24.481428691319056,23.680833021799724,23.606538405785194,21.815999889373778,20.923666604359944,3.731999966129661,9.975000222524008,14.89446811473116,18.89571439652216,18.27391301030698,NA,19.395714351109095,19.898332913716636,18.896923065185547,18.269999885559084,15.291999880472819,2.585249850382359,6.223672396751245,6.336707833181326,8.927590908466657,10.163472146628683,NA,13.471991547104205,13.599077769994928,13.227897917448557,11.338669990112782,10.309348516442379,2.585249850382359,6.223672396751245,6.336707833181326,8.927590908466657,10.163472146628683,NA,13.471991547104205,13.599077769994928,13.227897917448557,11.338669990112782,10.309348516442379,0,0,297.8252681595223,485.304677237322,719.0645366097816,NA,813.368477439511,894.9629440594805,1066.9256169863118,1123.6189669368755,1123.6189669368755,0,0,0.8315425522783969,0.9949523789542062,0.999891303933185,NA,1,1,0.9827307627751277,0.9057000064849854,0.04759999910990397,1,1,1,1,1,NA,1,1,1,1,1,0.18673333207766216,0.615500028928121,0.8315425522783969,0.9949523789542062,0.999891303933185,NA,1,1,0.9827307627751277,0.9057000064849854,0.9075333340962728,1,1,1,1,0.9762943561379656,NA,1,0.9999999999999999,1,1,1,2018-04-19T12:00:00Z,2018-05-04T12:00:00Z,2018-05-10T12:00:00Z,2018-06-26T12:00:00Z,2018-07-17T12:00:00Z,NA,2018-08-09T12:00:00Z,2018-08-16T12:00:00Z,2018-08-22T12:00:00Z,2018-09-04T12:00:00Z,2018-09-09T12:00:00Z,2018-05-03T12:00:00Z,2018-05-09T12:00:00Z,2018-06-25T12:00:00Z,2018-07-16T12:00:00Z,2018-08-08T12:00:00Z,NA,2018-08-15T12:00:00Z,2018-08-21T12:00:00Z,2018-09-03T12:00:00Z,2018-09-08T12:00:00Z,2018-09-23T12:00:00Z,109,124,130,177,198,NA,221,228,234,247,252,14,5,46,20,22,0,6,5,12,4,14,123,129,176,197,220,NA,227,233,246,251,266
291,wanatah_in,41.4444,-86.9437,-1.5,2019,9,2019,mid000,199.3850826329694,11,2019-04-22,2019-05-06,83,2019-07-28,2019-07-31,2019-08-14,Harvested at Maturity.,6.651333235949278,4.523636368187991,NA,4.582499933273842,4.551428550943022,0.5099999904632568,3.431666762878497,1.4183333308125534,3.1633333014324307,3.306666523218155,1.6053333106140295,6.651333235949278,4.523636368187991,NA,4.582499933273842,4.551428550943022,0.5099999904632568,3.431666762878497,1.4183333308125534,3.1633333014324307,3.306666523218155,1.6053333106140295,15.222666613260905,16.024545496160332,NA,19.523333350817364,20.78571433112735,23.549999237060547,24.054999987284344,27.271666526794434,21.695833444595337,19.363333702087402,22.717999966939292,15.79600019454956,17.049999843944203,NA,22.451666514078777,24.682857150123233,29.280000686645508,28.179999987284344,28.941666920979817,27.65999968846639,27.52333386739095,27.674666595458984,10.524000086386998,11.795909014615146,NA,17.374374945958454,19.786428587777273,25.89000034332275,24.153333346048992,23.446666717529297,23.681249856948853,23.908333778381348,22.79899984995524,5.251999978224436,6.541818185286089,NA,12.297083377838135,14.890000025431315,22.5,20.12666670481364,17.951666514078777,19.702500025431316,20.293333689371746,17.923333104451498,2.2293394436148306,2.894888335641406,NA,7.184432681172718,9.124001205118427,14.9320588184732,13.38134159260321,12.837175624875117,13.438567657260494,13.90833377838135,12.035666529337565,2.2293394436148306,2.894888335641406,NA,7.184432681172718,9.124001205118427,14.9320588184732,13.38134159260321,12.837175624875117,13.438567657260494,13.90833377838135,12.035666529337565,0,0,NA,172.42638434814523,364.03040965563224,378.96246847410544,459.25051802972473,536.2735717789755,697.5363836661014,739.2613850012455,739.2613850012455,0,0,NA,0.7332499931255977,0.8432619094848633,1,1,1,0.9919999996821086,1,0.06666666666666667,1,1,NA,1,1,1,1,1,1,1,1,0.14570000807444256,0.23477272120389073,NA,0.7332499931255977,0.8432619094848633,1,1,1,0.9919999996821086,1,0.9975333309173584,1,1,NA,1,1,1,0.9999999999999999,0.9999999999999999,1,0.9999999999999998,1,2019-04-22T12:00:00Z,2019-05-07T12:00:00Z,NA,2019-05-18T12:00:00Z,2019-06-11T12:00:00Z,2019-07-02T12:00:00Z,2019-07-03T12:00:00Z,2019-07-09T12:00:00Z,2019-07-15T12:00:00Z,2019-07-27T12:00:00Z,2019-07-30T12:00:00Z,2019-05-06T12:00:00Z,2019-05-17T12:00:00Z,NA,2019-06-10T12:00:00Z,2019-07-01T12:00:00Z,2019-07-02T12:00:00Z,2019-07-08T12:00:00Z,2019-07-14T12:00:00Z,2019-07-26T12:00:00Z,2019-07-29T12:00:00Z,2019-08-13T12:00:00Z,112,127,NA,138,162,183,184,190,196,208,211,14,10,0,23,20,0,5,5,11,2,14,126,137,NA,161,182,183,189,195,207,210,225
292,wanatah_in,41.4444,-86.9437,-0.5,2019,9,2019,mid00,825.0410004931414,11,2019-04-22,2019-05-06,108,2019-08-22,2019-08-25,2019-09-08,Harvested at Maturity.,6.651333235949278,4.523636368187991,4.865238047515352,2.007692346635919,2.8459999757508436,0.38999998569488525,1.377142797623362,1.0250000009934108,3.853636332872239,0.4899999996026357,1.3706666936477025,6.651333235949278,4.523636368187991,4.865238047515352,2.007692346635919,2.8459999757508436,0.38999998569488525,1.377142797623362,1.0250000009934108,3.853636332872239,0.4899999996026357,1.3706666936477025,15.222666613260905,16.024545496160332,19.682619094848633,25.279230704674355,22.774666659037273,23.530000686645508,23.46142864227295,23.531666437784832,16.12909082932906,21.413333257039387,17.07466678619385,15.79600019454956,17.049999843944203,23.077857062930153,28.63923087486854,27.96866645812988,28.350000381469727,26.72571427481515,28.15999984741211,28.090909264304422,26.34666633605957,25.439333470662437,10.524000086386998,11.795909014615146,18.060238088880265,24.203076876126804,23.66633326212565,24.145000457763672,22.0142856325422,23.36666663487752,23.845000006935813,21.789999802907307,20.11000000635783,5.251999978224436,6.541818185286089,13.04261911483038,19.766922877385067,19.36400006612142,19.940000534057617,17.30285699026925,18.573333422342937,19.599090749567207,17.233333269755047,14.780666542053224,2.2293394436148306,2.894888335641406,7.283445004082858,12.679067541762192,12.832282490368103,13.92685068818976,11.984703978183983,13.366666634877523,13.845000006935813,11.789999802907307,9.525333309173584,2.2293394436148306,2.894888335641406,7.283445004082858,12.679067541762192,12.832282490368103,13.92685068818976,11.984703978183983,13.366666634877523,13.845000006935813,11.789999802907307,9.525333309173584,0,0,305.90469017147996,470.73256821438855,663.2168055699101,677.1436562580999,761.0365841053878,841.2365839146529,993.5315839909468,1028.9015833996689,1028.9015833996689,0,0,0.7692023793856303,1,0.9935999997456869,1,0.9947142805371966,1,1,0.9933333237965902,0.058466669718424485,1,1,1,1,1,1,1,1,1,1,1,0.14570000807444256,0.23477272120389073,0.7692023793856303,1,0.9935999997456869,1,0.9947142805371966,1,1,0.9933333237965902,0.9435666720072429,1,1,1,1,0.9999999999999999,1,1,1,0.9999999999999999,1,1,2019-04-22T12:00:00Z,2019-05-07T12:00:00Z,2019-05-18T12:00:00Z,2019-06-29T12:00:00Z,2019-07-12T12:00:00Z,2019-07-27T12:00:00Z,2019-07-28T12:00:00Z,2019-08-04T12:00:00Z,2019-08-10T12:00:00Z,2019-08-21T12:00:00Z,2019-08-24T12:00:00Z,2019-05-06T12:00:00Z,2019-05-17T12:00:00Z,2019-06-28T12:00:00Z,2019-07-11T12:00:00Z,2019-07-26T12:00:00Z,2019-07-27T12:00:00Z,2019-08-03T12:00:00Z,2019-08-09T12:00:00Z,2019-08-20T12:00:00Z,2019-08-23T12:00:00Z,2019-09-07T12:00:00Z,112,127,138,180,193,208,209,216,222,233,236,14,10,41,12,14,0,6,5,10,2,14,126,137,179,192,207,208,215,221,232,235,250
293,wanatah_in,41.4444,-86.9437,0.5,2019,9,2019,mid0,823.4281082638255,11,2019-04-22,2019-05-06,110,2019-08-24,2019-08-28,2019-09-11,Harvested at Maturity.,6.651333235949278,4.523636368187991,4.753255767357904,2.0885714687673107,3.0887499467935413,NA,0.115714288183621,0.9866666626185179,3.9445454247973184,2.600000085774809,0.8213333391894897,6.651333235949278,4.523636368187991,4.753255767357904,2.0885714687673107,3.0887499467935413,NA,0.115714288183621,0.9866666626185179,3.9445454247973184,2.600000085774809,0.8213333391894897,15.222666613260905,16.024545496160332,19.87000004080839,25.434999874659947,21.531875133514404,NA,25.205714089529856,22.806666692097984,15.894545381719416,19.802500009536743,15.90933338801066,15.79600019454956,17.049999843944203,23.21883711703988,28.598571641104563,27.805624842643738,NA,27.43428530011858,27.39833354949951,28.092727314342152,24.74500036239624,25.56933339436849,10.524000086386998,11.795909014615146,18.212441843609476,23.97250005177089,23.821249961853027,NA,22.153571128845215,22.849166711171467,23.855909087441184,19.711250066757202,20.381666660308838,5.251999978224436,6.541818185286089,13.206046570179074,19.34642846243722,19.836875081062317,NA,16.872856957571848,18.299999872843426,19.61909086054022,14.677499771118164,15.193999926249186,2.2293394436148306,2.894888335641406,6.87053900021347,11.62631649010622,12.384587869588595,NA,11.865187449262589,12.84916671117147,13.855909087441184,9.829723887786269,9.534666665395102,2.2293394436148306,2.894888335641406,6.87053900021347,11.62631649010622,12.384587869588595,NA,11.865187449262589,12.84916671117147,13.855909087441184,9.829723887786269,9.534666665395102,0,0,295.43317700917925,458.2016078706663,656.3550137840833,NA,739.4113259289214,816.5063261959502,968.9213261578032,1008.2402217089484,1008.2402217089484,0,0,0.7745697659115459,1,0.9939999997615815,NA,0.9947142805371966,1,1,0.9400000095367432,0.06666666666666667,1,1,1,1,1,NA,1,1,1,1,1,0.14570000807444256,0.23477272120389073,0.7745697659115459,1,0.9939999997615815,NA,0.9947142805371966,1,1,0.9400000095367432,0.943733336130778,1,1,1,1,0.9999999999999999,NA,0.9999999999999999,1,0.9999999999999999,1,1,2019-04-22T12:00:00Z,2019-05-07T12:00:00Z,2019-05-18T12:00:00Z,2019-06-30T12:00:00Z,2019-07-14T12:00:00Z,NA,2019-07-30T12:00:00Z,2019-08-06T12:00:00Z,2019-08-12T12:00:00Z,2019-08-23T12:00:00Z,2019-08-27T12:00:00Z,2019-05-06T12:00:00Z,2019-05-17T12:00:00Z,2019-06-29T12:00:00Z,2019-07-13T12:00:00Z,2019-07-29T12:00:00Z,NA,2019-08-05T12:00:00Z,2019-08-11T12:00:00Z,2019-08-22T12:00:00Z,2019-08-26T12:00:00Z,2019-09-10T12:00:00Z,112,127,138,181,195,NA,211,218,224,235,239,14,10,42,13,15,0,6,5,10,3,14,126,137,180,194,210,NA,217,223,234,238,253
294,wanatah_in,41.4444,-86.9437,1.5,2019,9,2019,mid1,1005.4816391690104,11,2019-04-22,2019-05-06,125,2019-09-08,2019-09-12,2019-09-26,Harvested at Maturity.,6.651333235949278,4.523636368187991,4.580638260124846,2.4218750410946086,1.7634999414905905,0,3.423333270475268,3.85000000645717,1.297500025248155,0.5450000064447522,2.9906666735808054,6.651333235949278,4.523636368187991,4.580638260124846,2.4218750410946086,1.7634999414905905,0,3.423333270475268,3.85000000645717,1.297500025248155,0.5450000064447522,2.9906666735808054,15.222666613260905,16.024545496160332,20.183191502347906,24.319374978542328,23.06300005912781,26.88999938964844,18.02333339055379,14.676666577657064,17.470000088214874,14.84749972820282,15.595333035786947,15.79600019454956,17.049999843944203,23.715744627282973,28.859375,27.12599983215332,26.59000015258789,27.796666781107586,28.516666730244953,25.36062514781952,25.625,27.298000208536784,10.524000086386998,11.795909014615146,18.78893616858949,24.4665624499321,22.496499919891356,22.135000228881836,23.52666648228963,24.151666800181072,20.172812521457672,20.899999976158142,22.227000204722085,5.251999978224436,6.541818185286089,13.862127709896006,20.073749899864197,17.867000007629393,17.68000030517578,19.25666618347168,19.786666870117188,14.984999895095825,16.174999952316284,17.15600020090739,2.2293394436148306,2.894888335641406,6.585992175205025,11.154455049973418,11.104094988816842,11.823272269021686,13.47491014473681,14.15166680018107,10.275993101939187,10.9059562333107,11.184278034964006,2.2293394436148306,2.894888335641406,6.585992175205025,11.154455049973418,11.104094988816842,11.823272269021686,13.47491014473681,14.15166680018107,10.275993101939187,10.9059562333107,11.184278034964006,0,0,309.54163223463627,488.012913034211,710.0948128105479,721.9180850795696,802.7675459479905,887.6775467490769,1052.093436380104,1095.7172613133466,1095.7172613133466,0,0,0.7937553177488611,1,0.993349997997284,1,1,1,0.9458437532186509,0.9456250071525574,0.06666666666666667,1,1,1,1,1,1,1,1,1,1,1,0.14570000807444256,0.23477272120389073,0.7937553177488611,1,0.993349997997284,1,1,1,0.9458437532186509,0.9456250071525574,0.9851000022888183,1,1,1,1,0.9955489188437435,1,0.9887135585610155,1,0.9999999999999999,1,1,2019-04-22T12:00:00Z,2019-05-07T12:00:00Z,2019-05-18T12:00:00Z,2019-07-04T12:00:00Z,2019-07-20T12:00:00Z,2019-08-09T12:00:00Z,2019-08-10T12:00:00Z,2019-08-16T12:00:00Z,2019-08-22T12:00:00Z,2019-09-07T12:00:00Z,2019-09-11T12:00:00Z,2019-05-06T12:00:00Z,2019-05-17T12:00:00Z,2019-07-03T12:00:00Z,2019-07-19T12:00:00Z,2019-08-08T12:00:00Z,2019-08-09T12:00:00Z,2019-08-15T12:00:00Z,2019-08-21T12:00:00Z,2019-09-06T12:00:00Z,2019-09-10T12:00:00Z,2019-09-25T12:00:00Z,112,127,138,185,201,221,222,228,234,250,254,14,10,46,15,19,0,5,5,15,3,14,126,137,184,200,220,221,227,233,249,253,268
295,wanatah_in,41.4444,-86.9437,2.5,2019,9,2019,mid2,1239.8936878227871,11,2019-04-22,2019-05-06,134,2019-09-17,2019-09-22,2019-10-06,Harvested at Maturity.,6.651333235949278,4.523636368187991,4.444313696786469,2.342999979387969,2.033499968238175,NA,2.7114285549947197,1.5888889318125115,2.764285698400012,0.16599999964237214,9.051333630954225,6.651333235949278,4.523636368187991,4.444313696786469,2.342999979387969,2.033499968238175,NA,2.7114285549947197,1.5888889318125115,2.764285698400012,0.16599999964237214,9.051333630954225,15.222666613260905,16.024545496160332,20.478627447988472,23.802000093460084,21.49399995803833,NA,16.742856979370117,18.40222231547038,14.9035712991442,17.20199966430664,11.761999893188477,15.79600019454956,17.049999843944203,24.098823472565297,28.020999908447266,27.52849998474121,NA,27.64428574698312,25.345555835300022,26.363571575709752,28.03400001525879,24.15066655476888,10.524000086386998,11.795909014615146,19.2421568515254,23.547999954223634,22.896499919891358,NA,23.43357147489275,20.10722229215834,21.326785768781388,22.202000045776366,19.726666784286497,5.251999978224436,6.541818185286089,14.385490230485505,19.075,18.264499855041503,NA,19.222857202802384,14.868888749016657,16.289999961853027,16.370000076293945,15.302667013804118,2.2293394436148306,2.894888335641406,5.942866497550068,9.558921491321733,11.380967368566226,NA,13.411238400027928,10.202991132593155,11.395807003788013,12.17283351361394,8.7912169700102,2.2293394436148306,2.894888335641406,5.942866497550068,9.558921491321733,11.380967368566226,NA,13.411238400027928,10.202991132593155,11.395807003788013,12.17283351361394,8.7912169700102,0,0,303.0861913750534,494.264621201488,721.8839685728125,NA,815.7626373730079,907.5895575663462,1067.1308556193785,1127.995023187448,1127.995023187448,0,0,0.8099313712587544,0.9951999998092651,0.99814999818801875,NA,0.9971428530556815,0.9516666783226861,0.9550714288439069,1,0.06666666666666667,1,1,1,1,1,NA,1,1,1,1,1,0.14570000807444256,0.23477272120389073,0.8099313712587544,0.9951999998092651,0.99814999818801875,NA,0.9971428530556815,0.9516666783226861,0.9550714288439069,1,0.8468333323796591,1,1,1,1,0.9804172587031316,NA,0.9999999999999999,0.9688158319240104,0.9849292821931521,1,1,2019-04-22T12:00:00Z,2019-05-07T12:00:00Z,2019-05-18T12:00:00Z,2019-07-08T12:00:00Z,2019-07-28T12:00:00Z,NA,2019-08-17T12:00:00Z,2019-08-24T12:00:00Z,2019-09-02T12:00:00Z,2019-09-16T12:00:00Z,2019-09-21T12:00:00Z,2019-05-06T12:00:00Z,2019-05-17T12:00:00Z,2019-07-07T12:00:00Z,2019-07-27T12:00:00Z,2019-08-16T12:00:00Z,NA,2019-08-23T12:00:00Z,2019-09-01T12:00:00Z,2019-09-15T12:00:00Z,2019-09-20T12:00:00Z,2019-10-05T12:00:00Z,112,127,138,189,209,NA,229,236,245,259,264,14,10,50,19,19,0,6,8,13,4,14,126,137,188,208,228,NA,235,244,258,263,278
296,wanatah_in,41.4444,-86.9437,-1.5,2020,9,2020,mid000,210.98007340567963,11,2020-04-19,2020-05-03,80,2020-07-22,2020-07-25,2020-08-08,Harvested at Maturity.,5.210666735470295,6.876666708290577,NA,2.447368445953256,3.2985714454913424,NA,1.5466666749368112,1.0449999930957954,4.827272730964151,1.6099999776730936,2.409333333124717,5.210666735470295,6.876666708290577,NA,2.447368445953256,3.2985714454913424,NA,1.5466666749368112,1.0449999930957954,4.827272730964151,1.6099999776730936,2.409333333124717,16.867333316802977,19.434666792551678,NA,21.364210480137874,24.884285835992724,NA,25.16499964396159,25.625,21.978181795640424,19.21333376566569,21.27066650390625,15.040666548411052,15.09066661198934,NA,23.447894849275286,26.0995238167899,NA,29.619999885559082,31.388333638509117,28.01909065246582,27.68999989827474,27.527333323160807,9.656666575931013,10.13566665649414,NA,18.637631629642687,20.65357137861706,NA,24.826666514078777,26.515833536783852,23.606817982413553,23.781666437784832,22.989999961853027,4.272666603450974,5.180666700998942,NA,13.827368410010086,15.20761894044422,NA,20.033333142598472,21.643333435058594,19.194545312361285,19.873332977294922,18.452666600545246,1.9742307344033299,2.569958498980403,NA,8.34915305517529,9.927618736282197,NA,13.922411944584574,15.124822325664816,13.29669546578121,13.77897596099018,11.915748935143947,1.9742307344033299,2.569958498980403,NA,8.34915305517529,9.927618736282197,NA,13.922411944584574,15.124822325664816,13.29669546578121,13.77897596099018,11.915748935143947,0,0,NA,158.6339080483305,367.11390151025665,NA,450.648373177764,541.3973071317529,687.6609572553463,728.9978851383167,728.9978851383167,0,0,NA,0.7685526308260466,0.9125476201375325,NA,1,1,1,1,0.06666666666666667,1,1,NA,1,1,NA,1,1,1,1,1,0.10709999958674113,0.21706666707992556,NA,0.7685526308260466,0.9125476201375325,NA,1,1,1,1,0.9892666625976563,1,1,NA,1,1,NA,0.9999999999999999,1,0.9999999999999999,0.9999999999999999,1,2020-04-19T12:00:00Z,2020-05-04T12:00:00Z,NA,2020-05-19T12:00:00Z,2020-06-07T12:00:00Z,NA,2020-06-28T12:00:00Z,2020-07-04T12:00:00Z,2020-07-10T12:00:00Z,2020-07-21T12:00:00Z,2020-07-24T12:00:00Z,2020-05-03T12:00:00Z,2020-05-18T12:00:00Z,NA,2020-06-06T12:00:00Z,2020-06-27T12:00:00Z,NA,2020-07-03T12:00:00Z,2020-07-09T12:00:00Z,2020-07-20T12:00:00Z,2020-07-23T12:00:00Z,2020-08-07T12:00:00Z,110,125,NA,140,159,NA,180,186,192,203,206,14,14,0,18,20,0,5,5,10,2,14,124,139,NA,158,179,NA,185,191,202,205,220
297,wanatah_in,41.4444,-86.9437,-0.5,2020,9,2020,mid00,701.3750589152385,11,2020-04-19,2020-05-03,105,2020-08-16,2020-08-19,2020-09-02,Harvested at Maturity.,5.210666735470295,6.876666708290577,2.5054286083472626,2.9130768910623512,3.8549999959068373,NA,0.9083333229646087,4.7266666907817125,1.8300000087668498,0.4100000063578288,1.4640000225355227,5.210666735470295,6.876666708290577,2.5054286083472626,2.9130768910623512,3.8549999959068373,NA,0.9083333229646087,4.7266666907817125,1.8300000087668498,0.4100000063578288,1.4640000225355227,16.867333316802977,19.434666792551678,23.38742858341762,24.124615229093113,22.30000004172325,NA,22.260000228881836,18.93666648864746,23.331666628519695,22.523333231608074,20.91733315785726,15.040666548411052,15.09066661198934,24.71857147216797,28.332307668832634,28.793749928474426,NA,29.53000005086263,27.888333320617676,27.699999968210857,29.239999771118164,30.054666646321614,9.656666575931013,10.13566665649414,19.458571440832955,23.635384522951565,24.376874893903732,NA,24.78583319981893,23.727499961853027,22.59125010172526,24.556666374206543,24.294666735331216,4.272666603450974,5.180666700998942,14.198571409497942,18.9384613770705,19.95999985933304,NA,20.041666348775227,19.56666660308838,17.482500235239666,19.873332977294922,18.53466682434082,1.9742307344033299,2.569958498980403,8.504949359104431,12.049290280123019,13.145865559263381,NA,14.096819183240742,13.704158887113241,12.535592398492495,14.263417269945144,12.855316962981224,1.9742307344033299,2.569958498980403,8.504949359104431,12.049290280123019,13.145865559263381,NA,14.096819183240742,13.704158887113241,12.535592398492495,14.263417269945144,12.855316962981224,0,0,297.6732275686552,454.3140012102545,664.6478501584685,NA,749.228765257913,831.4537185805925,981.8808273625024,1024.671079172338,1024.671079172338,0,0,0.8247000006267002,0.9924230758960431,1,NA,1,1,0.9865833282470703,1,0.06666666666666667,1,1,1,1,1,NA,1,1,1,1,1,0.10709999958674113,0.21706666707992556,0.8247000006267002,0.9924230758960431,1,NA,1,1,0.9865833282470703,1,0.999666665395101,1,1,1,1,0.9999999999999999,NA,0.9999999999999999,1,1,0.9999999999999999,1,2020-04-19T12:00:00Z,2020-05-04T12:00:00Z,2020-05-19T12:00:00Z,2020-06-23T12:00:00Z,2020-07-06T12:00:00Z,NA,2020-07-22T12:00:00Z,2020-07-28T12:00:00Z,2020-08-03T12:00:00Z,2020-08-15T12:00:00Z,2020-08-18T12:00:00Z,2020-05-03T12:00:00Z,2020-05-18T12:00:00Z,2020-06-22T12:00:00Z,2020-07-05T12:00:00Z,2020-07-21T12:00:00Z,NA,2020-07-27T12:00:00Z,2020-08-02T12:00:00Z,2020-08-14T12:00:00Z,2020-08-17T12:00:00Z,2020-09-01T12:00:00Z,110,125,140,175,188,NA,204,210,216,228,231,14,14,34,12,15,0,5,5,11,2,14,124,139,174,187,203,NA,209,215,227,230,245
298,wanatah_in,41.4444,-86.9437,0.5,2020,9,2020,mid0,842.1845225615923,11,2020-04-19,2020-05-03,107,2020-08-18,2020-08-22,2020-09-05,Harvested at Maturity.,5.210666735470295,6.876666708290577,2.462973009442558,2.767692267608184,3.8837499988730997,0,0.7059999875724315,4.076250007376075,1.8250000186264514,0.15000000596046448,1.4686666892220577,5.210666735470295,6.876666708290577,2.462973009442558,2.767692267608184,3.8837499988730997,0,0.7059999875724315,4.076250007376075,1.8250000186264514,0.15000000596046448,1.4686666892220577,16.867333316802977,19.434666792551678,23.412432464393408,24.50692286858192,21.73625013232231,24.989999771118164,23.41199989318848,18.81624984741211,23.864999961853027,23.832499980926514,20.033999951680503,15.040666548411052,15.09066661198934,24.661621660799593,29.68538475036621,28.28374981880188,29.270000457763672,30.36599998474121,25.461249828338623,29.502000045776366,27.44000005722046,30.267999903361,9.656666575931013,10.13566665649414,19.46121622420646,24.807692307692307,24.0218748152256,23.914999961853027,25.30999984741211,21.543124973773956,24.08150010108948,21.670000076293945,24.655333296457925,4.272666603450974,5.180666700998942,14.260810787613327,19.929999865018406,19.759999811649323,18.559999465942383,20.253999710083008,17.62500011920929,18.661000156402586,15.900000095367432,19.04266668955485,1.9742307344033299,2.569958498980403,7.8718007460107975,11.979772937582233,12.274036988837073,12.83260349452263,13.99436636349496,11.332781379271939,13.92673612593174,11.70750189011991,13.007447695108254,1.9742307344033299,2.569958498980403,7.8718007460107975,11.979772937582233,12.274036988837073,12.83260349452263,13.99436636349496,11.332781379271939,13.92673612593174,11.70750189011991,13.007447695108254,0,0,291.2566276023995,446.9936757909685,643.3782676123617,656.2108711068843,726.1827029243591,816.8449539585346,956.112315217852,1002.9423227783316,1002.9423227783316,0,0,0.8315135137454883,1,1,1,1,0.9798749923706055,1,0.9987499952316284,0.06666666666666667,1,1,1,1,1,1,1,1,1,1,1,0.10709999958674113,0.21706666707992556,0.8315135137454883,1,1,1,1,0.9798749923706055,1,0.9987499952316284,0.9999666690826416,1,1,1,0.9999999999999999,0.9999999999999999,1,0.9999999999999999,1,1,1,1,2020-04-19T12:00:00Z,2020-05-04T12:00:00Z,2020-05-19T12:00:00Z,2020-06-25T12:00:00Z,2020-07-08T12:00:00Z,2020-07-24T12:00:00Z,2020-07-25T12:00:00Z,2020-07-30T12:00:00Z,2020-08-07T12:00:00Z,2020-08-17T12:00:00Z,2020-08-21T12:00:00Z,2020-05-03T12:00:00Z,2020-05-18T12:00:00Z,2020-06-24T12:00:00Z,2020-07-07T12:00:00Z,2020-07-23T12:00:00Z,2020-07-24T12:00:00Z,2020-07-29T12:00:00Z,2020-08-06T12:00:00Z,2020-08-16T12:00:00Z,2020-08-20T12:00:00Z,2020-09-04T12:00:00Z,110,125,140,177,190,206,207,212,220,230,234,14,14,36,12,15,0,4,7,9,3,14,124,139,176,189,205,206,211,219,229,233,248
299,wanatah_in,41.4444,-86.9437,1.5,2020,9,2020,mid1,1113.5972752860905,11,2020-04-19,2020-05-03,119,2020-08-30,2020-09-03,2020-09-17,Harvested at Maturity.,5.210666735470295,6.876666708290577,2.84073172723193,2.7505882631110796,3.212222200197478,3.819999933242798,2.3885714496885027,0.3416666698952516,1.170000019017607,2.130000033415854,2.5473333949844044,5.210666735470295,6.876666708290577,2.84073172723193,2.7505882631110796,3.212222200197478,3.819999933242798,2.3885714496885027,0.3416666698952516,1.170000019017607,2.130000033415854,2.5473333949844044,16.867333316802977,19.434666792551678,23.18439027739734,25.10941168841194,19.92999996079339,20.90999984741211,23.15428570338658,24.11833318074544,21.679999907811485,18.362499713897705,15.01933339436849,15.040666548411052,15.09066661198934,24.953170776367188,29.50882350697237,28.55277771419949,24.229999542236328,27.35571452549526,29.38999970753988,30.709999879201252,27.59000015258789,25.835333251953124,9.656666575931013,10.13566665649414,19.82634146039079,24.79147055569817,24.171388732062447,20.885000228881836,22.285000256129674,24.039999802907307,24.770416657129925,22.705000162124634,20.523666540781658,4.272666603450974,5.180666700998942,14.69951214441439,20.07411760442397,19.7899997499254,17.540000915527344,17.21428598676409,18.68999989827474,18.830833435058594,17.820000171661377,15.211999829610189,1.9742307344033299,2.569958498980403,7.317038981374448,11.050488885825994,12.059022339570014,10.136346290081995,11.844626479910561,13.856698868783315,13.896646786082783,12.705000162124634,9.556162407608827,1.9742307344033299,2.569958498980403,7.317038981374448,11.050488885825994,12.059022339570014,10.136346290081995,11.844626479910561,13.856698868783315,13.896646786082783,12.705000162124634,9.556162407608827,0,0,299.99859823635234,487.8569092953942,704.9193114076545,715.0556576977365,797.9680430571104,881.1082362698104,1047.867997702804,1098.6879983513024,1098.6879983513024,0,0,0.8479512197215383,1,1,1,0.976999991280692,1,0.9995833317438761,1,0.06666666666666667,1,1,1,1,1,1,1,1,1,1,1,0.10709999958674113,0.21706666707992556,0.8479512197215383,1,1,1,0.976999991280692,1,0.9995833317438761,1,0.9658666674296061,1,1,1,1,1,1,0.9998492247464716,0.9999999999999999,0.9988583503450303,1,1,2020-04-19T12:00:00Z,2020-05-04T12:00:00Z,2020-05-19T12:00:00Z,2020-06-29T12:00:00Z,2020-07-16T12:00:00Z,2020-08-03T12:00:00Z,2020-08-04T12:00:00Z,2020-08-11T12:00:00Z,2020-08-17T12:00:00Z,2020-08-29T12:00:00Z,2020-09-02T12:00:00Z,2020-05-03T12:00:00Z,2020-05-18T12:00:00Z,2020-06-28T12:00:00Z,2020-07-15T12:00:00Z,2020-08-02T12:00:00Z,2020-08-03T12:00:00Z,2020-08-10T12:00:00Z,2020-08-16T12:00:00Z,2020-08-28T12:00:00Z,2020-09-01T12:00:00Z,2020-09-16T12:00:00Z,110,125,140,181,198,216,217,224,230,242,246,14,14,40,16,17,0,6,5,11,3,14,124,139,180,197,215,216,223,229,241,245,260
300,wanatah_in,41.4444,-86.9437,2.5,2020,9,2020,mid2,1198.3061133080205,11,2020-04-19,2020-05-03,129,2020-09-09,2020-09-14,2020-09-28,Harvested at Maturity.,5.210666735470295,6.876666708290577,2.7786666861838762,3.27368420695788,2.6523809613039093,0,0.18571428848164423,0.19333332777023315,2.764615456215464,4.586000072956085,0.11866666575272879,5.210666735470295,6.876666708290577,2.7786666861838762,3.27368420695788,2.6523809613039093,0,0.18571428848164423,0.19333332777023315,2.764615456215464,4.586000072956085,0.11866666575272879,16.867333316802977,19.434666792551678,23.375333319769965,23.00473682503951,21.53285716828846,25.8700008392334,23.787142617361887,22.28500000635783,18.55230756906363,9.419999885559083,17.157333246866862,15.040666548411052,15.09066661198934,25.369777806599934,29.08052625154194,27.977619080316455,28.59000015258789,28.599999836512975,31.638333320617676,28.88923058143029,23.90999984741211,24.438666407267252,9.656666575931013,10.13566665649414,20.271111080381605,24.533684153305856,23.36809526171003,22.5600004196167,23.35142844063895,24.950833320617676,23.51384603060209,19.891999912261962,17.883999903996784,4.272666603450974,5.180666700998942,15.172444354163275,19.986842055069772,18.75857144310361,16.530000686645508,18.102857044764928,18.263333320617676,18.138461479773888,15.873999977111817,11.329333400726318,1.9742307344033299,2.569958498980403,6.545795585181044,9.773624524581173,11.057680242682256,11.878431044427307,12.98946588786997,14.164251806952556,13.054878055277696,9.891999912261964,7.411255887996555,1.9742307344033299,2.569958498980403,6.545795585181044,9.773624524581173,11.057680242682256,11.878431044427307,12.98946588786997,14.164251806952556,13.054878055277696,9.891999912261964,7.411255887996555,0,0,294.56080133314697,480.2596673001891,712.4709523965167,724.349383440944,815.2756446560338,900.2611554977491,1069.974570216359,1119.434569777669,1119.434569777669,0,0,0.8614666668574016,1,0.9923333304268973,1,0.9992857115609305,1,0.9999615412492019,0.9671999835968017,0.06289999961853028,1,1,1,1,1,1,1,1,1,1,1,0.10709999958674113,0.21706666707992556,0.8614666668574016,1,0.9923333304268973,1,0.9992857115609305,1,0.9999615412492019,0.9671999835968017,0.771699995994568,1,1,1,0.9999999999999999,0.9915681953272074,0.9369510296887028,0.7930216401365601,0.6207124115786817,0.9470516556042118,1,1,2020-04-19T12:00:00Z,2020-05-04T12:00:00Z,2020-05-19T12:00:00Z,2020-07-03T12:00:00Z,2020-07-22T12:00:00Z,2020-08-12T12:00:00Z,2020-08-13T12:00:00Z,2020-08-20T12:00:00Z,2020-08-26T12:00:00Z,2020-09-08T12:00:00Z,2020-09-13T12:00:00Z,2020-05-03T12:00:00Z,2020-05-18T12:00:00Z,2020-07-02T12:00:00Z,2020-07-21T12:00:00Z,2020-08-11T12:00:00Z,2020-08-12T12:00:00Z,2020-08-19T12:00:00Z,2020-08-25T12:00:00Z,2020-09-07T12:00:00Z,2020-09-12T12:00:00Z,2020-09-27T12:00:00Z,110,125,140,185,204,225,226,233,239,252,257,14,14,44,18,20,0,6,5,12,4,14,124,139,184,203,224,225,232,238,251,256,271
301,wanatah_in,41.4444,-86.9437,-1.5,2021,9,2021,mid000,177.6140558551339,11,2021-04-20,2021-05-04,80,2021-07-23,2021-07-25,2021-08-08,Harvested at Maturity.,2.231999967743953,3.58428559904652,NA,2.365555571288698,3.419999971571896,15.40999984741211,17.58999999364217,0.8671428241900035,3.0771428437105244,1.105000052601099,2.7113333150744436,2.231999967743953,3.58428559904652,NA,2.365555571288698,3.419999971571896,15.40999984741211,17.58999999364217,0.8671428241900035,3.0771428437105244,1.105000052601099,2.7113333150744436,17.836666615804035,20.328571557998657,NA,21.278333478503757,23.516111108991836,13.75,15.059999624888103,25.501428604125977,15.472142798560006,18.380000114440918,22.920000076293945,15.906666771570842,15.805000100816999,NA,24.762777699364555,27.594999843173557,27.920000076293945,27.288333574930828,27.38428579057966,25.30214296068464,29.579999923706055,28.575333404541016,10.525000039239725,10.496428625924246,NA,19.128333303663467,22.32277772161696,21.93499994277954,24.467500050862633,22.44928571156093,21.42571439061846,23.77999973297119,23.422333335876466,5.143333306908607,5.187857151031494,NA,13.493888907962376,17.050555600060356,15.949999809265137,21.646666526794434,17.5142856325422,17.54928582055228,17.979999542236328,18.269333267211913,3.096963782215019,2.4895033855416413,NA,9.043342120123379,11.410613813110261,11.10143342396711,13.504907865941611,11.771121400979611,11.129477231332132,13.774230575665136,12.278455973306498,3.096963782215019,2.4895033855416413,NA,9.043342120123379,11.410613813110261,11.10143342396711,13.504907865941611,11.771121400979611,11.129477231332132,13.774230575665136,12.278455973306498,0,0,NA,162.78015816222086,368.1712067982055,379.27264022217264,460.3020874178223,542.6999372246796,698.5126184633295,726.0610796146599,726.0610796146599,0,0,NA,0.7854166613684761,0.9603333314259848,1,1,0.9729285717010498,0.9702857119696481,1,0.06666666666666667,1,1,NA,1,1,1,1,1,1,1,1,0.2462333325544993,0.19917857817241125,NA,0.7854166613684761,0.9603333314259848,1,1,0.9729285717010498,0.9702857119696481,1,1,1,1,NA,1,1,1,1,1,1,1,1,2021-04-20T12:00:00Z,2021-05-05T12:00:00Z,NA,2021-05-19T12:00:00Z,2021-06-06T12:00:00Z,2021-06-24T12:00:00Z,2021-06-25T12:00:00Z,2021-07-01T12:00:00Z,2021-07-08T12:00:00Z,2021-07-22T12:00:00Z,2021-07-24T12:00:00Z,2021-05-04T12:00:00Z,2021-05-18T12:00:00Z,NA,2021-06-05T12:00:00Z,2021-06-23T12:00:00Z,2021-06-24T12:00:00Z,2021-06-30T12:00:00Z,2021-07-07T12:00:00Z,2021-07-21T12:00:00Z,2021-07-23T12:00:00Z,2021-08-07T12:00:00Z,110,125,NA,139,157,175,176,182,189,203,205,14,13,0,17,17,0,5,6,13,1,14,124,138,NA,156,174,175,181,188,202,204,219
302,wanatah_in,41.4444,-86.9437,-0.5,2021,9,2021,mid00,694.2062475106894,11,2021-04-20,2021-05-04,104,2021-08-16,2021-08-19,2021-09-02,Harvested at Maturity.,2.231999967743953,3.58428559904652,2.2274193542618907,10.407999973123273,2.726111087948084,0.07000000029802322,2.73000004440546,0.9071428775787354,6.289999979463491,0.006666666517655053,2.8906666335960227,2.231999967743953,3.58428559904652,2.2274193542618907,10.407999973123273,2.726111087948084,0.07000000029802322,2.73000004440546,0.9071428775787354,6.289999979463491,0.006666666517655053,2.8906666335960227,17.836666615804035,20.328571557998657,22.784516196097098,19.161999893188476,17.321111069785225,17.610000610351563,22.552000045776367,23.228571483067103,19.012727390636098,22.4499994913737,20.55800005594889,15.906666771570842,15.805000100816999,26.208709562978438,26.279333368937174,26.2972223493788,28.860000610351563,30.562000274658203,26.955714089529856,29.10636381669478,26.893332799275715,30.659333165486654,10.525000039239725,10.496428625924246,20.774193502241566,21.94133332570394,22.15805564986335,22.09500026702881,25.523999977111817,22.008571216038295,24.580909295515582,21.043333212534588,25.71533311208089,5.143333306908607,5.187857151031494,15.339677441504694,17.603333282470704,18.0188889503479,15.329999923706056,20.48599967956543,17.061428342546733,20.055454774336383,15.193333625793457,20.77133305867513,3.096963782215019,2.4895033855416413,9.786645055082081,10.517240345421634,11.190803076518808,11.600640264052815,14.994132638711719,11.9457314392397,14.383344737522169,11.113268764674665,14.01523292159001,3.096963782215019,2.4895033855416413,9.786645055082081,10.517240345421634,11.190803076518808,11.600640264052815,14.994132638711719,11.9457314392397,14.383344737522169,11.113268764674665,14.01523292159001,0,0,303.38599670754445,461.14460188886903,662.5790572662077,674.1796975302605,749.150360723819,832.7704807984968,990.9872729112408,1024.327079205265,1024.327079205265,0,0,0.8723225778149021,0.9461333306630453,0.9768888870875041,1,1,1,1,0.9800000031789144,0.06666666666666667,1,1,1,1,1,1,1,1,1,1,1,0.2462333325544993,0.19917857817241125,0.8723225778149021,0.9461333306630453,0.9768888870875041,1,1,1,1,0.9800000031789144,1,1,1,1,0.9999999999999999,0.9999999999999999,0.9999999999999996,0.9999999999999999,0.9999999999999999,1,1,1,2021-04-20T12:00:00Z,2021-05-05T12:00:00Z,2021-05-19T12:00:00Z,2021-06-19T12:00:00Z,2021-07-04T12:00:00Z,2021-07-22T12:00:00Z,2021-07-23T12:00:00Z,2021-07-28T12:00:00Z,2021-08-04T12:00:00Z,2021-08-15T12:00:00Z,2021-08-18T12:00:00Z,2021-05-04T12:00:00Z,2021-05-18T12:00:00Z,2021-06-18T12:00:00Z,2021-07-03T12:00:00Z,2021-07-21T12:00:00Z,2021-07-22T12:00:00Z,2021-07-27T12:00:00Z,2021-08-03T12:00:00Z,2021-08-14T12:00:00Z,2021-08-17T12:00:00Z,2021-09-01T12:00:00Z,110,125,139,170,185,203,204,209,216,227,230,14,13,30,14,17,0,4,6,10,2,14,124,138,169,184,202,203,208,215,226,229,244
303,wanatah_in,41.4444,-86.9437,0.5,2021,9,2021,mid0,797.5468112649467,11,2021-04-20,2021-05-04,107,2021-08-19,2021-08-21,2021-09-04,Harvested at Maturity.,2.231999967743953,3.58428559904652,2.4187500113621354,9.23562495096121,2.848888871570428,11.380000114440918,1.0800000242888927,2.414285659790039,4.755454559556463,0.8299999684095383,2.790666637569666,2.231999967743953,3.58428559904652,2.4187500113621354,9.23562495096121,2.848888871570428,11.380000114440918,1.0800000242888927,2.414285659790039,4.755454559556463,0.8299999684095383,2.790666637569666,17.836666615804035,20.328571557998657,22.79156257212162,19.702499866485596,16.53999998834398,19.920000076293945,23.048333485921223,23.691428593226842,18.968181783502754,19,20.452000045776366,15.906666771570842,15.805000100816999,26.331562370061874,26.45562505722046,26.292777909172905,30.700000762939453,29.393333435058594,27.342857088361466,28.508181832053445,30.75,30.027999877929688,10.525000039239725,10.496428625924246,20.883906200528145,22.07937502861023,22.109444485770332,26.454999923706055,24.455833276112873,21.88071428026472,23.94363650408658,25.920000076293945,24.90599978764852,5.143333306908607,5.187857151031494,15.436250030994415,17.703125,17.926111062367756,22.209999084472656,19.518333117167156,16.41857147216797,19.37909117611972,21.09000015258789,19.78399969736735,3.096963782215019,2.4895033855416413,9.163104785095774,9.846209855597902,10.525296449253537,14.923189642008056,13.43434108134728,11.67490596201324,13.765145278495009,15.713481185126307,13.199666001559098,3.096963782215019,2.4895033855416413,9.163104785095774,9.846209855597902,10.525296449253537,14.923189642008056,13.43434108134728,11.67490596201324,13.765145278495009,15.713481185126307,13.199666001559098,0,0,293.2193531230647,450.7587108126312,640.2140468991948,655.1372365412029,735.7432830292865,817.4676247633793,968.8842228268244,1000.311185197077,1000.311185197077,0,0,0.8763124972581864,0.949499997496605,0.9768888870875041,1,1,1,0.9945454554124312,1,0.06666666666666667,1,1,1,1,1,1,1,1,1,1,1,0.2462333325544993,0.19917857817241125,0.8763124972581864,0.949499997496605,0.9768888870875041,1,1,1,0.9945454554124312,1,0.9980000019073486,1,1,1,1,0.9999999999999999,1,1,1,0.9999999999999999,0.9999999999999999,1,2021-04-20T12:00:00Z,2021-05-05T12:00:00Z,2021-05-19T12:00:00Z,2021-06-20T12:00:00Z,2021-07-06T12:00:00Z,2021-07-24T12:00:00Z,2021-07-25T12:00:00Z,2021-07-31T12:00:00Z,2021-08-07T12:00:00Z,2021-08-18T12:00:00Z,2021-08-20T12:00:00Z,2021-05-04T12:00:00Z,2021-05-18T12:00:00Z,2021-06-19T12:00:00Z,2021-07-05T12:00:00Z,2021-07-23T12:00:00Z,2021-07-24T12:00:00Z,2021-07-30T12:00:00Z,2021-08-06T12:00:00Z,2021-08-17T12:00:00Z,2021-08-19T12:00:00Z,2021-09-03T12:00:00Z,110,125,139,171,187,205,206,212,219,230,232,14,13,31,15,17,0,5,6,10,1,14,124,138,170,186,204,205,211,218,229,231,246
304,wanatah_in,41.4444,-86.9437,1.5,2021,9,2021,mid1,1074.2892707004205,11,2021-04-20,2021-05-04,117,2021-08-29,2021-09-01,2021-09-15,Harvested at Maturity.,2.231999967743953,3.58428559904652,4.1436841964819715,5.2031578700989485,1.899500026460737,0,7.674999962250391,3.308571428592716,4.0439999589696525,0.9699999714891115,0.6926666811108589,2.231999967743953,3.58428559904652,4.1436841964819715,5.2031578700989485,1.899500026460737,0,7.674999962250391,3.308571428592716,4.0439999589696525,0.9699999714891115,0.6926666811108589,17.836666615804035,20.328571557998657,21.791052705363224,18.77789464749788,20.682999992370604,25.219999313354492,19.44000021616618,19.23285702296666,20.248999977111815,20.416666666666668,18.41199982961019,15.906666771570842,15.805000100816999,26.21447359888177,26.37105269181101,27.658500099182127,29.260000228881836,29.97166697184245,27.394285474504745,31.445000076293944,30.583332697550457,27.515333302815755,10.525000039239725,10.496428625924246,20.81723679994282,22.37342111687911,22.97949995994568,23.355000495910645,25.135000228881836,22.765000002724783,26.396499919891358,25.934999465942383,21.88299996058146,5.143333306908607,5.187857151031494,15.420000001003867,18.375789541947213,18.300499820709227,17.450000762939453,20.298333485921223,18.135714530944824,21.34799976348877,21.286666234334312,16.250666618347168,3.096963782215019,2.4895033855416413,8.138803822116731,9.249223418057205,11.015765622089653,12.436463654964305,14.229681591798562,12.763345346793143,15.554757924267054,15.40009787528515,10.96382965589126,3.096963782215019,2.4895033855416413,8.138803822116731,9.249223418057205,11.015765622089653,12.436463654964305,14.229681591798562,12.763345346793143,15.554757924267054,15.40009787528515,10.96382965589126,0,0,309.27454524043577,485.00979018352274,705.3251026253157,717.76156628028,803.1396558310714,892.4830732586234,1048.0306525012938,1094.2309461271493,1094.2309461271493,0,0,0.879565786060534,0.9681315773411802,1,1,1,0.9914285727909633,1,1,0.06666666666666667,1,1,1,1,1,1,1,1,1,1,1,0.2462333325544993,0.19917857817241125,0.879565786060534,0.9681315773411802,1,1,1,0.9914285727909633,1,1,0.9928333409627279,1,1,1,0.9999999999999999,0.9999999999999999,1,1,0.9999999999999999,1,0.9999999999999999,1,2021-04-20T12:00:00Z,2021-05-05T12:00:00Z,2021-05-19T12:00:00Z,2021-06-26T12:00:00Z,2021-07-15T12:00:00Z,2021-08-04T12:00:00Z,2021-08-05T12:00:00Z,2021-08-11T12:00:00Z,2021-08-18T12:00:00Z,2021-08-28T12:00:00Z,2021-08-31T12:00:00Z,2021-05-04T12:00:00Z,2021-05-18T12:00:00Z,2021-06-25T12:00:00Z,2021-07-14T12:00:00Z,2021-08-03T12:00:00Z,2021-08-04T12:00:00Z,2021-08-10T12:00:00Z,2021-08-17T12:00:00Z,2021-08-27T12:00:00Z,2021-08-30T12:00:00Z,2021-09-14T12:00:00Z,110,125,139,177,196,216,217,223,230,240,243,14,13,37,18,19,0,5,6,9,2,14,124,138,176,195,215,216,222,229,239,242,257
305,wanatah_in,41.4444,-86.9437,2.5,2021,9,2021,mid2,1193.885076657553,11,2021-04-20,2021-05-04,127,2021-09-08,2021-09-13,2021-09-27,Harvested at Maturity.,2.231999967743953,3.58428559904652,5.0421951200994775,2.8158333015938597,3.673500010743737,NA,2.317142844732319,2.8166666319593787,2.0630769027540317,1.6620000369846821,2.6819999773055314,2.231999967743953,3.58428559904652,5.0421951200994775,2.8158333015938597,3.673500010743737,NA,2.317142844732319,2.8166666319593787,2.0630769027540317,1.6620000369846821,2.6819999773055314,17.836666615804035,20.328571557998657,21.495121990762105,18.409999946753185,21.57450008392334,NA,19.835714067731583,20.5,19.72923073401818,19.063999557495116,14.921333408355713,15.906666771570842,15.805000100816999,26.346829181764186,26.193750143051147,29.0520001411438,NA,27.39714241027832,31.281667073567707,28.557692014254055,27.28400001525879,26.137333170572916,10.525000039239725,10.496428625924246,21.122195081013004,22.00208342075348,24.139750051498414,NA,22.564285618918284,26.162500063578285,23.48846127436711,21.401000118255617,20.68733313878377,5.143333306908607,5.187857151031494,15.897560980261826,17.81041669845581,19.227499961853027,NA,17.731428827558247,21.043333053588867,18.419230534480167,15.518000221252441,15.23733310699463,3.096963782215019,2.4895033855416413,7.163292827926638,8.06033227160156,11.657803406803719,NA,12.174725046861258,15.364174453441303,13.10861430411614,11.470838526222707,9.550184574903648,3.096963782215019,2.4895033855416413,7.163292827926638,8.06033227160156,11.657803406803719,NA,12.174725046861258,15.364174453441303,13.10861430411614,11.470838526222707,9.550184574903648,0,0,293.69500594499215,487.1429804634296,720.299048599504,NA,805.5221239275326,897.7071706481803,1068.1191566016898,1125.4733492328037,1125.4733492328037,0,0,0.8883780456170803,0.9747708320617676,1,NA,0.9914285727909633,1,0.9976923098930945,0.9845000171661377,0.06666666666666667,1,1,1,1,1,NA,1,1,1,1,1,0.2462333325544993,0.19917857817241125,0.8883780456170803,0.9747708320617676,1,NA,0.9914285727909633,1,0.9976923098930945,0.9845000171661377,0.8467666594187419,1,1,1,1,1,NA,0.9999999999999999,1,0.9999999999999999,1,1,2021-04-20T12:00:00Z,2021-05-05T12:00:00Z,2021-05-19T12:00:00Z,2021-06-29T12:00:00Z,2021-07-23T12:00:00Z,NA,2021-08-12T12:00:00Z,2021-08-19T12:00:00Z,2021-08-25T12:00:00Z,2021-09-07T12:00:00Z,2021-09-12T12:00:00Z,2021-05-04T12:00:00Z,2021-05-18T12:00:00Z,2021-06-28T12:00:00Z,2021-07-22T12:00:00Z,2021-08-11T12:00:00Z,NA,2021-08-18T12:00:00Z,2021-08-24T12:00:00Z,2021-09-06T12:00:00Z,2021-09-11T12:00:00Z,2021-09-26T12:00:00Z,110,125,139,180,204,NA,224,231,237,250,255,14,13,40,23,19,0,6,5,12,4,14,124,138,179,203,223,NA,230,236,249,254,269
306,wanatah_in,41.4444,-86.9437,-1.5,2022,9,2022,mid000,211.35315398521655,11,2022-05-07,2022-05-21,70,2022-07-30,2022-08-02,2022-08-16,Harvested at Maturity.,1.7779999935378632,2.2214285574321235,NA,3.0122221731063394,0.8477777752818333,6.150000095367432,5.656666525329153,4.5414286354290585,5.045454563911665,0.02333333281179269,2.418666641910871,1.7779999935378632,2.2214285574321235,NA,3.0122221731063394,0.8477777752818333,6.150000095367432,5.656666525329153,4.5414286354290585,5.045454563911665,0.02333333281179269,2.418666641910871,20.9366668065389,20.49285684313093,NA,21.823888778686523,26.89722220102946,19.459999084472656,21.68333339691162,18.891428538731166,22.1636363809759,24.456666946411133,18.662000211079917,23.327333450317383,19.102857181004115,NA,25.18388885921902,28.132222493489582,31.31999969482422,28.391666412353516,27.295714242117747,29.221818230368875,28.046667098999023,29.366666793823242,17.614333407084146,14.284285749707903,NA,19.694722175598145,22.208611249923706,24.769999504089355,23.886666377385456,22.630000114440918,24.20318183031949,22.55333360036214,24.137333488464357,11.901333363850911,9.46571431841169,NA,14.205555491977268,16.28500000635783,18.219999313354492,19.3816663424174,17.96428598676409,19.18454543027011,17.06000010172526,18.908000183105468,7.826082040537,4.58839922312711,NA,9.035258851221855,11.263228163020473,13.55584953573503,13.132487677601809,12.252620411462189,13.887618975136762,12.55333360036214,12.656446472214062,7.826082040537,4.58839922312711,NA,9.035258851221855,11.263228163020473,13.55584953573503,13.132487677601809,12.252620411462189,13.887618975136762,12.55333360036214,12.656446472214062,0,0,NA,162.6346593219934,365.372766256362,378.92861579209705,457.72354185770786,543.4918847379431,696.2556934644475,733.915694265534,733.915694265534,0,0,NA,0.8383611122767131,0.9720000002119277,1,1,1,1,1,0.06666666666666667,1,1,NA,1,1,1,1,1,1,1,1,0.6937000052134196,0.42842857497079034,NA,0.8383611122767131,0.9720000002119277,1,1,1,1,1,1,1,1,NA,1,1,1,0.9999999999999999,1,1,0.9999999999999999,1,2022-05-07T12:00:00Z,2022-05-22T12:00:00Z,NA,2022-05-29T12:00:00Z,2022-06-16T12:00:00Z,2022-07-04T12:00:00Z,2022-07-05T12:00:00Z,2022-07-11T12:00:00Z,2022-07-18T12:00:00Z,2022-07-29T12:00:00Z,2022-08-01T12:00:00Z,2022-05-21T12:00:00Z,2022-05-28T12:00:00Z,NA,2022-06-15T12:00:00Z,2022-07-03T12:00:00Z,2022-07-04T12:00:00Z,2022-07-10T12:00:00Z,2022-07-17T12:00:00Z,2022-07-28T12:00:00Z,2022-07-31T12:00:00Z,2022-08-15T12:00:00Z,127,142,NA,149,167,185,186,192,199,210,213,14,6,0,17,17,0,5,6,10,2,14,141,148,NA,166,184,185,191,198,209,212,227
307,wanatah_in,41.4444,-86.9437,-0.5,2022,9,2022,mid00,695.6260941086441,11,2022-05-07,2022-05-21,95,2022-08-24,2022-08-27,2022-09-10,Harvested at Maturity.,1.7779999935378632,2.2214285574321235,1.9653124661999755,3.369999957803105,5.786000042781234,0.03999999910593033,1.3099999781697989,4.524999954116842,0.9123077130375,0.7033333207170168,2.1486666787415745,1.7779999935378632,2.2214285574321235,1.9653124661999755,3.369999957803105,5.786000042781234,0.03999999910593033,1.3099999781697989,4.524999954116842,0.9123077130375,0.7033333207170168,2.1486666787415745,20.9366668065389,20.49285684313093,24.40187495946884,22.759999956403462,20.205333264668784,24.510000228881836,21.64600028991699,17.175000349680584,20.18615385202261,18.62000020345052,18.43733329772949,23.327333450317383,19.102857181004115,26.362187564373016,28.780714307512557,28.490000025431314,26.030000686645508,30.727999877929687,30.260000546773274,27.512307680570164,28.976666768391926,29.037333297729493,17.614333407084146,14.284285749707903,20.65140627324581,23.628571340015956,23.69000005722046,21.085000038146973,25.072000122070314,25.410000324249268,22.141923097463753,23.013333320617676,23.13666645685832,11.901333363850911,9.46571431841169,14.940624982118607,18.476428372519358,18.890000089009604,16.139999389648438,19.416000366210938,20.56000010172526,16.771538514357346,17.049999872843426,17.235999615987144,7.826082040537,4.58839922312711,9.317687370968104,12.19440534381879,12.900212938467693,11.03485288820598,14.408328204028606,14.726676061373947,12.142446135225203,12.975970529448986,12.173407049805324,7.826082040537,4.58839922312711,9.317687370968104,12.19440534381879,12.900212938467693,11.03485288820598,14.408328204028606,14.726676061373947,12.142446135225203,12.975970529448986,12.173407049805324,0,0,298.1659958709792,468.88767068444224,662.3908647614577,673.4257176496636,745.4673586698067,833.8274150380504,991.679214795978,1030.607126384325,1030.607126384325,0,0,0.8933281257748604,1,1,1,1,1,1,1,0.06666666666666667,1,1,1,1,1,1,1,1,1,1,1,0.6937000052134196,0.42842857497079034,0.8933281257748604,1,1,1,1,1,1,1,1,1,1,1,1,1,1,0.9999999999999999,1,0.9999999999999999,1,1,2022-05-07T12:00:00Z,2022-05-22T12:00:00Z,2022-05-29T12:00:00Z,2022-06-30T12:00:00Z,2022-07-14T12:00:00Z,2022-07-29T12:00:00Z,2022-07-30T12:00:00Z,2022-08-04T12:00:00Z,2022-08-10T12:00:00Z,2022-08-23T12:00:00Z,2022-08-26T12:00:00Z,2022-05-21T12:00:00Z,2022-05-28T12:00:00Z,2022-06-29T12:00:00Z,2022-07-13T12:00:00Z,2022-07-28T12:00:00Z,2022-07-29T12:00:00Z,2022-08-03T12:00:00Z,2022-08-09T12:00:00Z,2022-08-22T12:00:00Z,2022-08-25T12:00:00Z,2022-09-09T12:00:00Z,127,142,149,181,195,210,211,216,222,235,238,14,6,31,13,14,0,4,5,12,2,14,141,148,180,194,209,210,215,221,234,237,252
308,wanatah_in,41.4444,-86.9437,0.5,2022,9,2022,mid0,746.3946268131381,11,2022-05-07,2022-05-21,97,2022-08-26,2022-08-29,2022-09-12,Harvested at Maturity.,1.7779999935378632,2.2214285574321235,2.0435293844407973,4.0285714054480195,4.440625013783574,NA,2.916666666356226,2.6966666029766206,0.9933333558340868,0.7099999884764353,3.594666668648521,1.7779999935378632,2.2214285574321235,2.0435293844407973,4.0285714054480195,4.440625013783574,NA,2.916666666356226,2.6966666029766206,0.9933333558340868,0.7099999884764353,3.594666668648521,20.9366668065389,20.49285684313093,24.152647018432617,22.287142753601074,21.42125004529953,NA,19.80166721343994,19.3083332379659,19.676666736602783,16.953333536783852,17.333999888102213,23.327333450317383,19.102857181004115,26.526470689212573,28.234999929155624,28.801250100135803,NA,31.929999987284344,27.7400000890096,28.0041667620341,28.06000010172526,28.86599998474121,17.614333407084146,14.284285749707903,20.824705923304837,23.228571312768118,23.83843758702278,NA,26.444166660308838,22.81333351135254,22.487500031789143,22.179999987284344,23.089333152770998,11.901333363850911,9.46571431841169,15.122941157397102,18.222142696380615,18.87562507390976,NA,20.958333333333336,17.886666933695476,16.97083330154419,16.299999872843426,17.31266632080078,7.826082040537,4.58839922312711,8.745948551460998,11.07889251815542,12.473639856478751,NA,15.076622194886879,12.711324176858861,12.47815933399697,12.179999987284344,11.963673155794938,7.826082040537,4.58839922312711,8.745948551460998,11.07889251815542,12.473639856478751,NA,15.076622194886879,12.711324176858861,12.47815933399697,12.179999987284344,11.963673155794938,0,0,297.36225074967393,452.4667460038498,652.0449837075096,NA,742.5047168768308,818.772661937984,968.5105739459476,1005.0505739078008,1005.0505739078008,0,0,0.899602941905751,1,1,NA,1,1,1,1,0.06666666666666667,1,1,1,1,1,NA,1,1,1,1,1,0.6937000052134196,0.42842857497079034,0.899602941905751,1,1,NA,1,1,1,1,0.9940666675567627,1,1,1,1,1,NA,1,0.9999999999999999,0.9999999999999999,0.9999999999999999,1,2022-05-07T12:00:00Z,2022-05-22T12:00:00Z,2022-05-29T12:00:00Z,2022-07-02T12:00:00Z,2022-07-16T12:00:00Z,NA,2022-08-01T12:00:00Z,2022-08-07T12:00:00Z,2022-08-13T12:00:00Z,2022-08-25T12:00:00Z,2022-08-28T12:00:00Z,2022-05-21T12:00:00Z,2022-05-28T12:00:00Z,2022-07-01T12:00:00Z,2022-07-15T12:00:00Z,2022-07-31T12:00:00Z,NA,2022-08-06T12:00:00Z,2022-08-12T12:00:00Z,2022-08-24T12:00:00Z,2022-08-27T12:00:00Z,2022-09-11T12:00:00Z,127,142,149,183,197,NA,213,219,225,237,240,14,6,33,13,15,0,5,5,11,2,14,141,148,182,196,212,NA,218,224,236,239,254
309,wanatah_in,41.4444,-86.9437,1.5,2022,9,2022,mid1,1001.3341110362146,11,2022-05-07,2022-05-21,109,2022-09-07,2022-09-10,2022-09-24,Harvested at Maturity.,1.7779999935378632,2.2214285574321235,2.502631538939711,3.0911764884915423,4.608333322219551,NA,0.3875000027474016,1.4600000412513812,2.638461549551441,0.01333333303531011,2.2699999815473952,1.7779999935378632,2.2214285574321235,2.502631538939711,3.0911764884915423,4.608333322219551,NA,0.3875000027474016,1.4600000412513812,2.638461549551441,0.01333333303531011,2.2699999815473952,20.9366668065389,20.49285684313093,24.155789375305176,22.115294175989487,19.138333532545303,NA,20.482500076293945,20.266666730244953,17.77615393125094,19.1899995803833,15.025333309173584,23.327333450317383,19.102857181004115,26.898421136956465,28.58294116749483,29.280555725097656,NA,27.365000009536743,27.890000025431316,29.28153844980093,27.890000025431316,26.199999872843424,17.614333407084146,14.284285749707903,21.225263181485627,23.607941150665283,24.333611249923706,NA,21.800000071525574,22.676666577657063,23.43538445692796,22.406666437784832,20.11199992497762,11.901333363850911,9.46571431841169,15.55210522601479,18.632941133835736,19.386666774749756,NA,16.235000133514404,17.463333129882813,17.58923046405499,16.923332850138348,14.023999977111817,7.826082040537,4.58839922312711,8.12122834154543,10.59993697319732,12.609091372278474,NA,11.764404835588188,12.676666577657063,13.196847503479626,12.406666437784832,9.307245132259528,7.826082040537,4.58839922312711,8.12122834154543,10.59993697319732,12.609091372278474,NA,11.764404835588188,12.676666577657063,13.196847503479626,12.406666437784832,9.307245132259528,0,0,308.6066769787264,488.80560552308083,715.7692502240934,NA,809.884488908799,885.9444883747414,1057.5035059199763,1094.723505233331,1094.723505233331,0,0,0.910171053284093,1,1,NA,1,1,1,1,0.06666666666666667,1,1,1,1,1,NA,1,1,1,1,1,0.6937000052134196,0.42842857497079034,0.910171053284093,1,1,NA,1,1,1,1,0.8657333405812582,1,1,1,1,1,NA,1,0.9999999999999999,1,1,1,2022-05-07T12:00:00Z,2022-05-22T12:00:00Z,2022-05-29T12:00:00Z,2022-07-06T12:00:00Z,2022-07-23T12:00:00Z,NA,2022-08-10T12:00:00Z,2022-08-18T12:00:00Z,2022-08-24T12:00:00Z,2022-09-06T12:00:00Z,2022-09-09T12:00:00Z,2022-05-21T12:00:00Z,2022-05-28T12:00:00Z,2022-07-05T12:00:00Z,2022-07-22T12:00:00Z,2022-08-09T12:00:00Z,NA,2022-08-17T12:00:00Z,2022-08-23T12:00:00Z,2022-09-05T12:00:00Z,2022-09-08T12:00:00Z,2022-09-23T12:00:00Z,127,142,149,187,204,NA,222,230,236,249,252,14,6,37,16,17,0,7,5,12,2,14,141,148,186,203,221,NA,229,235,248,251,266
310,wanatah_in,41.4444,-86.9437,2.5,2022,9,2022,mid2,1156.724346330314,11,2022-05-07,2022-05-21,119,2022-09-17,2022-09-21,2022-10-05,Harvested at Maturity.,1.7779999935378632,2.2214285574321235,2.6076190075615333,4.369000032544136,1.9368420861857503,0,1.5528571728084768,4.851666685504218,1.998666648939252,1.0850000083446503,1.02466668287913,1.7779999935378632,2.2214285574321235,2.6076190075615333,4.369000032544136,1.9368420861857503,0,1.5528571728084768,4.851666685504218,1.998666648939252,1.0850000083446503,1.02466668287913,20.9366668065389,20.49285684313093,23.709047544570197,21.565500020980835,19.74421074515895,25.440000534057617,18.425714220319474,20.105000019073486,15.435999965667724,16.832499980926514,15.370666726430256,23.327333450317383,19.102857181004115,26.945238158816384,28.410000038146972,29.164210670872738,28.799999237060547,28.1242858341762,29.21333344777425,27.38066660563151,28.25499963760376,21.18133322397868,17.614333407084146,14.284285749707903,21.44357141994295,23.372500038146974,23.80105279621325,22.545000076293945,22.848571368626185,23.204999923706055,21.582999833424886,22.21999979019165,15.327333211898804,11.901333363850911,9.46571431841169,15.941904681069511,18.335000038146973,18.437894921553763,16.290000915527344,17.572856903076172,17.19666639963786,15.785333061218262,16.18499994277954,9.47333319981893,7.826082040537,4.58839922312711,7.109282093430809,9.60299541542252,11.944441304803306,12.543426474631191,12.832558743839604,12.97044335503578,11.638314514424007,12.21999979019165,4.835866804635326,7.826082040537,4.58839922312711,7.109282093430809,9.60299541542252,11.944441304803306,12.543426474631191,12.832558743839604,12.97044335503578,11.638314514424007,12.21999979019165,4.835866804635326,0,0,298.589847924094,490.6497562325443,717.594141023807,730.1375674984382,819.9654787053155,897.7881388355302,1072.3628565518902,1121.2428557126568,1121.2428557126568,0,0,0.9187261910665603,1,1,1,1,1,0.9419000053405762,1,0.06666666666666667,1,1,1,1,1,1,1,1,1,1,1,0.6937000052134196,0.42842857497079034,0.9187261910665603,1,1,1,1,1,0.9419000053405762,1,0.48803332487742107,1,1,1,1,1,0.8960947581798467,0.9125611625456304,0.9218832537050197,1,0.9999999999999999,1,2022-05-07T12:00:00Z,2022-05-22T12:00:00Z,2022-05-29T12:00:00Z,2022-07-10T12:00:00Z,2022-07-30T12:00:00Z,2022-08-18T12:00:00Z,2022-08-19T12:00:00Z,2022-08-26T12:00:00Z,2022-09-01T12:00:00Z,2022-09-16T12:00:00Z,2022-09-20T12:00:00Z,2022-05-21T12:00:00Z,2022-05-28T12:00:00Z,2022-07-09T12:00:00Z,2022-07-29T12:00:00Z,2022-08-17T12:00:00Z,2022-08-18T12:00:00Z,2022-08-25T12:00:00Z,2022-08-31T12:00:00Z,2022-09-15T12:00:00Z,2022-09-19T12:00:00Z,2022-10-04T12:00:00Z,127,142,149,191,211,230,231,238,244,259,263,14,6,41,19,18,0,6,5,14,3,14,141,148,190,210,229,230,237,243,258,262,277
311,wanatah_in,41.4444,-86.9437,-1.5,2023,9,2023,mid000,197.75799524078647,11,2023-04-28,2023-05-12,76,2023-07-27,2023-07-30,2023-08-13,Harvested at Maturity.,3.510000047336022,0.5050000001986822,NA,0.4149999929592013,2.665454501116818,0.9700000286102296,6.9185713585466155,3.7216666620224714,1.8391666454263031,18.44999964038531,4.701999952395757,3.510000047336022,0.5050000001986822,NA,0.4149999929592013,2.665454501116818,0.9700000286102296,6.9185713585466155,3.7216666620224714,1.8391666454263031,18.44999964038531,4.701999952395757,17.765333366394042,20.171666463216145,NA,25.243500089645387,20.60727286338806,19.38999938964844,21.504286084856304,20.404999891916912,23.614166577657063,19.65999952952067,19.801333300272624,17.91200014750163,21.106666564941406,NA,24.985999965667723,25.549090905623004,32.40999984741211,28.634286063058035,27.59166685740153,28.959166526794434,32.70333290100098,27.303333155314128,12.901000086466471,15.537500063578287,NA,18.43175001144409,19.71272726492448,26.36999988555908,23.61000006539481,22.028333346048992,23.279166618982952,27.411666552225746,22.516999912261962,7.890000025431315,9.96833356221517,NA,11.877500057220459,13.876363624225963,20.329999923706055,18.585714067731583,16.464999834696453,17.599166711171467,22.12000020345052,17.730666669209796,4.1071186284691095,5.836549028411508,NA,8.224388527882912,8.985988348094391,14.145502373005591,12.589959340745656,11.542678979178666,12.978835028760317,15.587942366139094,11.642580300751527,4.1071186284691095,5.836549028411508,NA,8.224388527882912,8.985988348094391,14.145502373005591,12.589959340745656,11.542678979178666,12.978835028760317,15.587942366139094,11.642580300751527,0,0,NA,164.48777055765825,362.1795142157348,376.3250165887404,464.4547319739599,533.710805849032,689.4568261941557,736.220653292573,736.220653292573,0,0,NA,0.7498499989509583,0.8440909147262573,1,1,1,1,1,0.06666666666666667,1,1,NA,1,1,1,1,1,1,1,1,0.3820000108083089,0.5536666790644328,NA,0.7498499989509583,0.8440909147262573,1,1,1,1,1,1,1,1,NA,1,1,1,1,1,1,0.9999999999999999,1,2023-04-28T12:00:00Z,2023-05-13T12:00:00Z,NA,2023-05-19T12:00:00Z,2023-06-08T12:00:00Z,2023-06-30T12:00:00Z,2023-07-01T12:00:00Z,2023-07-08T12:00:00Z,2023-07-14T12:00:00Z,2023-07-26T12:00:00Z,2023-07-29T12:00:00Z,2023-05-12T12:00:00Z,2023-05-18T12:00:00Z,NA,2023-06-07T12:00:00Z,2023-06-29T12:00:00Z,2023-06-30T12:00:00Z,2023-07-07T12:00:00Z,2023-07-13T12:00:00Z,2023-07-25T12:00:00Z,2023-07-28T12:00:00Z,2023-08-12T12:00:00Z,118,133,NA,139,159,181,182,189,195,207,210,14,5,0,19,21,0,6,5,11,2,14,132,138,NA,158,180,181,188,194,206,209,224
312,wanatah_in,41.4444,-86.9437,-0.5,2023,9,2023,mid00,725.3099301520314,11,2023-04-28,2023-05-12,103,2023-08-23,2023-08-25,2023-09-08,Harvested at Maturity.,3.510000047336022,0.5050000001986822,0.9559459220114593,5.588666613524159,2.596249988884665,8.25,9.76833319167296,8.798333158095678,2.3542856757662123,0,1.1426666444788376,3.510000047336022,0.5050000001986822,0.9559459220114593,5.588666613524159,2.596249988884665,8.25,9.76833319167296,8.798333158095678,2.3542856757662123,0,1.1426666444788376,17.765333366394042,20.171666463216145,23.788919049340326,19.30400015513102,22.76249986886978,11.609999656677246,23.99833329518636,17.166666507720947,19.026428427015034,21.710000038146973,19.689333534240724,17.91200014750163,21.106666564941406,25.17837833713841,27.675333531697593,28.81124997138977,31.010000228881836,29.28333282470703,27.394999821980797,26.833571570260183,32.71000003814697,28.34800008138021,12.901000086466471,15.537500063578287,18.835135124825143,22.591333389282227,23.106562465429306,26.01500034332275,24.279999653498333,22.821666558583576,21.738928590502056,25.772500038146973,22.603333282470704,7.890000025431315,9.96833356221517,12.491891912511877,17.507333246866864,17.40187495946884,21.020000457763672,19.27666648228963,18.24833329518636,16.644285610743932,18.835000038146973,16.858666483561198,4.1071186284691095,5.836549028411508,7.956885696198828,11.009620250775924,12.22289392555273,15.380450224514208,13.344705090136841,12.78228421554764,11.716117438321454,14.247248044115306,11.120745280679067,4.1071186284691095,5.836549028411508,7.956885696198828,11.009620250775924,12.22289392555273,15.380450224514208,13.344705090136841,12.78228421554764,11.716117438321454,14.247248044115306,11.120745280679067,0,0,294.40477075935667,459.54907452099553,655.1153773298392,670.4958275543535,750.5640580951745,827.2577633884603,991.2834075249606,1019.7779036131913,1019.7779036131913,0,0,0.7786756786140236,0.9837333329518636,1,1,1,1,0.9915357181004115,1,0.06666666666666667,1,1,1,1,1,1,1,1,1,1,1,0.3820000108083089,0.5536666790644328,0.7786756786140236,0.9837333329518636,1,1,1,1,0.9915357181004115,1,0.9731999905904134,1,1,1,0.9999999999999999,1,1,1,1,1,1,1,2023-04-28T12:00:00Z,2023-05-13T12:00:00Z,2023-05-19T12:00:00Z,2023-06-25T12:00:00Z,2023-07-10T12:00:00Z,2023-07-26T12:00:00Z,2023-07-27T12:00:00Z,2023-08-02T12:00:00Z,2023-08-08T12:00:00Z,2023-08-22T12:00:00Z,2023-08-24T12:00:00Z,2023-05-12T12:00:00Z,2023-05-18T12:00:00Z,2023-06-24T12:00:00Z,2023-07-09T12:00:00Z,2023-07-25T12:00:00Z,2023-07-26T12:00:00Z,2023-08-01T12:00:00Z,2023-08-07T12:00:00Z,2023-08-21T12:00:00Z,2023-08-23T12:00:00Z,2023-09-07T12:00:00Z,118,133,139,176,191,207,208,214,220,234,236,14,5,36,14,15,0,5,5,13,1,14,132,138,175,190,206,207,213,219,233,235,250
313,wanatah_in,41.4444,-86.9437,0.5,2023,9,2023,mid0,777.7633970252213,11,2023-04-28,2023-05-12,105,2023-08-25,2023-08-27,2023-09-10,Harvested at Maturity.,3.510000047336022,0.5050000001986822,1.6192307396767995,4.4119999722888075,5.103529331109979,NA,1.918333371480306,7.844285564763205,2.372307650458354,0.03999999910593033,1.1899999793618918,3.510000047336022,0.5050000001986822,1.6192307396767995,4.4119999722888075,5.103529331109979,NA,1.918333371480306,7.844285564763205,2.372307650458354,0.03999999910593033,1.1899999793618918,17.765333366394042,20.171666463216145,23.32333343456953,20.93066685994466,21.72705863503849,NA,23.9900000890096,16.59714276450021,19.17615369650034,16.079999923706055,19.174000231424966,17.91200014750163,21.106666564941406,25.32051282051282,27.923333485921223,29.380588082706225,NA,28.09999974568685,26.4242856161935,27.73000012911283,31.31999969482422,27.248000208536784,12.901000086466471,15.537500063578287,19.050641035422302,22.62200002670288,23.847352869370404,NA,22.825833082199097,21.915714263916016,22.454999997065617,27.125,21.500333309173584,7.890000025431315,9.96833356221517,12.780769250331781,17.320666567484537,18.314117656034583,NA,17.551666418711346,17.40714291163853,17.179999865018406,22.93000030517578,15.752666409810384,4.1071186284691095,5.836549028411508,7.532405727204727,10.292011835283391,12.041967888353517,NA,12.334564568573391,11.882975462803794,12.195779987943173,15.407225646066665,10.425745299752553,4.1071186284691095,5.836549028411508,7.532405727204727,10.292011835283391,12.041967888353517,NA,12.334564568573391,11.882975462803794,12.195779987943173,15.407225646066665,10.425745299752553,0,0,293.76382336098436,448.1440008902351,652.8574549922448,NA,726.8648424036852,810.0456706433117,968.5908104865728,999.4052617787062,999.4052617787062,0,0,0.7900256438133044,0.9837333329518636,1,NA,1,1,0.990884619492751,1,0.06666666666666667,1,1,1,1,1,NA,1,1,1,1,1,0.3820000108083089,0.5536666790644328,0.7900256438133044,0.9837333329518636,1,NA,1,1,0.990884619492751,1,0.9578999932607015,1,1,1,0.9999999999999999,1,NA,0.9999999999999999,0.9999999999999999,0.9999999999999999,1,1,2023-04-28T12:00:00Z,2023-05-13T12:00:00Z,2023-05-19T12:00:00Z,2023-06-27T12:00:00Z,2023-07-12T12:00:00Z,NA,2023-07-29T12:00:00Z,2023-08-04T12:00:00Z,2023-08-11T12:00:00Z,2023-08-24T12:00:00Z,2023-08-26T12:00:00Z,2023-05-12T12:00:00Z,2023-05-18T12:00:00Z,2023-06-26T12:00:00Z,2023-07-11T12:00:00Z,2023-07-28T12:00:00Z,NA,2023-08-03T12:00:00Z,2023-08-10T12:00:00Z,2023-08-23T12:00:00Z,2023-08-25T12:00:00Z,2023-09-09T12:00:00Z,118,133,139,178,193,NA,210,216,223,236,238,14,5,38,14,16,0,5,6,12,1,14,132,138,177,192,209,NA,215,222,235,237,252
314,wanatah_in,41.4444,-86.9437,1.5,2023,9,2023,mid1,1055.9698829756055,11,2023-04-28,2023-05-12,117,2023-09-06,2023-09-11,2023-09-25,Harvested at Maturity.,3.510000047336022,0.5050000001986822,1.6845454306934369,4.365789425902461,6.851111010855271,0.12999999523162842,3.2399999781378677,1.4499999455043244,0.2038461550210531,3.0559999346733093,2.2999999529371657,3.510000047336022,0.5050000001986822,1.6845454306934369,4.365789425902461,6.851111010855271,0.12999999523162842,3.2399999781378677,1.4499999455043244,0.2038461550210531,3.0559999346733093,2.2999999529371657,17.765333366394042,20.171666463216145,22.554318287155844,22.119999985945853,21.104444397820366,23.75,16.664285523550852,21.284285681588308,20.91000014085036,13.668000221252441,14.402666695912679,17.91200014750163,21.106666564941406,25.505454540252686,28.351052735981188,28.771110852559406,27.280000686645508,26.354285648890905,27.920000348772323,28.993076911339394,25.668000411987304,23.587333297729494,12.901000086466471,15.537500063578287,19.38761363246224,22.860526335866826,23.7052776283688,21.59500026702881,21.85142857687814,22.095714296613423,22.71423075749324,21.626999950408937,18.1146666208903,7.890000025431315,9.96833356221517,13.269772724671798,17.369999935752467,18.639444404178196,15.90999984741211,17.348571504865372,16.27142824445452,16.435384603647083,17.585999488830566,12.641999944051108,4.1071186284691095,5.836549028411508,6.972339985199661,9.846422280848763,11.815073271707751,11.194931754599422,11.767758130570446,11.971449604593005,12.205972470072142,11.54576152722001,7.4433333079020185,4.1071186284691095,5.836549028411508,6.972339985199661,9.846422280848763,11.815073271707751,11.194931754599422,11.767758130570446,11.971449604593005,12.205972470072142,11.54576152722001,7.4433333079020185,0,0,306.7829593487851,493.8649826849116,706.5363015756511,717.7312333302506,800.1055402442437,883.9056874763946,1042.5833295873326,1100.3121372234327,1100.3121372234327,0,0,0.808340911431746,1,1,1,0.995214285169329,0.9878571510314942,0.9709230716411884,0.9492999935150147,0.06666666666666667,1,1,1,1,1,1,1,1,1,1,1,0.3820000108083089,0.5536666790644328,0.808340911431746,1,1,1,0.995214285169329,0.9878571510314942,0.9709230716411884,0.9492999935150147,0.7988333320617677,1,1,1,1,1,1,0.9999999999999999,0.9999999999999999,1,1,1,2023-04-28T12:00:00Z,2023-05-13T12:00:00Z,2023-05-19T12:00:00Z,2023-07-02T12:00:00Z,2023-07-21T12:00:00Z,2023-08-08T12:00:00Z,2023-08-09T12:00:00Z,2023-08-16T12:00:00Z,2023-08-23T12:00:00Z,2023-09-05T12:00:00Z,2023-09-10T12:00:00Z,2023-05-12T12:00:00Z,2023-05-18T12:00:00Z,2023-07-01T12:00:00Z,2023-07-20T12:00:00Z,2023-08-07T12:00:00Z,2023-08-08T12:00:00Z,2023-08-15T12:00:00Z,2023-08-22T12:00:00Z,2023-09-04T12:00:00Z,2023-09-09T12:00:00Z,2023-09-24T12:00:00Z,118,133,139,183,202,220,221,228,235,248,253,14,5,43,18,17,0,6,6,12,4,14,132,138,182,201,219,220,227,234,247,252,267
315,wanatah_in,41.4444,-86.9437,2.5,2023,9,2023,mid2,1286.870434301895,11,2023-04-28,2023-05-12,130,2023-09-19,2023-09-25,2023-10-09,Harvested at Maturity.,3.510000047336022,0.5050000001986822,2.195416628033854,3.0290476187531437,6.390952282895644,10.149999618530272,0.005714285586561475,0.37285714516682283,2.693529350463958,0.6650000015894572,3.391999945665399,3.510000047336022,0.5050000001986822,2.195416628033854,3.0290476187531437,6.390952282895644,10.149999618530272,0.005714285586561475,0.37285714516682283,2.693529350463958,0.6650000015894572,3.391999945665399,17.765333366394042,20.171666463216145,22.514583458503086,22.13619041442871,19.707142693655832,13.979999542236328,21.33571434020996,20.29571451459612,16.09764716204475,13.766666809717814,12.524000072479248,17.91200014750163,21.106666564941406,25.819791714350384,28.54142852056594,27.545237949916295,25.1299991607666,30.24000004359654,26.361428669520787,25.58117664561552,24.21833324432373,23.985333315531413,12.901000086466471,15.537500063578287,19.775312532981236,22.965476126897904,22.729523704165505,20.644999504089355,24.262857096535818,20.89857142312186,20.13794116412892,18.72666660944621,18.4596666653951,7.890000025431315,9.96833356221517,13.730833351612091,17.389523733229865,17.913809458414715,16.15999984741211,18.285714149475098,15.435714176722934,14.69470568264232,13.234999974568685,12.934000015258789,4.1071186284691095,5.836549028411508,6.200061009022441,9.066491384687332,10.86724947329443,10.52666610719641,13.275961878109882,11.085181075802021,10.252750245571136,9.17431597721378,8.013690142083764,4.1071186284691095,5.836549028411508,6.200061009022441,9.066491384687332,10.86724947329443,10.52666610719641,13.275961878109882,11.085181075802021,10.252750245571136,9.17431597721378,8.013690142083764,0,0,297.6029284330772,487.9992475115112,716.211486450694,726.7381525578904,819.6698857046596,897.2661532352738,1071.562907409983,1126.6088032732655,1126.6088032732655,0,0,0.8243125021457672,1,0.9984047617231097,1,0.9878571510314942,0.9459999901907785,0.8739999967462877,0.8422499974568685,0.054500001271565755,1,1,1,1,1,1,1,1,1,1,1,0.3820000108083089,0.5536666790644328,0.8243125021457672,1,0.9984047617231097,1,0.9878571510314942,0.9459999901907785,0.8739999967462877,0.8422499974568685,0.7692333348592123,1,1,1,0.9999999999999999,0.9999999999999999,1,0.9999999999999999,0.9999999999999999,1,0.9999999999999999,1,2023-04-28T12:00:00Z,2023-05-13T12:00:00Z,2023-05-19T12:00:00Z,2023-07-06T12:00:00Z,2023-07-27T12:00:00Z,2023-08-17T12:00:00Z,2023-08-18T12:00:00Z,2023-08-25T12:00:00Z,2023-09-01T12:00:00Z,2023-09-18T12:00:00Z,2023-09-24T12:00:00Z,2023-05-12T12:00:00Z,2023-05-18T12:00:00Z,2023-07-05T12:00:00Z,2023-07-26T12:00:00Z,2023-08-16T12:00:00Z,2023-08-17T12:00:00Z,2023-08-24T12:00:00Z,2023-08-31T12:00:00Z,2023-09-17T12:00:00Z,2023-09-23T12:00:00Z,2023-10-08T12:00:00Z,118,133,139,187,208,229,230,237,244,261,267,14,5,47,20,20,0,6,6,16,5,14,132,138,186,207,228,229,236,243,260,266,281
316,saginaw_mi,43.4003,-83.8684,-1.5,2017,10,2017,mid000,211.1185283448748,11,2017-04-06,2017-04-20,106,2017-08-04,2017-08-09,2017-08-23,Harvested at Maturity.,5.402000103145838,2.219545506787571,NA,1.811034500791595,5.462500032658379,NA,3.810000052675605,0.9157142631177392,2.07357143504279,2.933999943733215,2.5626666934539872,5.402000103145838,2.219545506787571,NA,1.811034500791595,5.462500032658379,NA,3.810000052675605,0.9157142631177392,2.07357143504279,2.933999943733215,2.5626666934539872,15.711333465576173,19.399090853604402,NA,21.059655271727465,21.896249969800312,NA,23.287500143051147,21.761428560529435,21.37642867224557,16.984000205993652,18.766666666666666,15.178000020980836,14.826818076047031,NA,20.924482838860875,24.295416673024494,NA,26.37374973297119,25.64571407863072,26.088571412222727,22.62400016784668,25.40399996439616,9.327666667103767,9.445227226073092,NA,15.611724171145209,19.82062504688899,NA,21.56499981880188,20.8892856325422,21.464285646166122,18.79000005722046,20.74800001780192,3.4773333132267,4.063636376099153,NA,10.298965503429544,15.345833420753479,NA,16.75624990463257,16.132857186453684,16.839999880109517,14.955999946594238,16.092000071207682,1.9804508941430847,1.7540482909568924,NA,5.464373261206634,8.862223471050273,NA,10.712605401550976,10.344177604512767,11.334813599830134,8.894174748096466,10.142333348592123,1.9804508941430847,1.7540482909568924,NA,5.464373261206634,8.862223471050273,NA,10.712605401550976,10.344177604512767,11.334813599830134,8.894174748096466,10.142333348592123,0,0,NA,158.4668245749924,371.1601878801988,NA,456.8610310926066,529.270274324196,687.9576647218177,732.4285384623,732.4285384623,0,0,NA,0.5590689675561313,0.8823541661103567,NA,0.9916249930858612,0.9760714258466449,0.9773928574153355,0.8453999996185303,0.06056666692097981,1,1,NA,1,1,NA,1,1,1,1,1,0.12290000279744466,0.09740908416834745,NA,0.5590689675561313,0.8823541661103567,NA,0.9916249930858612,0.9760714258466449,0.9773928574153355,0.8453999996185303,0.9748000017801921,1,1,NA,1,1,NA,1,1,1,0.9999999999999999,1,2017-04-06T12:00:00Z,2017-04-21T12:00:00Z,NA,2017-05-13T12:00:00Z,2017-06-11T12:00:00Z,NA,2017-07-05T12:00:00Z,2017-07-13T12:00:00Z,2017-07-20T12:00:00Z,2017-08-03T12:00:00Z,2017-08-08T12:00:00Z,2017-04-20T12:00:00Z,2017-05-12T12:00:00Z,NA,2017-06-10T12:00:00Z,2017-07-04T12:00:00Z,NA,2017-07-12T12:00:00Z,2017-07-19T12:00:00Z,2017-08-02T12:00:00Z,2017-08-07T12:00:00Z,2017-08-22T12:00:00Z,96,111,NA,133,162,NA,186,194,201,215,220,14,21,0,28,23,0,7,6,13,4,14,110,132,NA,161,185,NA,193,200,214,219,234
317,saginaw_mi,43.4003,-83.8684,-0.5,2017,10,2017,mid00,862.5901078632362,11,2017-04-06,2017-04-20,144,2017-09-11,2017-09-15,2017-09-29,Harvested at Maturity.,5.402000103145838,2.219545506787571,3.7395744974863656,2.573529422721442,1.8531578905684383,2.2799999713897705,1.842499993275851,2.5587500396650285,1.7520000105723739,0.009999999776482582,0.45866667528947197,5.402000103145838,2.219545506787571,3.7395744974863656,2.573529422721442,1.8531578905684383,2.2799999713897705,1.842499993275851,2.5587500396650285,1.7520000105723739,0.009999999776482582,0.45866667528947197,15.711333465576173,19.399090853604402,21.076170302451924,23.064117599936093,21.381052719919307,15.640000343322754,19.392499923706055,18.413750052452087,17.018499851226807,18.25000023841858,15.132666746775309,15.178000020980836,14.826818076047031,22.112766002086882,25.811764548806583,25.899473692241468,20.940000534057617,24.203749895095825,25.296250104904175,21.155499935150146,22.40000009536743,26.504000091552733,9.327666667103767,9.445227226073092,17.090106421328606,21.286764593685376,21.276315764376992,17.52500009536743,19.461875021457672,20.78562504053116,16.743499946594238,16.384999990463257,21.29200007120768,3.4773333132267,4.063636376099153,12.067446840570328,16.761764638564166,16.653157836512516,14.109999656677246,14.720000147819519,16.274999976158142,12.33149995803833,10.369999885559082,16.08000005086263,1.9804508941430847,1.7540482909568924,6.243480443365924,9.80848030116747,10.687452619134566,7.525000095367432,9.55659481408745,10.847545934692025,7.662951220273972,7.662338375498354,10.6048845797952,1.9804508941430847,1.7540482909568924,6.243480443365924,9.80848030116747,10.687452619134566,7.525000095367432,9.55659481408745,10.847545934692025,7.662951220273972,7.662338375498354,10.6048845797952,0,0,293.4435808381985,460.1877459580455,663.249345721602,670.7743458169695,747.2271043296691,834.0074718072053,987.2664962126848,1017.9158497146784,1017.9158497146784,0,0,0.6717978720969342,0.9851764707004322,0.9745263149863795,0.7525000095367432,0.909375,0.9778125047683716,0.6543749952316285,0.6384999990463257,0.0659666665395101,1,1,1,1,1,1,1,1,1,1,1,0.12290000279744466,0.09740908416834745,0.6717978720969342,0.9851764707004322,0.9745263149863795,0.7525000095367432,0.909375,0.9778125047683716,0.6543749952316285,0.6384999990463257,0.9167000071207683,1,1,1,0.9999999999999999,1,0.9999999999999998,0.9999999999999999,1,0.9999999999999999,1,1,2017-04-06T12:00:00Z,2017-04-21T12:00:00Z,2017-05-13T12:00:00Z,2017-06-29T12:00:00Z,2017-07-16T12:00:00Z,2017-08-04T12:00:00Z,2017-08-05T12:00:00Z,2017-08-13T12:00:00Z,2017-08-21T12:00:00Z,2017-09-10T12:00:00Z,2017-09-14T12:00:00Z,2017-04-20T12:00:00Z,2017-05-12T12:00:00Z,2017-06-28T12:00:00Z,2017-07-15T12:00:00Z,2017-08-03T12:00:00Z,2017-08-04T12:00:00Z,2017-08-12T12:00:00Z,2017-08-20T12:00:00Z,2017-09-09T12:00:00Z,2017-09-13T12:00:00Z,2017-09-28T12:00:00Z,96,111,133,180,197,216,217,225,233,253,257,14,21,46,16,18,0,7,7,19,3,14,110,132,179,196,215,216,224,232,252,256,271
318,saginaw_mi,43.4003,-83.8684,0.5,2017,10,2017,mid0,922.8010903366873,11,2017-04-06,2017-04-20,148,2017-09-15,2017-09-18,2017-10-02,Harvested at Maturity.,5.402000103145838,2.219545506787571,3.7167347199378575,2.1261111275396414,2.1909999903291464,0,1.516250005690381,3.7657143367188315,1.170952388218471,0.01333333303531011,0.6613333401580651,5.402000103145838,2.219545506787571,3.7167347199378575,2.1261111275396414,2.1909999903291464,0,1.516250005690381,3.7657143367188315,1.170952388218471,0.01333333303531011,0.6613333401580651,15.711333465576173,19.399090853604402,20.99551026675166,23.3366666369968,20.511000156402588,25.38999938964844,20.101250171661377,16.36142839704241,17.17047609601702,17.663333257039387,14.688666756947836,15.178000020980836,14.826818076047031,22.27673474136664,25.610555330912273,25.311000061035156,25.40999984741211,25.170000076293945,25.13571412222726,20.873809541974747,25.916666666666668,24.956000010172527,9.327666667103767,9.445227226073092,17.31173472988362,20.91499988238017,20.844249987602232,19.085000038146973,20.397500097751617,20.921428476061138,16.13952377864293,20.323333263397217,19.952333386739095,3.4773333132267,4.063636376099153,12.346734718400604,16.219444433848064,16.377499914169313,12.760000228881836,15.62500011920929,16.70714282989502,11.405238015311106,14.729999860127768,14.948666763305663,1.9804508941430847,1.7540482909568924,5.891469673794353,8.81984540140996,9.8695040485245,9.011314147707358,10.459538902229008,10.960290961119107,7.245540046182417,10.323333263397215,9.153630690865517,1.9804508941430847,1.7540482909568924,5.891469673794353,8.81984540140996,9.8695040485245,9.011314147707358,10.459538902229008,10.960290961119107,7.245540046182417,10.323333263397215,9.153630690865517,0,0,288.6820140159233,447.4392312413027,644.8293122117925,653.8406263594999,737.516937577332,814.2389743051657,966.3953152749966,997.3653150651884,997.3653150651884,0,0,0.6851938773174675,0.9766944434907702,0.9455250000953674,0.9085000038146972,0.9643125057220459,0.9640714236668179,0.6139523778642927,0.9964999993642172,0.06666666666666667,1,1,1,1,1,1,1,1,1,1,1,0.12290000279744466,0.09740908416834745,0.6851938773174675,0.9766944434907702,0.9455250000953674,0.9085000038146972,0.9643125057220459,0.9640714236668179,0.6139523778642927,0.9964999993642172,0.7899000040690104,1,1,1,0.9999999999999999,0.9999999999999999,0.9999999999999998,1,0.9999999999999998,0.9999999999999999,1,1,2017-04-06T12:00:00Z,2017-04-21T12:00:00Z,2017-05-13T12:00:00Z,2017-07-01T12:00:00Z,2017-07-19T12:00:00Z,2017-08-08T12:00:00Z,2017-08-09T12:00:00Z,2017-08-17T12:00:00Z,2017-08-24T12:00:00Z,2017-09-14T12:00:00Z,2017-09-17T12:00:00Z,2017-04-20T12:00:00Z,2017-05-12T12:00:00Z,2017-06-30T12:00:00Z,2017-07-18T12:00:00Z,2017-08-07T12:00:00Z,2017-08-08T12:00:00Z,2017-08-16T12:00:00Z,2017-08-23T12:00:00Z,2017-09-13T12:00:00Z,2017-09-16T12:00:00Z,2017-10-01T12:00:00Z,96,111,133,182,200,220,221,229,236,257,260,14,21,48,17,19,0,7,6,20,2,14,110,132,181,199,219,220,228,235,256,259,274
319,saginaw_mi,43.4003,-83.8684,1.5,2017,10,2017,mid1,1191.7698051103384,11,2017-04-06,2017-04-20,160,2017-09-27,2017-10-04,2017-10-18,Harvested at Maturity.,5.402000103145838,2.219545506787571,3.5062500321904997,2.248571421152779,2.210909094407477,0,2.407000028155744,0.8438461484530797,0.4438461634115531,0.6099999964769397,5.178666604806979,5.402000103145838,2.219545506787571,3.5062500321904997,2.248571421152779,2.210909094407477,0,2.407000028155744,0.8438461484530797,0.4438461634115531,0.6099999964769397,5.178666604806979,15.711333465576173,19.399090853604402,21.751428612640925,20.662857282729377,19.69045456972989,21.809999465942383,16.778999900817873,17.79076913686899,15.265384637392485,14.952857289995466,9.933333381017048,15.178000020980836,14.826818076047031,22.71375003882817,25.696190334501722,24.931818181818183,27.040000915527344,22.437999725341797,20.267692419198845,27.00538473862868,21.272857121058873,19.984666442871095,9.327666667103767,9.445227226073092,17.75428574851581,21.210952281951904,20.35931816968051,21.290000438690186,18.373499870300293,15.24692307985746,21.6303847019489,16.25071430206299,15.329333194096883,3.4773333132267,4.063636376099153,12.794821458203451,16.725714229402087,15.786818157542836,15.539999961853027,14.309000015258789,10.226153740516075,16.25538466526912,11.228571483067103,10.673999945322674,1.9804508941430847,1.7540482909568924,5.508582818789907,8.607372065569372,9.699332933143802,11.290000438690186,8.675302497817277,6.782154419702292,11.65403135499404,7.679646435483864,4.974031654921571,1.9804508941430847,1.7540482909568924,5.508582818789907,8.607372065569372,9.699332933143802,11.290000438690186,8.675302497817277,6.782154419702292,11.65403135499404,7.679646435483864,4.974031654921571,0,0,308.48063785223474,489.2354512291915,702.6207757583552,713.9107761970454,800.6638011752183,888.831808631348,1040.334216246271,1094.0917412946576,1094.0917412946576,0,0,0.7212410722460065,0.9737619014013381,0.9477272748947143,1,0.7973999881744385,0.524692307985746,0.9523846222804143,0.5609285763331822,0.06466666539510091,1,1,1,1,1,1,1,1,1,1,1,0.12290000279744466,0.09740908416834745,0.7212410722460065,0.9737619014013381,0.9477272748947143,1,0.7973999881744385,0.524692307985746,0.9523846222804143,0.5609285763331822,0.5401333157221476,1,1,1,1,0.9999999999999999,1,1,1,1,0.9999999999999999,1,2017-04-06T12:00:00Z,2017-04-21T12:00:00Z,2017-05-13T12:00:00Z,2017-07-08T12:00:00Z,2017-07-29T12:00:00Z,2017-08-20T12:00:00Z,2017-08-21T12:00:00Z,2017-08-31T12:00:00Z,2017-09-13T12:00:00Z,2017-09-26T12:00:00Z,2017-10-03T12:00:00Z,2017-04-20T12:00:00Z,2017-05-12T12:00:00Z,2017-07-07T12:00:00Z,2017-07-28T12:00:00Z,2017-08-19T12:00:00Z,2017-08-20T12:00:00Z,2017-08-30T12:00:00Z,2017-09-12T12:00:00Z,2017-09-25T12:00:00Z,2017-10-02T12:00:00Z,2017-10-17T12:00:00Z,96,111,133,189,210,232,233,243,256,269,276,14,21,55,20,21,0,9,12,12,6,14,110,132,188,209,231,232,242,255,268,275,290
320,saginaw_mi,43.4003,-83.8684,2.5,2017,10,2017,mid2,1250.7733505968577,11,2017-04-06,2017-04-20,176,2017-10-13,2017-10-22,2017-11-05,Harvested at Maturity.,5.402000103145838,2.219545506787571,3.509836093904298,1.943599986806512,2.062307715630875,0.6100000143051147,0.8674999928722779,0.7100000157952309,2.32157893890613,4.205555467555921,5.079333326096336,5.402000103145838,2.219545506787571,3.509836093904298,1.943599986806512,2.062307715630875,0.6100000143051147,0.8674999928722779,0.7100000157952309,2.32157893890613,4.205555467555921,5.079333326096336,15.711333465576173,19.399090853604402,21.680983660651034,20.811600112915038,18.21230759987464,22.329999923706055,16.539166688919067,14.634999930858612,13.409473757994803,9.942222171359592,6.216666682561239,15.178000020980836,14.826818076047031,22.965409841693816,25.42959999084473,23.57653830601619,22.040000915527344,21.105833530426025,26.172500133514404,22.915789353220088,18.203333112928604,11.152666632334391,9.327666667103767,9.445227226073092,18.048442633425605,20.887999954223634,19.215192244603085,15.30500030517578,15.926250060399374,21.105000138282776,17.905526236483926,13.118888775507608,7.703333284457525,3.4773333132267,4.063636376099153,13.13147542515739,16.34639991760254,14.85384618318998,8.569999694824219,10.74666659037272,16.037500143051147,12.895263119747764,8.034444438086616,4.253999936580658,1.9804508941430847,1.7540482909568924,4.816596239694954,7.851029946089188,8.788650237056887,5.427280485153197,7.270691636112829,11.129599333190917,8.824191022432164,5.957755833495326,0.7417424307631452,1.9804508941430847,1.7540482909568924,4.816596239694954,7.851029946089188,8.788650237056887,5.427280485153197,7.270691636112829,11.129599333190917,8.824191022432164,5.957755833495326,0.7417424307631452,0,0,293.8123706213922,490.08811927362194,718.593025437101,724.0203059222542,811.2686055556082,900.3054002211356,1067.965029647347,1121.584832148805,1121.584832148805,0,0,0.7429918031223485,0.9558199996948242,0.8638269167680007,0.5305000305175781,0.5926250060399374,0.9431250095367432,0.6896578864047402,0.33149998717837864,0.03963333129882813,1,1,1,1,1,1,1,1,1,1,1,0.12290000279744466,0.09740908416834745,0.7429918031223485,0.9558199996948242,0.8638269167680007,0.5305000305175781,0.5926250060399374,0.9431250095367432,0.6896578864047402,0.33149998717837864,0.1087999979654948,1,1,1,1,0.9999999999999999,0.9999999999999996,1,1,0.9999999999999999,0.9999999999999999,1,2017-04-06T12:00:00Z,2017-04-21T12:00:00Z,2017-05-13T12:00:00Z,2017-07-13T12:00:00Z,2017-08-07T12:00:00Z,2017-09-02T12:00:00Z,2017-09-03T12:00:00Z,2017-09-15T12:00:00Z,2017-09-23T12:00:00Z,2017-10-12T12:00:00Z,2017-10-21T12:00:00Z,2017-04-20T12:00:00Z,2017-05-12T12:00:00Z,2017-07-12T12:00:00Z,2017-08-06T12:00:00Z,2017-09-01T12:00:00Z,2017-09-02T12:00:00Z,2017-09-14T12:00:00Z,2017-09-22T12:00:00Z,2017-10-11T12:00:00Z,2017-10-20T12:00:00Z,2017-11-04T12:00:00Z,96,111,133,194,219,245,246,258,266,285,294,14,21,60,24,25,0,11,7,18,8,14,110,132,193,218,244,245,257,265,284,293,308
321,saginaw_mi,43.4003,-83.8684,-1.5,2018,10,2018,mid000,240.8109962341232,11,2018-04-20,2018-05-04,89,2018-08-01,2018-08-05,2018-08-19,Harvested at Maturity.,1.9699999840309224,2.830000052567233,NA,2.286399993598461,2.036818185397847,0.36000001430511475,0.8128571340015956,2.801428654098085,2.132142808288336,5.539999932050705,1.8486666270842156,1.9699999840309224,2.830000052567233,NA,2.286399993598461,2.036818185397847,0.36000001430511475,0.8128571340015956,2.801428654098085,2.132142808288336,5.539999932050705,1.8486666270842156,20.910000038146972,19.83272717215798,NA,22.300800132751466,22.04272712360729,27.90999984741211,28.784285681588308,22.707142693655832,20.795000212533132,17.827499866485596,18.652666409810383,15.846666717529297,18.504545645280317,NA,22.242400131225587,25.22590923309326,27.260000228881836,27.694285529000418,27.365714481898717,24.949999945504324,25.989999771118164,27.370000076293945,9.446333336333433,12.405909213152798,NA,16.78160011291504,20.169772820039228,24.39000034332275,22.38142844608852,22.742142949785507,20.857500008174352,21.457499742507935,23.136333338419597,3.0459999551375705,6.307272781025279,NA,11.320800094604492,15.113636406985195,21.520000457763672,17.06857136317662,18.118571417672293,16.765000070844376,16.924999713897705,18.90266660054525,2.366564248597771,3.5463342721653257,NA,6.520021529193679,9.152953772060416,13.092247770166276,11.34097605861216,11.976171164358169,10.642720265934773,11.457499742507935,12.265333366394042,2.366564248597771,3.5463342721653257,NA,6.520021529193679,9.152953772060416,13.092247770166276,11.34097605861216,11.976171164358169,10.642720265934773,11.457499742507935,12.265333366394042,0,0,NA,163.000538229842,364.36552121517104,377.45776898533734,456.8446013956224,540.6777995461296,689.6758832692162,735.505882239248,735.505882239248,0,0,NA,0.6297600078582763,0.8846363631161777,1,0.9852142810821534,1,0.9844642911638533,1,0.06666666666666667,1,1,NA,1,1,1,1,1,1,1,1,0.1653333282470703,0.2873636484146118,NA,0.6297600078582763,0.8846363631161777,1,0.9852142810821534,1,0.9844642911638533,1,1,1,1,NA,1,0.9999999999999999,1,1,0.9999999999999999,1,1,1,2018-04-20T12:00:00Z,2018-05-05T12:00:00Z,NA,2018-05-16T12:00:00Z,2018-06-10T12:00:00Z,2018-07-02T12:00:00Z,2018-07-03T12:00:00Z,2018-07-10T12:00:00Z,2018-07-17T12:00:00Z,2018-07-31T12:00:00Z,2018-08-04T12:00:00Z,2018-05-04T12:00:00Z,2018-05-15T12:00:00Z,NA,2018-06-09T12:00:00Z,2018-07-01T12:00:00Z,2018-07-02T12:00:00Z,2018-07-09T12:00:00Z,2018-07-16T12:00:00Z,2018-07-30T12:00:00Z,2018-08-03T12:00:00Z,2018-08-18T12:00:00Z,110,125,NA,136,161,183,184,191,198,212,216,14,10,0,24,21,0,6,6,13,3,14,124,135,NA,160,182,183,190,197,211,215,230
322,saginaw_mi,43.4003,-83.8684,-0.5,2018,10,2018,mid00,802.1438714657008,11,2018-04-20,2018-05-04,116,2018-08-28,2018-08-31,2018-09-14,Harvested at Maturity.,1.9699999840309224,2.830000052567233,2.3509302304754423,0.7353333421051502,2.6084210280525055,5.630000114440918,3.2449999302625656,2.461666584946215,3.2938462077425075,16.749999523162842,2.6360000452647605,1.9699999840309224,2.830000052567233,2.3509302304754423,0.7353333421051502,2.6084210280525055,5.630000114440918,3.2449999302625656,2.461666584946215,3.2938462077425075,16.749999523162842,2.6360000452647605,20.910000038146972,19.83272717215798,21.623720989670865,27.86933314005534,20.471579049762926,15.6899995803833,19.299999872843426,21.60166613260905,15.89307689666748,13.299999872843424,15.591333357493083,15.846666717529297,18.504545645280317,23.08441871820494,27.90866673787435,25.585789429514033,26.110000610351563,27.703333218892414,26.968333562215168,25.962307563194862,26.93666712443034,23.834666697184243,9.446333336333433,12.405909213152798,17.80627916025561,22.833666706085204,21.459999987953587,21.6850004196167,23.28166659673055,22.56083345413208,21.7861537199754,23.356666882832844,19.726666673024496,3.0459999551375705,6.307272781025279,12.528139602306277,17.758666674296062,17.334210546393145,17.260000228881836,18.859999974568684,18.153333346048992,17.609999876755936,19.77666664123535,15.618666648864746,2.366564248597771,3.5463342721653257,6.830790576799894,11.025644628809195,10.649996512369825,11.536195799025997,13.269246687678237,12.56083345413208,11.792314664084177,13.356666882832846,9.249333318074545,2.366564248597771,3.5463342721653257,6.830790576799894,11.025644628809195,10.649996512369825,11.536195799025997,13.269246687678237,12.56083345413208,11.792314664084177,13.356666882832846,9.249333318074545,0,0,293.7239948023956,459.1086642345335,661.4585979695603,672.9947937685863,752.6102738946557,827.9752746194482,981.2753652525424,1021.3453659010412,1021.3453659010412,0,0,0.7257209345351818,0.9930999978383382,0.9885526355944182,1,1,1,0.9815769195556641,0.9679999987284342,0.04773333549499512,1,1,1,1,1,1,1,1,1,1,1,0.1653333282470703,0.2873636484146118,0.7257209345351818,0.9930999978383382,0.9885526355944182,1,1,1,0.9815769195556641,0.9679999987284342,0.8325333372751872,1,1,1,0.9999999999999999,1,1,1,0.9999999999999999,1,1,1,2018-04-20T12:00:00Z,2018-05-05T12:00:00Z,2018-05-16T12:00:00Z,2018-06-28T12:00:00Z,2018-07-13T12:00:00Z,2018-08-01T12:00:00Z,2018-08-02T12:00:00Z,2018-08-08T12:00:00Z,2018-08-14T12:00:00Z,2018-08-27T12:00:00Z,2018-08-30T12:00:00Z,2018-05-04T12:00:00Z,2018-05-15T12:00:00Z,2018-06-27T12:00:00Z,2018-07-12T12:00:00Z,2018-07-31T12:00:00Z,2018-08-01T12:00:00Z,2018-08-07T12:00:00Z,2018-08-13T12:00:00Z,2018-08-26T12:00:00Z,2018-08-29T12:00:00Z,2018-09-13T12:00:00Z,110,125,136,179,194,213,214,220,226,239,242,14,10,42,14,18,0,5,5,12,2,14,124,135,178,193,212,213,219,225,238,241,256
323,saginaw_mi,43.4003,-83.8684,0.5,2018,10,2018,mid0,868.1590723503705,11,2018-04-20,2018-05-04,119,2018-08-31,2018-09-03,2018-09-17,Harvested at Maturity.,1.9699999840309224,2.830000052567233,2.2511111091822387,1.3153333635379871,2.9304999563843013,0.03999999910593033,3.5783332139253616,0.3016666729624073,7.05076917203573,5.493333465109269,1.5420000188052654,1.9699999840309224,2.830000052567233,2.2511111091822387,1.3153333635379871,2.9304999563843013,0.03999999910593033,3.5783332139253616,0.3016666729624073,7.05076917203573,5.493333465109269,1.5420000188052654,20.910000038146972,19.83272717215798,21.948666699727376,26.373333231608072,20.498000049591063,24.809999465942383,19.023333231608074,19.59999942779541,14.97153847034161,16.12000020345052,15.859999879201252,15.846666717529297,18.504545645280317,23.33533346388075,27.7,25.56899995803833,28.709999084472656,27.33666706085205,27.49833329518636,25.78153844980093,24.406667073567707,24.41200002034505,9.446333336333433,12.405909213152798,18.01566676033868,22.936333338419598,21.330749988555908,23.0649995803833,23.411666870117188,22.9474999109904,21.796923050513634,19.576666990915935,20.26833330790202,3.0459999551375705,6.307272781025279,12.696000056796603,18.172666676839192,17.092500019073487,17.420000076293945,19.486666679382324,18.396666526794434,17.812307651226337,14.74666690826416,16.124666595458983,2.366564248597771,3.5463342721653257,6.416375771630222,10.274565088209611,10.047979587285957,12.547159690591968,13.219282838943073,12.947499910990398,11.803083994622414,9.778004523408413,9.342333285013835,2.366564248597771,3.5463342721653257,6.416375771630222,10.274565088209611,10.047979587285957,12.547159690591968,13.219282838943073,12.947499910990398,11.803083994622414,9.778004523408413,9.342333285013835,0,0,288.73690972336,442.8553860465041,643.8149777922234,656.3621374828153,735.6778345164738,813.3628339824162,966.8029259125076,996.1369394827328,996.1369394827328,0,0,0.7379111152225071,0.9930999978383382,0.9891250038146973,1,1,1,0.9741923038776105,0.8681666851043701,0.06666666666666667,1,1,1,1,1,1,1,1,1,1,1,0.1653333282470703,0.2873636484146118,0.7379111152225071,0.9930999978383382,0.9891250038146973,1,1,1,0.9741923038776105,0.8681666851043701,0.8589000002543131,1,1,1,1,1,0.9999999999999998,0.9999999999999999,1,1,1,1,2018-04-20T12:00:00Z,2018-05-05T12:00:00Z,2018-05-16T12:00:00Z,2018-06-30T12:00:00Z,2018-07-15T12:00:00Z,2018-08-04T12:00:00Z,2018-08-05T12:00:00Z,2018-08-11T12:00:00Z,2018-08-17T12:00:00Z,2018-08-30T12:00:00Z,2018-09-02T12:00:00Z,2018-05-04T12:00:00Z,2018-05-15T12:00:00Z,2018-06-29T12:00:00Z,2018-07-14T12:00:00Z,2018-08-03T12:00:00Z,2018-08-04T12:00:00Z,2018-08-10T12:00:00Z,2018-08-16T12:00:00Z,2018-08-29T12:00:00Z,2018-09-01T12:00:00Z,2018-09-16T12:00:00Z,110,125,136,181,196,216,217,223,229,242,245,14,10,44,14,19,0,5,5,12,2,14,124,135,180,195,215,216,222,228,241,244,259
324,saginaw_mi,43.4003,-83.8684,1.5,2018,10,2018,mid1,1054.734698891057,11,2018-04-20,2018-05-04,134,2018-09-15,2018-09-19,2018-10-03,Harvested at Maturity.,1.9699999840309224,2.830000052567233,2.0729999997094275,2.478999993856996,2.4159999459050594,0,3.917142979800701,6.417142695614269,3.7668750138254836,0.022499999497085806,4.513999945670366,1.9699999840309224,2.830000052567233,2.0729999997094275,2.478999993856996,2.4159999459050594,0,3.917142979800701,6.417142695614269,3.7668750138254836,0.022499999497085806,4.513999945670366,20.910000038146972,19.83272717215798,22.53760000228882,22.591499996185302,20.960499858856203,22.969999313354492,13.468571526663645,16.78428554534912,15.352500051259995,17.992499589920044,10.465999952952068,15.846666717529297,18.504545645280317,23.980800132751465,26.14400005340576,26.480499935150146,28.770000457763672,26.122856957571848,26.22000013078962,23.79187500476837,27.65250015258789,19.39333349863688,9.446333336333433,12.405909213152798,18.759100103378294,21.680000042915346,22.054999947547913,23.25500011444092,22.457142693655832,21.97071429661342,19.68375000357628,22.598750114440918,15.413666693369548,3.0459999551375705,6.307272781025279,13.537400074005127,17.216000032424926,17.62949995994568,17.739999771118164,18.791428429739817,17.72142846243722,15.575625002384186,17.545000076293945,11.433999888102214,2.366564248597771,3.5463342721653257,6.165866183164407,8.7213037328338,10.842410154179454,13.168708964866344,12.45714269365583,11.982156049958297,9.87907963630855,12.598750114440918,4.836823470905026,2.366564248597771,3.5463342721653257,6.165866183164407,8.7213037328338,10.842410154179454,13.168708964866344,12.45714269365583,11.982156049958297,9.87907963630855,12.598750114440918,4.836823470905026,0,0,308.2933091582203,482.7193838148962,699.5675868984855,712.7362958633519,799.9362947189427,883.8113870686508,1041.8766612495876,1092.2716617073513,1092.2716617073513,0,0,0.7641200037002563,0.9903999996185303,0.9935500025749207,1,1,0.9657857077462333,0.8370000034570695,1,0.06666666666666667,1,1,1,1,1,1,1,1,1,1,1,0.1653333282470703,0.2873636484146118,0.7641200037002563,0.9903999996185303,0.9935500025749207,1,1,0.9657857077462333,0.8370000034570695,1,0.5262000020345052,1,1,1,0.9999999999999999,1,0.9999999999999998,1,1,1,1,1,2018-04-20T12:00:00Z,2018-05-05T12:00:00Z,2018-05-16T12:00:00Z,2018-07-05T12:00:00Z,2018-07-25T12:00:00Z,2018-08-14T12:00:00Z,2018-08-15T12:00:00Z,2018-08-22T12:00:00Z,2018-08-29T12:00:00Z,2018-09-14T12:00:00Z,2018-09-18T12:00:00Z,2018-05-04T12:00:00Z,2018-05-15T12:00:00Z,2018-07-04T12:00:00Z,2018-07-24T12:00:00Z,2018-08-13T12:00:00Z,2018-08-14T12:00:00Z,2018-08-21T12:00:00Z,2018-08-28T12:00:00Z,2018-09-13T12:00:00Z,2018-09-17T12:00:00Z,2018-10-02T12:00:00Z,110,125,136,186,206,226,227,234,241,257,261,14,10,49,19,19,0,6,6,15,3,14,124,135,185,205,225,226,233,240,256,260,275
325,saginaw_mi,43.4003,-83.8684,2.5,2018,10,2018,mid2,1219.2774164987757,11,2018-04-20,2018-05-04,146,2018-09-27,2018-10-07,2018-10-21,Harvested at Maturity.,1.9699999840309224,2.830000052567233,1.9294642833992839,3.0508695507179135,2.560500005539507,0.15000000596046448,8.244999796617776,5.175714382103512,1.1033333606190152,5.656999884918332,2.457333307837447,1.9699999840309224,2.830000052567233,1.9294642833992839,3.0508695507179135,2.560500005539507,0.15000000596046448,8.244999796617776,5.175714382103512,1.1033333606190152,5.656999884918332,2.457333307837447,20.910000038146972,19.83272717215798,23.21553569180625,20.479565330173656,18.32899980545044,24.219999313354492,15.012500047683716,15.415714263916016,14.2916665342119,9.134999990463257,9.63133331934611,15.846666717529297,18.504545645280317,24.259285824639456,25.740869522094727,26.746000003814697,25.549999237060547,25.58750033378601,25.90999984741211,23.473889032999676,17.285000133514405,15.38733336130778,9.446333336333433,12.405909213152798,19.041428659643447,21.428478240966797,22.627749967575074,19.75999975204468,21.31250011920929,22.23999990735735,18.905277834998238,12.871500015258789,10.78400006890297,3.0459999551375705,6.307272781025279,13.823571494647435,17.116086959838867,18.509499931335448,13.970000267028809,17.03749990463257,18.569999967302596,14.3366666369968,8.457999897003173,6.180666776498159,2.366564248597771,3.5463342721653257,5.3456855414568105,7.956042729038912,11.435097676516557,9.759999752044678,11.390504965854436,12.25943715223755,9.314390800979734,5.829256598386168,2.669117774897814,2.366564248597771,3.5463342721653257,5.3456855414568105,7.956042729038912,11.435097676516557,9.759999752044678,11.390504965854436,12.25943715223755,9.314390800979734,5.829256598386168,2.669117774897814,0,0,299.3583903215814,482.3473730894764,711.0493266198075,720.8093263718522,811.9333660986877,897.7494261643506,1065.4084605819858,1123.701026565847,1123.701026565847,0,0,0.7875446455819266,0.9905434815779977,0.9930999994277954,0.9759999752044678,0.9288750052452087,0.9237142835344587,0.818833335240682,0.28950000286102295,0.0512666670481364,1,1,1,1,1,1,1,1,1,1,1,0.1653333282470703,0.2873636484146118,0.7875446455819266,0.9905434815779977,0.9930999994277954,0.9759999752044678,0.9288750052452087,0.9237142835344587,0.818833335240682,0.28950000286102295,0.27056666851043704,1,1,1,1,0.9999999999999999,1,0.9999999999999999,0.9999999999999999,0.9999999999999999,1,1,2018-04-20T12:00:00Z,2018-05-05T12:00:00Z,2018-05-16T12:00:00Z,2018-07-11T12:00:00Z,2018-08-03T12:00:00Z,2018-08-23T12:00:00Z,2018-08-24T12:00:00Z,2018-09-01T12:00:00Z,2018-09-08T12:00:00Z,2018-09-26T12:00:00Z,2018-10-06T12:00:00Z,2018-05-04T12:00:00Z,2018-05-15T12:00:00Z,2018-07-10T12:00:00Z,2018-08-02T12:00:00Z,2018-08-22T12:00:00Z,2018-08-23T12:00:00Z,2018-08-31T12:00:00Z,2018-09-07T12:00:00Z,2018-09-25T12:00:00Z,2018-10-05T12:00:00Z,2018-10-20T12:00:00Z,110,125,136,192,215,235,236,244,251,269,279,14,10,55,22,19,0,7,6,17,9,14,124,135,191,214,234,235,243,250,268,278,293
326,saginaw_mi,43.4003,-83.8684,-1.5,2019,10,2019,mid000,210.5657154748627,11,2019-05-10,2019-05-24,84,2019-08-16,2019-08-20,2019-09-03,Harvested at Maturity.,2.9739999604721863,5.181250039488077,NA,4.547407452982885,1.3842105053757365,0.1899999976158142,3.465714269982917,2.2499999916180964,1.0064285727483886,4.525000125169754,1.4093333253016074,2.9739999604721863,5.181250039488077,NA,4.547407452982885,1.3842105053757365,0.1899999976158142,3.465714269982917,2.2499999916180964,1.0064285727483886,4.525000125169754,1.4093333253016074,17.88933334350586,16.17249983549118,NA,20.849259182258887,24.21210519891036,19.40999984741211,21.887142453874862,21.911666711171467,22.540714263916016,17.365000009536743,18.98066660563151,16.65533332824707,19.477499961853027,NA,21.64111102068866,26.732631482576068,28,26.410000119890487,26.47833315531413,25.842857224600657,24.392499923706055,23.842666753133138,11.376333371798196,14.596874952316284,NA,16.32222216217606,21.842105288254587,23.43000030517578,21.984285763331822,22.362499952316284,21.372857230050222,20.731249928474426,19.413000075022378,6.097333415349325,9.716249942779541,NA,11.003333303663466,16.951579093933105,18.860000610351563,17.558571406773158,18.24666674931844,16.90285723549979,17.069999933242798,14.98333339691162,2.6333107180014252,4.662420533206314,NA,5.808162093079236,10.96213022195812,12.859765439942606,11.700268079923164,12.342820385086291,11.377189401962926,10.731249928474424,8.636666711171468,2.6333107180014252,4.662420533206314,NA,5.808162093079236,10.96213022195812,12.859765439942606,11.700268079923164,12.342820385086291,11.377189401962926,10.731249928474424,8.636666711171468,0,0,NA,156.82037651313942,365.1008507303438,377.9606161702864,459.86249272974845,533.9194150402661,693.2000666677471,736.1250663816448,736.1250663816448,0,0,NA,0.6135555496922246,0.9808421009465268,1,0.9638571534837995,0.9867500066757202,0.9909642900739397,0.9399999976158142,0.06666666666666667,1,1,NA,1,1,1,1,1,1,1,1,0.19746666510899863,0.45968749523162844,NA,0.6135555496922246,0.9808421009465268,1,0.9638571534837995,0.9867500066757202,0.9909642900739397,0.9399999976158142,0.8755666637420655,1,1,NA,1,0.9999999999999999,1,0.9999999999999999,0.9999999999999999,0.9999999999999999,1,1,2019-05-10T12:00:00Z,2019-05-25T12:00:00Z,NA,2019-06-02T12:00:00Z,2019-06-29T12:00:00Z,2019-07-18T12:00:00Z,2019-07-19T12:00:00Z,2019-07-26T12:00:00Z,2019-08-01T12:00:00Z,2019-08-15T12:00:00Z,2019-08-19T12:00:00Z,2019-05-24T12:00:00Z,2019-06-01T12:00:00Z,NA,2019-06-28T12:00:00Z,2019-07-17T12:00:00Z,2019-07-18T12:00:00Z,2019-07-25T12:00:00Z,2019-07-31T12:00:00Z,2019-08-14T12:00:00Z,2019-08-18T12:00:00Z,2019-09-02T12:00:00Z,130,145,NA,153,180,199,200,207,213,227,231,14,7,0,26,18,0,6,5,13,3,14,144,152,NA,179,198,199,206,212,226,230,245
327,saginaw_mi,43.4003,-83.8684,-0.5,2019,10,2019,mid00,797.7713423728284,11,2019-05-10,2019-05-24,119,2019-09-20,2019-09-23,2019-10-07,Harvested at Maturity.,2.9739999604721863,5.181250039488077,3.3154762206333026,2.6142856694225753,1.4038888916580212,5.650000095367432,2.4242857763809815,1.398888875419895,3.688333331089881,1.983333358541131,7.796666498482227,2.9739999604721863,5.181250039488077,3.3154762206333026,2.6142856694225753,1.4038888916580212,5.650000095367432,2.4242857763809815,1.398888875419895,3.688333331089881,1.983333358541131,7.796666498482227,17.88933334350586,16.17249983549118,22.159523725509644,22.139999798366002,22.33111111323039,8.569999694824219,20.16285719190325,19.824444346957737,13.167222261428833,16.95666662851969,9.685333283742269,16.65533332824707,19.477499961853027,23.440237998962402,26.796428544180735,25.896111170450848,19.40999984741211,25.992857251848495,23.26555569966634,22.688888867696125,26.546666463216145,19.710000038146973,11.376333371798196,14.596874952316284,18.24678569748288,22.313571419034684,21.536666737662422,17.59999990463257,21.725714411054337,18.721111191643608,18.345000002119278,21.244999885559082,15.943333371480305,6.097333415349325,9.716249942779541,13.05333339600336,17.830714293888636,17.177222304873997,15.789999961853027,17.458571570260183,14.176666683620876,14.001111136542427,15.943333307902018,12.17666670481364,2.6333107180014252,4.662420533206314,7.1138815885734346,11.355726906042253,11.447779374625979,7.599999904632568,11.725714411054337,8.94205949802796,8.591633005964756,11.244999885559082,5.273742375997305,2.6333107180014252,4.662420533206314,7.1138815885734346,11.355726906042253,11.447779374625979,7.599999904632568,11.725714411054337,8.94205949802796,8.591633005964756,11.244999885559082,5.273742375997305,0,0,298.78302672008414,457.7632034046755,663.8232321479433,671.4232320525758,753.5032329299562,833.9817684122078,988.6311625195732,1022.3661621762506,1022.3661621762506,0,0,0.7429047573180426,0.9819285733359201,0.9885555611716377,0.7599999904632568,0.9842857088361467,0.8498333401150174,0.8201944457160102,1,0.06666666666666667,1,1,1,1,1,1,1,1,1,1,1,0.19746666510899863,0.45968749523162844,0.7429047573180426,0.9819285733359201,0.9885555611716377,0.7599999904632568,0.9842857088361467,0.8498333401150174,0.8201944457160102,1,0.5719333299001058,1,1,1,1,1,1,1,1,1,0.9999999999999999,1,2019-05-10T12:00:00Z,2019-05-25T12:00:00Z,2019-06-02T12:00:00Z,2019-07-14T12:00:00Z,2019-07-28T12:00:00Z,2019-08-15T12:00:00Z,2019-08-16T12:00:00Z,2019-08-23T12:00:00Z,2019-09-01T12:00:00Z,2019-09-19T12:00:00Z,2019-09-22T12:00:00Z,2019-05-24T12:00:00Z,2019-06-01T12:00:00Z,2019-07-13T12:00:00Z,2019-07-27T12:00:00Z,2019-08-14T12:00:00Z,2019-08-15T12:00:00Z,2019-08-22T12:00:00Z,2019-08-31T12:00:00Z,2019-09-18T12:00:00Z,2019-09-21T12:00:00Z,2019-10-06T12:00:00Z,130,145,153,195,209,227,228,235,244,262,265,14,7,41,13,17,0,6,8,17,2,14,144,152,194,208,226,227,234,243,261,264,279
328,saginaw_mi,43.4003,-83.8684,0.5,2019,10,2019,mid0,855.6207849165762,11,2019-05-10,2019-05-24,121,2019-09-22,2019-09-25,2019-10-09,Harvested at Maturity.,2.9739999604721863,5.181250039488077,3.350909110158682,2.812857130010213,1.183333341135747,5.590000152587891,1.2550000322517008,2.0762499812990427,3.4661111104198628,8.84666657447815,6.422666521991292,2.9739999604721863,5.181250039488077,3.350909110158682,2.812857130010213,1.183333341135747,5.590000152587891,1.2550000322517008,2.0762499812990427,3.4661111104198628,8.84666657447815,6.422666521991292,17.88933334350586,16.17249983549118,22.28249990940094,21.193571295057026,22.027222209506565,23.31999969482422,20.074999928474426,17.40499997138977,13.659444464577568,13.086666742960613,10.290666675567627,16.65533332824707,19.477499961853027,23.5884089903398,26.89357144492013,25.346111191643608,26.15999984741211,24.820000171661377,23.203749895095825,23.07444445292155,24.906666437784832,19.043333371480305,11.376333371798196,14.596874952316284,18.375227256254718,22.685000010899135,21.021944522857666,22.295000076293945,20.44687509536743,18.7712499499321,18.620000018013847,20.945000012715656,15.02100001970927,6.097333415349325,9.716249942779541,13.162045522169633,18.47642857687814,16.697777854071724,18.43000030517578,16.073750019073486,14.338750004768372,14.165555583106148,16.983333587646484,10.998666667938233,2.6333107180014252,4.662420533206314,6.6285826891624025,11.075269140978369,10.755631628159566,12.295000076293944,10.532224632823466,8.978120625732094,8.84723152471549,10.996251696538925,4.758988891661366,2.6333107180014252,4.662420533206314,6.6285826891624025,11.075269140978369,10.755631628159566,12.295000076293944,10.532224632823466,8.978120625732094,8.84723152471549,10.996251696538925,4.758988891661366,0,0,291.6576383231457,446.7114062968429,640.3127756037151,652.607775680009,736.8655727425967,808.6905377484534,967.9407051933322,1000.929460282949,1000.929460282949,0,0,0.7545909036289562,0.9819285767418998,0.9752222273084853,1,0.9146250009536744,0.8520624935626984,0.8426944494247437,0.9103333155314127,0.04866666793823242,1,1,1,1,1,1,1,1,1,1,1,0.19746666510899863,0.45968749523162844,0.7545909036289562,0.9819285767418998,0.9752222273084853,1,0.9146250009536744,0.8520624935626984,0.8426944494247437,0.9103333155314127,0.4976333316167196,1,1,1,0.9999999999999999,1,1,1,1,1,1,1,2019-05-10T12:00:00Z,2019-05-25T12:00:00Z,2019-06-02T12:00:00Z,2019-07-16T12:00:00Z,2019-07-30T12:00:00Z,2019-08-17T12:00:00Z,2019-08-18T12:00:00Z,2019-08-26T12:00:00Z,2019-09-03T12:00:00Z,2019-09-21T12:00:00Z,2019-09-24T12:00:00Z,2019-05-24T12:00:00Z,2019-06-01T12:00:00Z,2019-07-15T12:00:00Z,2019-07-29T12:00:00Z,2019-08-16T12:00:00Z,2019-08-17T12:00:00Z,2019-08-25T12:00:00Z,2019-09-02T12:00:00Z,2019-09-20T12:00:00Z,2019-09-23T12:00:00Z,2019-10-08T12:00:00Z,130,145,153,197,211,229,230,238,246,264,267,14,7,43,13,17,0,7,7,17,2,14,144,152,196,210,228,229,237,245,263,266,281
329,saginaw_mi,43.4003,-83.8684,1.5,2019,10,2019,mid1,1047.0223633862583,11,2019-05-10,2019-05-24,140,2019-10-11,2019-10-20,2019-11-03,Harvested at Maturity.,2.9739999604721863,5.181250039488077,3.262083349439005,2.089473685053618,1.692857156640717,4.480000019073486,1.0863636396825314,6.051111102518108,5.853333216781418,2.708888861454195,5.4753333824376265,2.9739999604721863,5.181250039488077,3.262083349439005,2.089473685053618,1.692857156640717,4.480000019073486,1.0863636396825314,6.051111102518108,5.853333216781418,2.708888861454195,5.4753333824376265,17.88933334350586,16.17249983549118,22.111041575670242,22.68631568707918,19.706666673932755,22.15999984741211,15.36545450037176,12.263333373599583,11.646190438951765,9.383333338631523,7.617333300908406,16.65533332824707,19.477499961853027,23.958333253860474,26.18947370428788,24.743809654599143,25.479999542236328,21.78363626653498,23.622222264607746,20.518095243544806,13.38222238752577,11.455999946594238,11.376333371798196,14.596874952316284,18.86645831664403,21.810263207084255,20.519761993771507,19.019999980926514,17.37818176096136,19.301666736602783,16.301666679836455,8.886666735013327,7.4643332928419115,6.097333415349325,9.716249942779541,13.774583379427591,17.43105270988063,16.29571433294387,12.5600004196167,12.97272725538774,14.981111208597818,12.085238116128105,4.391111082500881,3.472666639089584,2.6333107180014252,4.662420533206314,6.271978391139155,10.02630581554266,10.392986424938085,9.019999980926514,7.815197469924797,9.363175105271074,7.6559477906759295,5.24632604865796,0.6681307569060971,2.6333107180014252,4.662420533206314,6.271978391139155,10.02630581554266,10.392986424938085,9.019999980926514,7.815197469924797,9.363175105271074,7.6559477906759295,5.24632604865796,0.6681307569060971,0,0,301.0549627746794,491.55477326999,709.8074881936897,718.8274881746162,804.7946603437889,889.0632362912286,1049.8381398954232,1097.0550743333447,1097.0550743333447,0,0,0.7750416616598765,0.9811052723934776,0.9442857151939755,0.9019999980926514,0.737818176096136,0.9015555646684434,0.5963809501557124,0.07588889333936903,0,1,1,1,1,1,1,1,1,1,1,1,0.19746666510899863,0.45968749523162844,0.7750416616598765,0.9811052723934776,0.9442857151939755,0.9019999980926514,0.737818176096136,0.9015555646684434,0.5963809501557124,0.07588889333936903,0.030433327356974283,1,1,1,1,0.9999999999999999,1,1,1,1,1,1,2019-05-10T12:00:00Z,2019-05-25T12:00:00Z,2019-06-02T12:00:00Z,2019-07-20T12:00:00Z,2019-08-08T12:00:00Z,2019-08-29T12:00:00Z,2019-08-30T12:00:00Z,2019-09-10T12:00:00Z,2019-09-19T12:00:00Z,2019-10-10T12:00:00Z,2019-10-19T12:00:00Z,2019-05-24T12:00:00Z,2019-06-01T12:00:00Z,2019-07-19T12:00:00Z,2019-08-07T12:00:00Z,2019-08-28T12:00:00Z,2019-08-29T12:00:00Z,2019-09-09T12:00:00Z,2019-09-18T12:00:00Z,2019-10-09T12:00:00Z,2019-10-18T12:00:00Z,2019-11-02T12:00:00Z,130,145,153,201,220,241,242,253,262,283,292,14,7,47,18,20,0,10,8,20,8,14,144,152,200,219,240,241,252,261,282,291,306
330,saginaw_mi,43.4003,-83.8684,2.5,2019,10,2019,mid2,1113.3902830916743,11,2019-05-10,2019-05-24,160,2019-10-31,2019-11-10,2019-11-24,Harvested at Maturity.,2.9739999604721863,5.181250039488077,3.213518531855058,1.4236842077225447,1.8257692489916315,0.20999999344348907,6.051111102518108,5.292999930493534,4.479354803240107,4.551999973133206,1.3453333356728157,2.9739999604721863,5.181250039488077,3.213518531855058,1.4236842077225447,1.8257692489916315,0.20999999344348907,6.051111102518108,5.292999930493534,4.479354803240107,4.551999973133206,1.3453333356728157,17.88933334350586,16.17249983549118,22.14037025416339,22.619473658109968,17.77692306958712,9.84000015258789,12.263333373599583,13.526999950408936,9.263548381866947,6.533999919891357,5.088000027338664,16.65533332824707,19.477499961853027,24.16851845494023,26.11842105263158,23.466538502619816,20.84000015258789,23.622222264607746,23.09799976348877,15.00741946312689,5.291000006347895,2.2433333791792394,11.376333371798196,14.596874952316284,19.12999999081647,21.729473741430986,19.202500031544613,15.93499994277954,19.301666736602783,18.70499982833862,10.695322646729409,2.185500018671155,-0.769333316013217,6.097333415349325,9.716249942779541,14.091481526692709,17.34052643023039,14.938461560469408,11.029999732971191,14.981111208597818,14.311999893188476,6.383225830331925,-0.9199999690055847,-3.7820000112056733,2.6333107180014252,4.662420533206314,5.557557252130194,9.578306643026938,9.093919184308863,5.934999942779543,9.363175105271074,9.089000774552225,5.572957670142766,5,0,2.6333107180014252,4.662420533206314,5.557557252130194,9.578306643026938,9.093919184308863,5.934999942779543,9.363175105271074,9.089000774552225,5.572957670142766,5,0,0,0,300.10809161503045,482.09591783254234,718.5378166245727,724.4728165673522,808.7413925147919,899.6314002603143,1072.39308803474,1122.39308803474,1122.39308803474,0,0,0.7953518487789013,0.9891579000573409,0.8597884599979108,0.5934999942779541,0.9015555646684434,0.8062499809265137,0.1806774224004438,0,0,1,1,1,1,1,1,1,1,1,1,1,0.19746666510899863,0.45968749523162844,0.7953518487789013,0.9891579000573409,0.8597884599979108,0.5934999942779541,0.9015555646684434,0.8062499809265137,0.1806774224004438,0,0,1,1,1,0.9999999999999999,1,1,1,1,0.9999999999999999,0.9999999999999999,1,2019-05-10T12:00:00Z,2019-05-25T12:00:00Z,2019-06-02T12:00:00Z,2019-07-26T12:00:00Z,2019-08-14T12:00:00Z,2019-09-09T12:00:00Z,2019-09-10T12:00:00Z,2019-09-19T12:00:00Z,2019-09-29T12:00:00Z,2019-10-30T12:00:00Z,2019-11-09T12:00:00Z,2019-05-24T12:00:00Z,2019-06-01T12:00:00Z,2019-07-25T12:00:00Z,2019-08-13T12:00:00Z,2019-09-08T12:00:00Z,2019-09-09T12:00:00Z,2019-09-18T12:00:00Z,2019-09-28T12:00:00Z,2019-10-29T12:00:00Z,2019-11-08T12:00:00Z,2019-11-23T12:00:00Z,130,145,153,207,226,252,253,262,272,303,313,14,7,53,18,25,0,8,9,30,9,14,144,152,206,225,251,252,261,271,302,312,327
331,saginaw_mi,43.4003,-83.8684,-1.5,2020,10,2020,mid000,225.83903266267532,11,2020-04-19,2020-05-03,90,2020-08-01,2020-08-04,2020-08-18,Harvested at Maturity.,2.806666664530834,5.808947387788641,NA,3.0300000199878756,0.6580952241839397,NA,2.4316666554659605,1.4828571530857257,3.0707692836339655,8.50333340962728,2.7813332695513964,2.806666664530834,5.808947387788641,NA,3.0300000199878756,0.6580952241839397,NA,2.4316666554659605,1.4828571530857257,3.0707692836339655,8.50333340962728,2.7813332695513964,18.362666511535643,19.420000051197253,NA,24.59181785583496,26.687142826261976,NA,23.803333441416424,23.434285981314524,21.986923291133,16.52999973297119,22.114666748046876,12.785333410898845,13.980526510037874,NA,23.466818115927957,26.031428564162482,NA,29.738333066304524,26.634286063058035,26.897692313561073,25.136666615804035,25.670666631062826,7.610333375136058,9.197631722218112,NA,18.215908993374217,20.63000003496806,NA,25.19166660308838,22.195000103541783,22.59115373171293,21.53499984741211,21.454666741689046,2.435333339373271,4.41473693439835,NA,12.96499987082048,15.228571505773635,NA,20.645000139872234,17.755714144025532,18.284615149864784,17.933333079020183,17.238666852315266,1.370037616812239,1.8284936291381522,NA,7.705189916380352,9.63677431491455,NA,14.029295354107893,11.544055633242367,12.40707433292209,11.53499984741211,10.77200009028117,1.370037616812239,1.8284936291381522,NA,7.705189916380352,9.63677431491455,NA,14.029295354107893,11.544055633242367,12.40707433292209,11.53499984741211,10.77200009028117,0,0,NA,169.51417816036772,371.88643877357333,NA,456.06221089822066,536.8706003309172,698.1625666589043,732.7675662011407,732.7675662011407,0,0,NA,0.7513409061865374,0.904809526034764,NA,1,1,1,1,0.06666666666666667,1,1,NA,1,1,NA,1,1,1,1,1,0.08273333390553793,0.1436579051770662,NA,0.7513409061865374,0.904809526034764,NA,1,1,1,1,0.9634000015258789,1,1,NA,1,1,NA,1,1,1,1,1,2020-04-19T12:00:00Z,2020-05-04T12:00:00Z,NA,2020-05-23T12:00:00Z,2020-06-14T12:00:00Z,NA,2020-07-05T12:00:00Z,2020-07-11T12:00:00Z,2020-07-18T12:00:00Z,2020-07-31T12:00:00Z,2020-08-03T12:00:00Z,2020-05-03T12:00:00Z,2020-05-22T12:00:00Z,NA,2020-06-13T12:00:00Z,2020-07-04T12:00:00Z,NA,2020-07-10T12:00:00Z,2020-07-17T12:00:00Z,2020-07-30T12:00:00Z,2020-08-02T12:00:00Z,2020-08-17T12:00:00Z,110,125,NA,144,166,NA,187,193,200,213,216,14,18,0,21,20,0,5,6,12,2,14,124,143,NA,165,186,NA,192,199,212,215,230
332,saginaw_mi,43.4003,-83.8684,-0.5,2020,10,2020,mid00,846.8237802586594,11,2020-04-19,2020-05-03,118,2020-08-29,2020-09-02,2020-09-16,Harvested at Maturity.,2.806666664530834,5.808947387788641,2.062307696120861,1.1384615327876348,2.9494118096635624,0,5.269999954616651,1.6233333349227905,3.396153863232869,2.9500000914558773,3.53133324633042,2.806666664530834,5.808947387788641,2.062307696120861,1.1384615327876348,2.9494118096635624,0,5.269999954616651,1.6233333349227905,3.396153863232869,2.9500000914558773,3.53133324633042,18.362666511535643,19.420000051197253,25.318461320339107,25.511538652273323,22.062941382913028,25.1299991607666,18.84000027179718,24.166666348775227,20.766923390902004,16.600000143051147,14.14000005722046,12.785333410898845,13.980526510037874,24.30153841850085,28.5,27.0123529995189,25.65999984741211,23.90750002861023,27.68500010172526,26.486153822678787,23.84000015258789,21.266666666666666,7.610333375136058,9.197631722218112,18.94282045119848,23.883077034583458,22.642941082225125,21.350000381469727,19.993124902248383,23.180833498636883,21.96538463005653,20.02625000476837,17.14666665395101,2.435333339373271,4.41473693439835,13.584102483896109,19.266154069166916,18.273529164931354,17.040000915527344,16.078749775886536,18.676666895548504,17.44461543743427,16.212499856948853,13.026666641235352,1.370037616812239,1.8284936291381522,7.73846906281439,12.072831523173562,11.832311771056121,11.20546187570865,10.037346801959359,13.180833498636883,11.989815089040537,10.036082356923819,6.409366434256236,1.370037616812239,1.8284936291381522,7.73846906281439,12.072831523173562,11.832311771056121,11.20546187570865,10.037346801959359,13.180833498636883,11.989815089040537,10.036082356923819,6.409366434256236,0,0,301.8002934497612,458.7471032510175,659.8964033589716,671.1018652346803,751.4006396503551,830.4856406421763,986.3532367997034,1026.4975662273987,1026.4975662273987,0,0,0.8084743585342016,1,1,1,0.9313750028610229,1,0.9725000014671913,0.9509999990463257,0.06666666666666667,1,1,1,1,1,1,1,1,1,1,1,0.08273333390553793,0.1436579051770662,0.8084743585342016,1,1,1,0.9313750028610229,1,0.9725000014671913,0.9509999990463257,0.6919666639963786,1,1,1,1,1,0.9999999999999998,0.9999999999999999,1,1,1,1,2020-04-19T12:00:00Z,2020-05-04T12:00:00Z,2020-05-23T12:00:00Z,2020-07-01T12:00:00Z,2020-07-14T12:00:00Z,2020-07-31T12:00:00Z,2020-08-01T12:00:00Z,2020-08-09T12:00:00Z,2020-08-15T12:00:00Z,2020-08-28T12:00:00Z,2020-09-01T12:00:00Z,2020-05-03T12:00:00Z,2020-05-22T12:00:00Z,2020-06-30T12:00:00Z,2020-07-13T12:00:00Z,2020-07-30T12:00:00Z,2020-07-31T12:00:00Z,2020-08-08T12:00:00Z,2020-08-14T12:00:00Z,2020-08-27T12:00:00Z,2020-08-31T12:00:00Z,2020-09-15T12:00:00Z,110,125,144,183,196,213,214,222,228,241,245,14,18,38,12,16,0,7,5,12,3,14,124,143,182,195,212,213,221,227,240,244,259
333,saginaw_mi,43.4003,-83.8684,0.5,2020,10,2020,mid0,905.6394744067012,11,2020-04-19,2020-05-03,121,2020-09-01,2020-09-05,2020-09-19,Harvested at Maturity.,2.806666664530834,5.808947387788641,2.011000003712252,1.664000000183781,4.190000027625097,5.389999866485596,1.2971428502351046,2.8849999407927194,3.1246154586283064,2.6074999570846558,2.8426665912071862,2.806666664530834,5.808947387788641,2.011000003712252,1.664000000183781,4.190000027625097,5.389999866485596,1.2971428502351046,2.8849999407927194,3.1246154586283064,2.6074999570846558,2.8426665912071862,18.362666511535643,19.420000051197253,25.392499804496765,24.228666814168296,21.124444590674507,12.710000038146973,24.147142955235072,22.390000025431316,19.63384642967811,18.237500190734863,14.182666619618734,12.785333410898845,13.980526510037874,24.384499979019164,28.295333353678384,26.515555487738716,20.110000610351563,25.575714383806503,26.951666514078777,25.95461551959698,25.795000076293945,19.789333216349284,7.610333375136058,9.197631722218112,19.024374961853027,23.805666732788087,22.27583318286472,17.37000036239624,21.294285774230957,22.52500009536743,21.50115387256329,20.875,15.754999907811483,2.435333339373271,4.41473693439835,13.66424994468689,19.316000111897786,18.036110877990723,14.630000114440918,17.012857164655415,18.098333676656086,17.047692225529598,15.954999923706055,11.720666599273681,1.370037616812239,1.8284936291381522,7.14128365362426,11.146357829054779,11.035565308830426,7.134940563919534,11.291646068992655,12.525000095367432,11.52860967067205,10.875,5.346316801756223,1.370037616812239,1.8284936291381522,7.14128365362426,11.146357829054779,11.035565308830426,7.134940563919534,11.291646068992655,12.525000095367432,11.52860967067205,10.875,5.346316801756223,0,0,285.6513461449704,452.8467135807921,651.4868891397398,658.6218297036593,737.6633521866079,812.8133527588125,962.6852784775492,1006.1852784775492,1006.1852784775492,0,0,0.8132624995708466,1,1,0.7370000362396241,0.9591428552355085,1,0.9574230780968299,1,0.04766666412353516,1,1,1,1,1,1,1,1,1,1,1,0.08273333390553793,0.1436579051770662,0.8132624995708466,1,1,0.7370000362396241,0.9591428552355085,1,0.9574230780968299,1,0.5754999907811483,1,1,1,0.9999999999999999,1,0.9999999999999998,0.9999999999999999,1,1,1,1,2020-04-19T12:00:00Z,2020-05-04T12:00:00Z,2020-05-23T12:00:00Z,2020-07-02T12:00:00Z,2020-07-17T12:00:00Z,2020-08-04T12:00:00Z,2020-08-05T12:00:00Z,2020-08-12T12:00:00Z,2020-08-18T12:00:00Z,2020-08-31T12:00:00Z,2020-09-04T12:00:00Z,2020-05-03T12:00:00Z,2020-05-22T12:00:00Z,2020-07-01T12:00:00Z,2020-07-16T12:00:00Z,2020-08-03T12:00:00Z,2020-08-04T12:00:00Z,2020-08-11T12:00:00Z,2020-08-17T12:00:00Z,2020-08-30T12:00:00Z,2020-09-03T12:00:00Z,2020-09-18T12:00:00Z,110,125,144,184,199,217,218,225,231,244,248,14,18,39,14,17,0,6,5,12,3,14,124,143,183,198,216,217,224,230,243,247,262
334,saginaw_mi,43.4003,-83.8684,1.5,2020,10,2020,mid1,1236.5759007602862,11,2020-04-19,2020-05-03,143,2020-09-23,2020-09-28,2020-10-12,Harvested at Maturity.,2.806666664530834,5.808947387788641,1.8015555586665868,2.6778947733538714,3.265999982599169,2.4800000190734863,1.7624999517574904,5.624285850673914,2.4122726680202917,0.005999999865889548,2.4126666792978844,2.806666664530834,5.808947387788641,1.8015555586665868,2.6778947733538714,3.265999982599169,2.4800000190734863,1.7624999517574904,5.624285850673914,2.4122726680202917,0.005999999865889548,2.4126666792978844,18.362666511535643,19.420000051197253,25.6693331612481,22.28842127950568,21.81950001716614,19.290000915527344,22.605000257492065,16.510000228881836,15.65363639051264,15.018000030517577,11.250000031789144,12.785333410898845,13.980526510037874,24.96422216627333,27.300000140541478,25.920499992370605,26.969999313354492,25.80750012397766,25.917142868041992,20.725908973000266,23.768000030517577,16.700666618347167,7.610333375136058,9.197631722218112,19.641222190856933,22.93763155686228,21.74449999332428,23.38000011444092,21.007500052452087,22.017142840794154,16.295908992940728,17.958000087738036,12.402999989191692,2.435333339373271,4.41473693439835,14.318222215440539,18.57526297318308,17.568499994277953,19.790000915527344,16.207499980926514,18.117142813546316,11.865909012881191,12.148000144958496,8.105333360036214,1.370037616812239,1.8284936291381522,6.729880501292806,9.818514633817125,10.73241566479104,13.380000114440918,11.047199548301101,12.022761327740124,7.4618540424601605,8.620884802348613,2.4040164225186906,1.370037616812239,1.8284936291381522,6.729880501292806,9.818514633817125,10.73241566479104,13.380000114440918,11.047199548301101,12.022761327740124,7.4618540424601605,8.620884802348613,2.4040164225186906,0,0,302.84462255817624,489.3964006007015,704.0447138965225,717.4247140109634,805.8023103973723,889.9616396915532,1054.1224286256768,1097.2268526374198,1097.2268526374198,0,0,0.8340111107296414,1,0.9725500011444091,1,0.9553125023841857,0.9719999994550432,0.613681808384982,0.7958000087738037,0.06470000267028808,1,1,1,1,1,1,1,1,1,1,1,0.08273333390553793,0.1436579051770662,0.8340111107296414,1,0.9725500011444091,1,0.9553125023841857,0.9719999994550432,0.613681808384982,0.7958000087738037,0.26679999828338624,1,1,1,0.9999999999999999,1,1,1,0.9999999999999999,0.9999999999999999,1,1,2020-04-19T12:00:00Z,2020-05-04T12:00:00Z,2020-05-23T12:00:00Z,2020-07-07T12:00:00Z,2020-07-26T12:00:00Z,2020-08-15T12:00:00Z,2020-08-16T12:00:00Z,2020-08-24T12:00:00Z,2020-08-31T12:00:00Z,2020-09-22T12:00:00Z,2020-09-27T12:00:00Z,2020-05-03T12:00:00Z,2020-05-22T12:00:00Z,2020-07-06T12:00:00Z,2020-07-25T12:00:00Z,2020-08-14T12:00:00Z,2020-08-15T12:00:00Z,2020-08-23T12:00:00Z,2020-08-30T12:00:00Z,2020-09-21T12:00:00Z,2020-09-26T12:00:00Z,2020-10-11T12:00:00Z,110,125,144,189,208,228,229,237,244,266,271,14,18,44,18,19,0,7,6,21,4,14,124,143,188,207,227,228,236,243,265,270,285
335,saginaw_mi,43.4003,-83.8684,2.5,2020,10,2020,mid2,1395.9914001128395,11,2020-04-19,2020-05-03,160,2020-10-10,2020-10-20,2020-11-03,Harvested at Maturity.,2.806666664530834,5.808947387788641,1.9040000015124678,3.4400000451132655,2.0461904309867394,0.18000000715255737,5.863750092219561,3.970908995717764,1.4553846208951795,2.0329999895766377,2.555999946842591,2.806666664530834,5.808947387788641,1.9040000015124678,3.4400000451132655,2.0461904309867394,0.18000000715255737,5.863750092219561,3.970908995717764,1.4553846208951795,2.0329999895766377,2.555999946842591,18.362666511535643,19.420000051197253,25.4139998626709,21.501363797621295,22.44714300973075,20.610000610351563,16.112500190734863,14.062727277929133,13.973076985432552,9.204999876022338,6.978666671117147,12.785333410898845,13.980526510037874,25.374399948120118,26.552727352489125,25.764285768781388,28.860000610351563,25.419999837875366,21.11000009016557,18.56115374198327,16.113999843597412,9.630666605631511,7.610333375136058,9.197631722218112,20.156599979400635,22.316136273470793,21.295952456338064,23.835000038146973,21.44187492132187,17.203636386177756,13.916923018602224,10.892999941110611,5.720999977986018,2.435333339373271,4.41473693439835,14.938800010681152,18.07954519445246,16.82761914389474,18.809999465942383,17.46375000476837,13.297272682189941,9.272692295221182,5.67200003862381,1.8113333503405253,1.370037616812239,1.8284936291381522,5.965274910889041,8.746627910154874,10.456952414713266,13.835000038146974,11.446791097399592,7.7362424130391,6.485356793051729,5.664518347690404,0.45774816277801994,1.370037616812239,1.8284936291381522,5.965274910889041,8.746627910154874,10.456952414713266,13.835000038146974,11.446791097399592,7.7362424130391,6.485356793051729,5.664518347690404,0.45774816277801994,0,0,298.26374554445187,490.6895595678592,710.2855602768378,724.1205603149848,815.6948890941816,900.7935556376116,1069.4128322569566,1126.0580157338609,1126.0580157338609,0,0,0.8506099996566773,1,0.956833335331508,1,0.9754999995231628,0.699909088828347,0.4069807630318862,0.19019999980926514,0,1,1,1,1,1,1,1,1,1,1,1,0.08273333390553793,0.1436579051770662,0.8506099996566773,1,0.956833335331508,1,0.9754999995231628,0.699909088828347,0.4069807630318862,0.19019999980926514,0.020433332920074463,1,1,1,0.9999999999999999,1,1,0.9999999999999999,1,1,0.9999999999999999,1,2020-04-19T12:00:00Z,2020-05-04T12:00:00Z,2020-05-23T12:00:00Z,2020-07-12T12:00:00Z,2020-08-03T12:00:00Z,2020-08-24T12:00:00Z,2020-08-25T12:00:00Z,2020-09-02T12:00:00Z,2020-09-13T12:00:00Z,2020-10-09T12:00:00Z,2020-10-19T12:00:00Z,2020-05-03T12:00:00Z,2020-05-22T12:00:00Z,2020-07-11T12:00:00Z,2020-08-02T12:00:00Z,2020-08-23T12:00:00Z,2020-08-24T12:00:00Z,2020-09-01T12:00:00Z,2020-09-12T12:00:00Z,2020-10-08T12:00:00Z,2020-10-18T12:00:00Z,2020-11-02T12:00:00Z,110,125,144,194,216,237,238,246,257,283,293,14,18,49,21,20,0,7,10,25,9,14,124,143,193,215,236,237,245,256,282,292,307
336,saginaw_mi,43.4003,-83.8684,-1.5,2021,10,2021,mid000,0,2.9401378834391547,2021-03-28,2021-04-11,NA,NA,2021-05-11,2021-05-25,Failed to Emerge.,1.9439999662339686,1.0396551706924522,NA,NA,NA,NA,NA,NA,NA,NA,0.4985714331269264,1.9439999662339686,1.0396551706924522,NA,NA,NA,NA,NA,NA,NA,NA,0.4985714331269264,17.057999960581462,16.31310359362898,NA,NA,NA,NA,NA,NA,NA,NA,21.98357139314924,14.899333222707112,13.223793070891809,NA,NA,NA,NA,NA,NA,NA,NA,22.121428217206685,8.715333262085915,8.17482755795635,NA,NA,NA,NA,NA,NA,NA,NA,15.963928412113871,2.531333301464717,3.1258620450208925,NA,NA,NA,NA,NA,NA,NA,NA,9.80642860702106,2.448381767666278,1.2967419081919378,NA,NA,NA,NA,NA,NA,NA,NA,6.687981184571929,2.448381767666278,1.2967419081919378,NA,NA,NA,NA,NA,NA,NA,NA,6.687981184571929,0,0,NA,NA,NA,NA,NA,NA,NA,NA,0,0,0,NA,NA,NA,NA,NA,NA,NA,NA,0,1,1,NA,NA,NA,NA,NA,NA,NA,NA,1,0.19329999208450319,0.07151724305646173,NA,NA,NA,NA,NA,NA,NA,NA,0.5866785560335432,1,1,NA,NA,NA,NA,NA,NA,NA,NA,1,2021-03-28T12:00:00Z,2021-04-12T12:00:00Z,NA,NA,NA,NA,NA,NA,NA,NA,2021-05-11T12:00:00Z,2021-04-11T12:00:00Z,2021-05-10T12:00:00Z,NA,NA,NA,NA,NA,NA,NA,NA,2021-05-24T12:00:00Z,87,102,NA,NA,NA,NA,NA,NA,NA,NA,131,14,28,0,0,0,0,0,0,0,0,13,101,130,NA,NA,NA,NA,NA,NA,NA,NA,144
337,saginaw_mi,43.4003,-83.8684,-0.5,2021,10,2021,mid00,0,2.9401378834391547,2021-03-28,2021-04-11,NA,NA,2021-05-11,2021-05-25,Failed to Emerge.,1.9439999662339686,1.0396551706924522,NA,NA,NA,NA,NA,NA,NA,NA,0.4985714331269264,1.9439999662339686,1.0396551706924522,NA,NA,NA,NA,NA,NA,NA,NA,0.4985714331269264,17.057999960581462,16.31310359362898,NA,NA,NA,NA,NA,NA,NA,NA,21.98357139314924,14.899333222707112,13.223793070891809,NA,NA,NA,NA,NA,NA,NA,NA,22.121428217206685,8.715333262085915,8.17482755795635,NA,NA,NA,NA,NA,NA,NA,NA,15.963928412113871,2.531333301464717,3.1258620450208925,NA,NA,NA,NA,NA,NA,NA,NA,9.80642860702106,2.448381767666278,1.2967419081919378,NA,NA,NA,NA,NA,NA,NA,NA,6.687981184571929,2.448381767666278,1.2967419081919378,NA,NA,NA,NA,NA,NA,NA,NA,6.687981184571929,0,0,NA,NA,NA,NA,NA,NA,NA,NA,0,0,0,NA,NA,NA,NA,NA,NA,NA,NA,0,1,1,NA,NA,NA,NA,NA,NA,NA,NA,1,0.19329999208450319,0.07151724305646173,NA,NA,NA,NA,NA,NA,NA,NA,0.5866785560335432,1,1,NA,NA,NA,NA,NA,NA,NA,NA,1,2021-03-28T12:00:00Z,2021-04-12T12:00:00Z,NA,NA,NA,NA,NA,NA,NA,NA,2021-05-11T12:00:00Z,2021-04-11T12:00:00Z,2021-05-10T12:00:00Z,NA,NA,NA,NA,NA,NA,NA,NA,2021-05-24T12:00:00Z,87,102,NA,NA,NA,NA,NA,NA,NA,NA,131,14,28,0,0,0,0,0,0,0,0,13,101,130,NA,NA,NA,NA,NA,NA,NA,NA,144
338,saginaw_mi,43.4003,-83.8684,0.5,2021,10,2021,mid0,0,2.9401378834391547,2021-03-28,2021-04-11,NA,NA,2021-05-11,2021-05-25,Failed to Emerge.,1.9439999662339686,1.0396551706924522,NA,NA,NA,NA,NA,NA,NA,NA,0.4985714331269264,1.9439999662339686,1.0396551706924522,NA,NA,NA,NA,NA,NA,NA,NA,0.4985714331269264,17.057999960581462,16.31310359362898,NA,NA,NA,NA,NA,NA,NA,NA,21.98357139314924,14.899333222707112,13.223793070891809,NA,NA,NA,NA,NA,NA,NA,NA,22.121428217206685,8.715333262085915,8.17482755795635,NA,NA,NA,NA,NA,NA,NA,NA,15.963928412113871,2.531333301464717,3.1258620450208925,NA,NA,NA,NA,NA,NA,NA,NA,9.80642860702106,2.448381767666278,1.2967419081919378,NA,NA,NA,NA,NA,NA,NA,NA,6.687981184571929,2.448381767666278,1.2967419081919378,NA,NA,NA,NA,NA,NA,NA,NA,6.687981184571929,0,0,NA,NA,NA,NA,NA,NA,NA,NA,0,0,0,NA,NA,NA,NA,NA,NA,NA,NA,0,1,1,NA,NA,NA,NA,NA,NA,NA,NA,1,0.19329999208450319,0.07151724305646173,NA,NA,NA,NA,NA,NA,NA,NA,0.5866785560335432,1,1,NA,NA,NA,NA,NA,NA,NA,NA,1,2021-03-28T12:00:00Z,2021-04-12T12:00:00Z,NA,NA,NA,NA,NA,NA,NA,NA,2021-05-11T12:00:00Z,2021-04-11T12:00:00Z,2021-05-10T12:00:00Z,NA,NA,NA,NA,NA,NA,NA,NA,2021-05-24T12:00:00Z,87,102,NA,NA,NA,NA,NA,NA,NA,NA,131,14,28,0,0,0,0,0,0,0,0,13,101,130,NA,NA,NA,NA,NA,NA,NA,NA,144
339,saginaw_mi,43.4003,-83.8684,1.5,2021,10,2021,mid1,0,2.9401378834391547,2021-03-28,2021-04-11,NA,NA,2021-05-11,2021-05-25,Failed to Emerge.,1.9439999662339686,1.0396551706924522,NA,NA,NA,NA,NA,NA,NA,NA,0.4985714331269264,1.9439999662339686,1.0396551706924522,NA,NA,NA,NA,NA,NA,NA,NA,0.4985714331269264,17.057999960581462,16.31310359362898,NA,NA,NA,NA,NA,NA,NA,NA,21.98357139314924,14.899333222707112,13.223793070891809,NA,NA,NA,NA,NA,NA,NA,NA,22.121428217206685,8.715333262085915,8.17482755795635,NA,NA,NA,NA,NA,NA,NA,NA,15.963928412113871,2.531333301464717,3.1258620450208925,NA,NA,NA,NA,NA,NA,NA,NA,9.80642860702106,2.448381767666278,1.2967419081919378,NA,NA,NA,NA,NA,NA,NA,NA,6.687981184571929,2.448381767666278,1.2967419081919378,NA,NA,NA,NA,NA,NA,NA,NA,6.687981184571929,0,0,NA,NA,NA,NA,NA,NA,NA,NA,0,0,0,NA,NA,NA,NA,NA,NA,NA,NA,0,1,1,NA,NA,NA,NA,NA,NA,NA,NA,1,0.19329999208450319,0.07151724305646173,NA,NA,NA,NA,NA,NA,NA,NA,0.5866785560335432,1,1,NA,NA,NA,NA,NA,NA,NA,NA,1,2021-03-28T12:00:00Z,2021-04-12T12:00:00Z,NA,NA,NA,NA,NA,NA,NA,NA,2021-05-11T12:00:00Z,2021-04-11T12:00:00Z,2021-05-10T12:00:00Z,NA,NA,NA,NA,NA,NA,NA,NA,2021-05-24T12:00:00Z,87,102,NA,NA,NA,NA,NA,NA,NA,NA,131,14,28,0,0,0,0,0,0,0,0,13,101,130,NA,NA,NA,NA,NA,NA,NA,NA,144
340,saginaw_mi,43.4003,-83.8684,2.5,2021,10,2021,mid2,0,2.9401378834391547,2021-03-28,2021-04-11,NA,NA,2021-05-11,2021-05-25,Failed to Emerge.,1.9439999662339686,1.0396551706924522,NA,NA,NA,NA,NA,NA,NA,NA,0.4985714331269264,1.9439999662339686,1.0396551706924522,NA,NA,NA,NA,NA,NA,NA,NA,0.4985714331269264,17.057999960581462,16.31310359362898,NA,NA,NA,NA,NA,NA,NA,NA,21.98357139314924,14.899333222707112,13.223793070891809,NA,NA,NA,NA,NA,NA,NA,NA,22.121428217206685,8.715333262085915,8.17482755795635,NA,NA,NA,NA,NA,NA,NA,NA,15.963928412113871,2.531333301464717,3.1258620450208925,NA,NA,NA,NA,NA,NA,NA,NA,9.80642860702106,2.448381767666278,1.2967419081919378,NA,NA,NA,NA,NA,NA,NA,NA,6.687981184571929,2.448381767666278,1.2967419081919378,NA,NA,NA,NA,NA,NA,NA,NA,6.687981184571929,0,0,NA,NA,NA,NA,NA,NA,NA,NA,0,0,0,NA,NA,NA,NA,NA,NA,NA,NA,0,1,1,NA,NA,NA,NA,NA,NA,NA,NA,1,0.19329999208450319,0.07151724305646173,NA,NA,NA,NA,NA,NA,NA,NA,0.5866785560335432,1,1,NA,NA,NA,NA,NA,NA,NA,NA,1,2021-03-28T12:00:00Z,2021-04-12T12:00:00Z,NA,NA,NA,NA,NA,NA,NA,NA,2021-05-11T12:00:00Z,2021-04-11T12:00:00Z,2021-05-10T12:00:00Z,NA,NA,NA,NA,NA,NA,NA,NA,2021-05-24T12:00:00Z,87,102,NA,NA,NA,NA,NA,NA,NA,NA,131,14,28,0,0,0,0,0,0,0,0,13,101,130,NA,NA,NA,NA,NA,NA,NA,NA,144
341,saginaw_mi,43.4003,-83.8684,-1.5,2022,10,2022,mid000,236.8267584398128,11,2022-05-13,2022-05-27,75,2022-08-10,2022-08-14,2022-08-28,Harvested at Maturity.,3.2866666124512753,0.30666667098800343,NA,2.2827272844416173,1.2804761905045736,8.430000305175781,0.741428570289697,5.133333346185585,3.685384643622316,0.017500000074505806,3.08000001013279,3.2866666124512753,0.30666667098800343,NA,2.2827272844416173,1.2804761905045736,8.430000305175781,0.741428570289697,5.133333346185585,3.685384643622316,0.017500000074505806,3.08000001013279,19.04000005722046,26.06999969482422,NA,22.98227288506248,24.652381079537527,17.450000762939453,23.037142617361887,24.09166669845581,19.213076994969295,25.714999675750732,18.684666633605957,21.104666709899902,24.229999542236328,NA,24.110000003467906,25.981428600492933,21.950000762939453,27.572856903076172,27.324999809265137,27.13230778620793,24.450000286102295,25.46133346557617,15.791666746139526,18.893332958221436,NA,18.580681800842285,20.80142859050206,18.985000610351563,22.524285657065256,22.920000076293945,22.44269238985502,19.255000233650208,20.896000099182128,10.47866678237915,13.556666374206543,NA,13.051363598216664,15.621428580511184,16.020000457763672,17.475714411054337,18.515000343322754,17.753076993502102,14.06000018119812,16.330666732788085,6.03617147977968,8.901688333372274,NA,7.783411737604986,9.853796869642963,8.437630737303172,11.957108001874937,12.666964287431355,12.436621374097651,9.38775998840928,10.311333433787027,6.03617147977968,8.901688333372274,NA,7.783411737604986,9.853796869642963,8.437630737303172,11.957108001874937,12.666964287431355,12.436621374097651,9.38775998840928,10.311333433787027,0,0,NA,171.23505822730968,378.16479248981193,386.6024232271151,470.3021792402397,546.3039649648277,707.9800428280972,745.5310827817344,745.5310827817344,0,0,NA,0.774045450037176,0.9508333365122478,0.8985000610351563,0.9924285684313093,1,0.9989999991196853,0.9126250147819519,0.05846666653951009,1,1,NA,1,1,1,1,1,1,1,1,0.568966670036316,0.809666649500529,NA,0.774045450037176,0.9508333365122478,0.8985000610351563,0.9924285684313093,1,0.9989999991196853,0.9126250147819519,0.9835000038146973,1,1,NA,0.9962964371005073,1,0.9999999999999998,1,1,1,1,1,2022-05-13T12:00:00Z,2022-05-28T12:00:00Z,NA,2022-05-31T12:00:00Z,2022-06-22T12:00:00Z,2022-07-13T12:00:00Z,2022-07-14T12:00:00Z,2022-07-21T12:00:00Z,2022-07-27T12:00:00Z,2022-08-09T12:00:00Z,2022-08-13T12:00:00Z,2022-05-27T12:00:00Z,2022-05-30T12:00:00Z,NA,2022-06-21T12:00:00Z,2022-07-12T12:00:00Z,2022-07-13T12:00:00Z,2022-07-20T12:00:00Z,2022-07-26T12:00:00Z,2022-08-08T12:00:00Z,2022-08-12T12:00:00Z,2022-08-27T12:00:00Z,133,148,NA,151,173,194,195,202,208,221,225,14,2,0,21,20,0,6,5,12,3,14,147,150,NA,172,193,194,201,207,220,224,239
342,saginaw_mi,43.4003,-83.8684,-0.5,2022,10,2022,mid00,854.6328414478012,11,2022-05-13,2022-05-27,105,2022-09-09,2022-09-12,2022-09-26,Harvested at Maturity.,3.2866666124512753,0.30666667098800343,1.8518421200447177,1.3646666663388412,4.623529437819824,0.07000000029802322,0.3475000001490116,5.068571446197374,2.1092856925513064,0.7100000381469727,2.9533333561072745,3.2866666124512753,0.30666667098800343,1.8518421200447177,1.3646666663388412,4.623529437819824,0.07000000029802322,0.3475000001490116,5.068571446197374,2.1092856925513064,0.7100000381469727,2.9533333561072745,19.04000005722046,26.06999969482422,23.863421164060895,23.518000030517577,19.809411862317255,23.09000015258789,21.047499656677246,20.132857186453684,17.164999995912826,19.739999771118164,13.453999964396159,21.104666709899902,24.229999542236328,25.045789517854388,26.506666564941405,26.959999982048483,23.100000381469727,24.805000066757202,26.202857426234655,25.155714171273367,27.03000005086263,22.432666651407878,15.791666746139526,18.893332958221436,19.621973690233734,21.620666694641113,22.44647065330954,19.235000133514404,19.79937505722046,21.700000149863108,20.658214262553624,20.69166660308838,17.749666579564412,10.47866678237915,13.556666374206543,14.198157862613076,16.73466682434082,17.9329413245706,15.369999885559082,14.793750047683716,17.19714287349156,16.160714353833878,14.353333155314127,13.066666507720948,6.03617147977968,8.901688333372274,8.182614924315567,10.465303044041143,12.158782287577491,9.235000133514404,9.87940702535659,11.700000149863108,10.6821978145097,10.803707050981124,7.047934846453468,6.03617147977968,8.901688333372274,8.182614924315567,10.465303044041143,12.158782287577491,9.235000133514404,9.87940702535659,11.700000149863108,10.6821978145097,10.803707050981124,7.047934846453468,0,0,310.93936712399164,467.9189127846088,674.6182116734261,683.8532118069405,762.8884680097933,844.7884690588351,994.3392384619708,1026.7503596149145,1026.7503596149145,0,0,0.8513421033558093,0.9660666720072428,0.9992352934444652,0.9235000133514404,0.9477500021457672,1,0.9596785715648106,0.9973333199818929,0.06666666666666667,1,1,1,1,1,1,1,1,1,1,1,0.568966670036316,0.809666649500529,0.8513421033558093,0.9660666720072428,0.9992352934444652,0.9235000133514404,0.9477500021457672,1,0.9596785715648106,0.9973333199818929,0.7343999942143759,1,1,0.9983598387976022,1,1,0.9999999999999996,1,1,0.9999999999999999,0.9999999999999999,1,2022-05-13T12:00:00Z,2022-05-28T12:00:00Z,2022-05-31T12:00:00Z,2022-07-08T12:00:00Z,2022-07-23T12:00:00Z,2022-08-09T12:00:00Z,2022-08-10T12:00:00Z,2022-08-18T12:00:00Z,2022-08-25T12:00:00Z,2022-09-08T12:00:00Z,2022-09-11T12:00:00Z,2022-05-27T12:00:00Z,2022-05-30T12:00:00Z,2022-07-07T12:00:00Z,2022-07-22T12:00:00Z,2022-08-08T12:00:00Z,2022-08-09T12:00:00Z,2022-08-17T12:00:00Z,2022-08-24T12:00:00Z,2022-09-07T12:00:00Z,2022-09-10T12:00:00Z,2022-09-25T12:00:00Z,133,148,151,189,204,221,222,230,237,251,254,14,2,37,14,16,0,7,6,13,2,14,147,150,188,203,220,221,229,236,250,253,268
343,saginaw_mi,43.4003,-83.8684,0.5,2022,10,2022,mid0,858.7919952063282,11,2022-05-13,2022-05-27,108,2022-09-12,2022-09-16,2022-09-30,Harvested at Maturity.,3.2866666124512753,0.30666667098800343,1.7635000140871853,3.3980000046392282,2.666666687052283,0,0.4642857164144516,6.135714305298669,1.5813333188494045,6.295000028330833,2.103333317240079,3.2866666124512753,0.30666667098800343,1.7635000140871853,3.3980000046392282,2.666666687052283,0,0.4642857164144516,6.135714305298669,1.5813333188494045,6.295000028330833,2.103333317240079,19.04000005722046,26.06999969482422,23.867000126838683,22.686666679382324,20.998333321677315,26.25,19.292857033865793,17.578571455819265,18.064666589101154,13.692500114440918,12.409333260854085,21.104666709899902,24.229999542236328,24.939500045776366,27.225333150227865,26.410555627610947,24.110000610351563,25.441428593226842,25.497143064226425,25.590666580200196,22.927499771118164,20.14266668955485,15.791666746139526,18.893332958221436,19.56262501478195,22.412333329518635,21.758888986375595,18.205000400543213,20.653571401323592,21.320714473724365,20.66533327102661,18.397499799728394,15.890999952952066,10.47866678237915,13.556666374206543,14.185749983787536,17.59933350880941,17.107222345140244,12.300000190734863,15.865714209420341,17.144285883222306,15.739999961853027,13.867499828338623,11.639333216349284,6.03617147977968,8.901688333372274,7.435985340994827,10.494640408865495,11.168694481792153,8.205000400543213,10.6691737907597,11.320714473724365,10.710126009097497,8.819393353499473,5.5467622822089995,6.03617147977968,8.901688333372274,7.435985340994827,10.494640408865495,11.168694481792153,8.205000400543213,10.6691737907597,11.320714473724365,10.710126009097497,8.819393353499473,5.5467622822089995,0,0,297.43941363979303,454.8590197727755,655.8955204450344,664.1005208455776,738.7847373808955,818.0297386969661,978.6816288334286,1013.9592022474266,1013.9592022474266,0,0,0.8509499990940095,0.9869333362579346,0.9898333337571886,0.8205000400543213,0.9792857101985386,0.9907857213701521,0.9661333274841308,0.806499981880188,0.04869999885559082,1,1,1,1,1,1,1,1,1,1,1,0.568966670036316,0.809666649500529,0.8509499990940095,0.9869333362579346,0.9898333337571886,0.8205000400543213,0.9792857101985386,0.9907857213701521,0.9661333274841308,0.806499981880188,0.5573999977111816,1,1,0.9984421090476037,1,0.9999999999999999,0.9999999999999998,0.9999999999999999,0.9999999999999999,0.9999999999999999,0.9999999999999998,1,2022-05-13T12:00:00Z,2022-05-28T12:00:00Z,2022-05-31T12:00:00Z,2022-07-10T12:00:00Z,2022-07-25T12:00:00Z,2022-08-12T12:00:00Z,2022-08-13T12:00:00Z,2022-08-20T12:00:00Z,2022-08-27T12:00:00Z,2022-09-11T12:00:00Z,2022-09-15T12:00:00Z,2022-05-27T12:00:00Z,2022-05-30T12:00:00Z,2022-07-09T12:00:00Z,2022-07-24T12:00:00Z,2022-08-11T12:00:00Z,2022-08-12T12:00:00Z,2022-08-19T12:00:00Z,2022-08-26T12:00:00Z,2022-09-10T12:00:00Z,2022-09-14T12:00:00Z,2022-09-29T12:00:00Z,133,148,151,191,206,224,225,232,239,254,258,14,2,39,14,17,0,6,6,14,3,14,147,150,190,205,223,224,231,238,253,257,272
344,saginaw_mi,43.4003,-83.8684,1.5,2022,10,2022,mid1,1107.848035081791,11,2022-05-13,2022-05-27,126,2022-09-30,2022-10-08,2022-10-22,Harvested at Maturity.,3.2866666124512753,0.30666667098800343,1.8553191612058497,2.77000002552043,3.3300000077024814,NA,3.6962499432265754,0.4387500127777457,2.9429999993182716,0.3025000107008964,2.9973333259423574,3.2866666124512753,0.30666667098800343,1.8553191612058497,2.77000002552043,3.3300000077024814,NA,3.6962499432265754,0.4387500127777457,2.9429999993182716,0.3025000107008964,2.9973333259423574,19.04000005722046,26.06999969482422,23.57361714383389,23.08294116749483,19.369999908265612,NA,18.12125015258789,17.39499980211258,13.046499991416932,15.858749866485596,9.543333387374878,21.104666709899902,24.229999542236328,24.999361728100066,27.217058742747586,26.061904907226563,NA,25.984999895095825,24.734999895095825,21.664999961853027,18.84375,13.030666542053224,15.791666746139526,18.893332958221436,19.702234065279047,22.462352977079505,21.46142864227295,NA,21.24750006198883,20.225624918937683,17.122499907016753,13.202500015497208,8.309999926884968,10.47866678237915,13.556666374206543,14.405106402458028,17.70764721141142,16.860952377319336,NA,16.510000228881836,15.716249942779541,12.579999852180482,7.561250030994415,3.5893333117167154,6.03617147977968,8.901688333372274,6.719888038905389,10.127871005849649,11.027512100784026,NA,11.257172519926726,10.261734398455173,8.297882628071308,6.042850665916875,1.290700194299817,6.03617147977968,8.901688333372274,6.719888038905389,10.127871005849649,11.027512100784026,NA,11.257172519926726,10.261734398455173,8.297882628071308,6.042850665916875,1.290700194299817,0,0,315.8347378285532,488.00854492799726,719.5862990444617,NA,809.6436792038755,891.7375543915169,1057.6952069529432,1106.0380122802785,1106.0380122802785,0,0,0.8689787235665829,0.9992352934444652,0.976452382405599,NA,0.987187510728836,0.9422499895095826,0.6713499915599823,0.3202500015497208,0,1,1,1,1,1,NA,1,1,1,1,1,0.568966670036316,0.809666649500529,0.8689787235665829,0.9992352934444652,0.976452382405599,NA,0.987187510728836,0.9422499895095826,0.6713499915599823,0.3202500015497208,0.07526666164398194,1,1,0.9986747924777845,1,1,NA,0.9999999999999999,0.9999999999999999,1,1,1,2022-05-13T12:00:00Z,2022-05-28T12:00:00Z,2022-05-31T12:00:00Z,2022-07-17T12:00:00Z,2022-08-03T12:00:00Z,NA,2022-08-24T12:00:00Z,2022-09-01T12:00:00Z,2022-09-09T12:00:00Z,2022-09-29T12:00:00Z,2022-10-07T12:00:00Z,2022-05-27T12:00:00Z,2022-05-30T12:00:00Z,2022-07-16T12:00:00Z,2022-08-02T12:00:00Z,2022-08-23T12:00:00Z,NA,2022-08-31T12:00:00Z,2022-09-08T12:00:00Z,2022-09-28T12:00:00Z,2022-10-06T12:00:00Z,2022-10-21T12:00:00Z,133,148,151,198,215,NA,236,244,252,272,280,14,2,46,16,20,0,7,7,19,7,14,147,150,197,214,235,NA,243,251,271,279,294
345,saginaw_mi,43.4003,-83.8684,2.5,2022,10,2022,mid2,1303.6115154474264,11,2022-05-13,2022-05-27,144,2022-10-18,2022-10-27,2022-11-10,Harvested at Maturity.,3.2866666124512753,0.30666667098800343,1.779019618735594,3.939000022225082,2.921818169003183,0,0.4387500127777457,3.100000025704503,2.0489285820429877,2.702222156855795,1.2013333084682623,3.2866666124512753,0.30666667098800343,1.779019618735594,3.939000022225082,2.921818169003183,0,0.4387500127777457,3.100000025704503,2.0489285820429877,2.702222156855795,1.2013333084682623,19.04000005722046,26.06999969482422,23.56901971031638,20.87050006389618,19.667272654446688,23.260000228881836,17.193749725818634,14.718888918558756,12.297857114246913,8.635555664698282,9.017333285013834,21.104666709899902,24.229999542236328,25.313529407276828,26.988500022888182,25.549090992320668,26.010000228881836,24.866249799728394,24.548888948228623,17.333571365901403,14.78222221798367,15.586666615804036,15.791666746139526,18.893332958221436,20.044313729978075,22.425500082969666,20.807500080628827,20.49000024795532,20.154374837875366,19.621666590372723,12.402499956744057,10.271111064487034,10.206999969482421,10.47866678237915,13.556666374206543,14.775098052679324,17.862500143051147,16.06590916893699,14.970000267028809,15.442499876022339,14.694444232516819,7.471428547586713,5.759999910990397,4.827333323160807,6.03617147977968,8.901688333372274,5.914429370975255,9.609951087734153,10.5042818406699,10.490000247955322,10.228688763820381,9.870952048071887,6.074495569521721,6.064631113065613,1.9942915307360392,6.03617147977968,8.901688333372274,5.914429370975255,9.609951087734153,10.5042818406699,10.490000247955322,10.228688763820381,9.870952048071887,6.074495569521721,6.064631113065613,1.9942915307360392,0,0,301.6358979197381,493.8349196744211,724.9291201691589,735.4191204171142,817.2486305276773,906.0871989603244,1076.1730749069322,1130.7547549245228,1130.7547549245228,0,0,0.8792549021103803,0.9955250000953675,0.976340913772583,1,0.9412499845027924,0.8829999923706054,0.29210713846342906,0.26116666793823246,0,1,1,1,1,1,1,1,1,1,1,1,0.568966670036316,0.809666649500529,0.8792549021103803,0.9955250000953675,0.976340913772583,1,0.9412499845027924,0.8829999923706054,0.29210713846342906,0.26116666793823246,0.1328666655222575,1,1,0.9987791320550838,1,0.9999999999999999,1,1,1,1,0.9999999999999999,1,2022-05-13T12:00:00Z,2022-05-28T12:00:00Z,2022-05-31T12:00:00Z,2022-07-21T12:00:00Z,2022-08-10T12:00:00Z,2022-09-01T12:00:00Z,2022-09-02T12:00:00Z,2022-09-10T12:00:00Z,2022-09-19T12:00:00Z,2022-10-17T12:00:00Z,2022-10-26T12:00:00Z,2022-05-27T12:00:00Z,2022-05-30T12:00:00Z,2022-07-20T12:00:00Z,2022-08-09T12:00:00Z,2022-08-31T12:00:00Z,2022-09-01T12:00:00Z,2022-09-09T12:00:00Z,2022-09-18T12:00:00Z,2022-10-16T12:00:00Z,2022-10-25T12:00:00Z,2022-11-09T12:00:00Z,133,148,151,202,222,244,245,253,262,290,299,14,2,50,19,21,0,7,8,27,8,14,147,150,201,221,243,244,252,261,289,298,313
351,danvers_mn,45.2803,-95.7591,-1.5,2017,11,2017,mid000,255.8303369446728,11,2017-05-03,2017-05-17,83,2017-08-08,2017-08-13,2017-08-27,Harvested at Maturity.,2.401333294187983,2.838333339430392,NA,2.6405882473815887,1.8883333418828745,0.1599999964237213,2.47571433867727,2.002857158226626,3.44769237190485,2.114000091701746,8.121999882161617,2.401333294187983,2.838333339430392,NA,2.6405882473815887,1.8883333418828745,0.1599999964237213,2.47571433867727,2.002857158226626,3.44769237190485,2.114000091701746,8.121999882161617,21.99333324432373,16.99666663010915,NA,25.29705877865062,23.15791658560435,28.360000610351563,23.578571319580078,21.250000272478378,21.695384685809795,20.09599990844727,15.022000058492024,23.07399991353353,17.089999953905743,NA,27.6158826491412,25.9975000222524,30.479999542236328,30.26571355547224,29.71285683768136,27.436153705303486,25.026000213623046,23.811999893188478,15.759999950726828,12.085416664679846,NA,20.69529426799101,19.744791666666668,23.954999923706055,23.198571068899973,23.326428277151926,21.672307638021618,19.6789999961853,18.896666622161867,8.445999987920125,7.080833375453949,NA,13.77470588684082,13.492083311080933,17.43000030517578,16.131428582327707,16.939999716622488,15.908461570739746,14.331999778747559,13.981333351135254,6.242620034710864,3.2261193106470007,NA,9.443814288547443,8.362327916176737,12.530507433873806,11.041193186374302,12.278457388148768,11.675451869043345,9.82284968890667,8.208333269755046,6.242620034710864,3.2261193106470007,NA,9.443814288547443,8.362327916176737,12.530507433873806,11.041193186374302,12.278457388148768,11.675451869043345,9.82284968890667,8.208333269755046,0,0,NA,160.54484290530652,361.2407128935481,373.77122032742193,451.059572632042,537.0087743490833,688.7896486466467,737.90389709118,737.90389709118,0,0,NA,0.9089117639205035,0.8435416678587596,1,0.9671428612300328,1,0.9039230750157283,0.9580000019073487,0.06666666666666667,1,1,NA,1,1,1,1,1,1,1,1,0.5715666619936626,0.2747499982515971,NA,0.9089117639205035,0.8435416678587596,1,0.9671428612300328,1,0.9039230750157283,0.9580000019073487,0.8871999899546306,1,1,NA,1,0.9999999999999999,0.9999999999999998,0.9999999999999999,1,0.9999999999999999,1,1,2017-05-03T12:00:00Z,2017-05-18T12:00:00Z,NA,2017-05-30T12:00:00Z,2017-06-16T12:00:00Z,2017-07-10T12:00:00Z,2017-07-11T12:00:00Z,2017-07-18T12:00:00Z,2017-07-25T12:00:00Z,2017-08-07T12:00:00Z,2017-08-12T12:00:00Z,2017-05-17T12:00:00Z,2017-05-29T12:00:00Z,NA,2017-06-15T12:00:00Z,2017-07-09T12:00:00Z,2017-07-10T12:00:00Z,2017-07-17T12:00:00Z,2017-07-24T12:00:00Z,2017-08-06T12:00:00Z,2017-08-11T12:00:00Z,2017-08-26T12:00:00Z,123,138,NA,150,167,191,192,199,206,219,224,14,11,0,16,23,0,6,6,12,4,14,137,149,NA,166,190,191,198,205,218,223,238
352,danvers_mn,45.2803,-95.7591,-0.5,2017,11,2017,mid00,813.5113649127653,11,2017-05-03,2017-05-17,120,2017-09-14,2017-09-17,2017-10-01,Harvested at Maturity.,2.401333294187983,2.838333339430392,2.282432441373129,2.03533336520195,2.7147368900477886,8.3100004196167,12.122499857097864,3.0099999349978237,0.2782352893229793,2.8866666158040366,4.767333348592122,2.401333294187983,2.838333339430392,2.282432441373129,2.03533336520195,2.7147368900477886,8.3100004196167,12.122499857097864,3.0099999349978237,0.2782352893229793,2.8866666158040366,4.767333348592122,21.99333324432373,16.99666663010915,23.874864810221904,23.616666666666667,22.234736894306383,9.850000381469728,15.112500250339508,16.113333225250244,18.634117631351245,12.416666348775228,12.385333251953124,23.07399991353353,17.089999953905743,26.16702718992491,30.679332733154297,27.640526319804945,23.65999984741211,23.796249866485596,23.905555513170032,24.905294193941003,29.60333315531413,21.261333338419597,15.759999950726828,12.085416664679846,19.702162227115117,23.627333068847655,21.727631543812,20.229999542236328,19.451249957084656,18.539444393581814,18.410294154111078,23.289999961853027,15.491333357493083,8.445999987920125,7.080833375453949,13.23729726430532,16.575333404541016,15.814736767819053,16.799999237060547,15.106250047683716,13.173333273993599,11.91529411428115,16.976666768391926,9.72133337656657,6.242620034710864,3.2261193106470007,7.868978944636549,10.880542866518937,10.99247853580198,10.22999954223633,9.457832220891119,8.963115881619851,9.195494343473632,13.180752722477914,5.552166917988459,6.242620034710864,3.2261193106470007,7.868978944636549,10.880542866518937,10.99247853580198,10.22999954223633,9.457832220891119,8.963115881619851,9.195494343473632,13.180752722477914,5.552166917988459,0,0,291.1522209515523,454.36036394933626,663.2174561295739,673.4474556718102,749.1101134389392,829.7781563735178,986.1015602125696,1025.6438183800033,1025.6438183800033,0,0,0.8566621625745618,0.9846666685740153,0.9283947367417185,1,0.941062492132187,0.8534444332122804,0.7869999983731438,1,0.02883333206176758,1,1,1,1,1,1,1,1,1,1,1,0.5715666619936626,0.2747499982515971,0.8566621625745618,0.9846666685740153,0.9283947367417185,1,0.941062492132187,0.8534444332122804,0.7869999983731438,1,0.5110666688283285,1,1,1,1,0.9999999999999999,1,0.9999999999999999,1,0.9999999999999999,1,1,2017-05-03T12:00:00Z,2017-05-18T12:00:00Z,2017-05-30T12:00:00Z,2017-07-06T12:00:00Z,2017-07-21T12:00:00Z,2017-08-09T12:00:00Z,2017-08-10T12:00:00Z,2017-08-18T12:00:00Z,2017-08-27T12:00:00Z,2017-09-13T12:00:00Z,2017-09-16T12:00:00Z,2017-05-17T12:00:00Z,2017-05-29T12:00:00Z,2017-07-05T12:00:00Z,2017-07-20T12:00:00Z,2017-08-08T12:00:00Z,2017-08-09T12:00:00Z,2017-08-17T12:00:00Z,2017-08-26T12:00:00Z,2017-09-12T12:00:00Z,2017-09-15T12:00:00Z,2017-09-30T12:00:00Z,123,138,150,187,202,221,222,230,239,256,259,14,11,36,14,18,0,7,8,16,2,14,137,149,186,201,220,221,229,238,255,258,273
353,danvers_mn,45.2803,-95.7591,0.5,2017,11,2017,mid0,896.9653954103933,11,2017-05-03,2017-05-17,122,2017-09-16,2017-09-21,2017-10-05,Harvested at Maturity.,2.401333294187983,2.838333339430392,2.1197500083595515,2.3720000351468724,3.283000069670379,34.66999816894531,7.241250072605908,2.271111044825779,0.30666666142642496,3.715999948978424,7.675999971230825,2.401333294187983,2.838333339430392,2.1197500083595515,2.3720000351468724,3.283000069670379,34.66999816894531,7.241250072605908,2.271111044825779,0.30666666142642496,3.715999948978424,7.675999971230825,21.99333324432373,16.99666663010915,24.23649995326996,22.354000091552734,21.427000045776367,7.510000228881836,13.802500188350677,18.627777682410347,17.75799986521403,9.369999885559082,11.923333263397216,23.07399991353353,17.089999953905743,26.547000122070312,30.228666178385417,26.811999988555907,21,24.25124979019165,24.420000076293945,25.431333287556967,22.6060001373291,20.064000002543132,15.759999950726828,12.085416664679846,20.027625060081483,23.517666371663413,21.095749974250793,18.21500015258789,19.48124986886978,18.52944448259142,18.878666671117145,16.893000030517577,14.68166667620341,8.445999987920125,7.080833375453949,13.508249998092651,16.806666564941406,15.37949995994568,15.43000030517578,14.711249947547913,12.63888888888889,12.326000054677328,11.179999923706054,9.299333349863687,6.242620034710864,3.2261193106470007,7.305238024405876,10.19968193868754,10.09310299884512,8.21500015258789,9.55613513762355,9.036124381811751,9.660477455171744,8.225993564152716,4.746267010957599,6.242620034710864,3.2261193106470007,7.305238024405876,10.19968193868754,10.09310299884512,8.21500015258789,9.55613513762355,9.036124381811751,9.660477455171744,8.225993564152716,4.746267010957599,0,0,292.20952097623507,445.2047500565481,647.0668100334503,655.2818101860382,731.7308912870267,813.0560107233324,957.9631725509088,999.0931403716722,999.0931403716722,0,0,0.8674125003814698,0.9846666685740153,0.9270499992370606,0.8215000152587891,0.9475624799728394,0.8397777822282579,0.7817999951044718,0.6501000022888184,0.042599999109903974,1,1,1,1,1,1,1,1,1,1,1,0.5715666619936626,0.2747499982515971,0.8674125003814698,0.9846666685740153,0.9270499992370606,0.8215000152587891,0.9475624799728394,0.8397777822282579,0.7817999951044718,0.6501000022888184,0.43616666634877527,1,1,1,1,0.9999999999999999,1,1,1,1,1,1,2017-05-03T12:00:00Z,2017-05-18T12:00:00Z,2017-05-30T12:00:00Z,2017-07-09T12:00:00Z,2017-07-24T12:00:00Z,2017-08-13T12:00:00Z,2017-08-14T12:00:00Z,2017-08-22T12:00:00Z,2017-08-31T12:00:00Z,2017-09-15T12:00:00Z,2017-09-20T12:00:00Z,2017-05-17T12:00:00Z,2017-05-29T12:00:00Z,2017-07-08T12:00:00Z,2017-07-23T12:00:00Z,2017-08-12T12:00:00Z,2017-08-13T12:00:00Z,2017-08-21T12:00:00Z,2017-08-30T12:00:00Z,2017-09-14T12:00:00Z,2017-09-19T12:00:00Z,2017-10-04T12:00:00Z,123,138,150,190,205,225,226,234,243,258,263,14,11,39,14,19,0,7,8,14,4,14,137,149,189,204,224,225,233,242,257,262,277
354,danvers_mn,45.2803,-95.7591,1.5,2017,11,2017,mid1,1154.9534517667385,11,2017-05-03,2017-05-17,146,2017-10-10,2017-10-19,2017-11-02,Harvested at Maturity.,2.401333294187983,2.838333339430392,2.1463043589306916,1.728333363102542,6.508461513914741,0,0.3909999946132302,0.099999996434365,5.625416637631133,1.7399999998095963,0.3360000000645717,2.401333294187983,2.838333339430392,2.1463043589306916,1.728333363102542,6.508461513914741,0,0.3909999946132302,0.099999996434365,5.625416637631133,1.7399999998095963,0.3360000000645717,21.99333324432373,16.99666663010915,23.758695581684943,23.58166684044732,16.71730771431556,23.110000610351563,18.826000118255614,17.40999957493373,11.033333291610083,11.847777843475342,8.32533327738444,23.07399991353353,17.089999953905743,26.86543485392695,30.498888545566135,23.90076916034405,25.440000534057617,24.05399990081787,27.94571440560477,20.25333336989085,15.019999821980795,11.233999900023143,15.759999950726828,12.085416664679846,20.352065262587175,23.948055293824936,18.841346117166374,18.420000076293945,17.75299999713898,20.95857150214059,14.761666695276896,8.386111023111477,5.966333290934562,8.445999987920125,7.080833375453949,13.8386956712474,17.39722204208374,13.781923073988695,11.399999618530272,11.452000093460082,13.97142859867641,9.270000020662943,1.7522222242421575,0.6986666818459829,6.242620034710864,3.2261193106470007,6.555279531652289,10.261252583715011,8.411689251066255,8.420000076293945,8.685557868056298,11.336938512103899,7.09373916044794,5.413827410571733,1.3299316189543406,6.242620034710864,3.2261193106470007,6.555279531652289,10.261252583715011,8.411689251066255,8.420000076293945,8.685557868056298,11.336938512103899,7.09373916044794,5.413827410571733,1.3299316189543406,0,0,301.5428584560053,486.2454049628755,704.9493254905982,713.3693255668921,800.2249042474551,879.5834738321824,1049.833213682933,1098.5576603780787,1098.5576603780787,0,0,0.8797065226928048,1,0.8719807624816895,0.8420000076293945,0.74724999666214,0.8917142868041992,0.4516250014305115,0.08472221957312691,0.01203333059946696,1,1,1,1,1,1,1,1,1,1,1,0.5715666619936626,0.2747499982515971,0.8797065226928048,1,0.8719807624816895,0.8420000076293945,0.74724999666214,0.8917142868041992,0.4516250014305115,0.08472221957312691,0.1091333293914795,1,1,1,1,1,1,0.9999999999999999,1,1,1,1,2017-05-03T12:00:00Z,2017-05-18T12:00:00Z,2017-05-30T12:00:00Z,2017-07-15T12:00:00Z,2017-08-02T12:00:00Z,2017-08-28T12:00:00Z,2017-08-29T12:00:00Z,2017-09-08T12:00:00Z,2017-09-15T12:00:00Z,2017-10-09T12:00:00Z,2017-10-18T12:00:00Z,2017-05-17T12:00:00Z,2017-05-29T12:00:00Z,2017-07-14T12:00:00Z,2017-08-01T12:00:00Z,2017-08-27T12:00:00Z,2017-08-28T12:00:00Z,2017-09-07T12:00:00Z,2017-09-14T12:00:00Z,2017-10-08T12:00:00Z,2017-10-17T12:00:00Z,2017-11-01T12:00:00Z,123,138,150,196,214,240,241,251,258,282,291,14,11,45,17,25,0,9,6,23,8,14,137,149,195,213,239,240,250,257,281,290,305
355,danvers_mn,45.2803,-95.7591,2.5,2017,11,2017,mid2,1156.0307561059406,11,2017-05-03,2017-05-17,169,2017-11-02,2017-11-12,2017-11-26,Harvested at Maturity.,2.401333294187983,2.838333339430392,2.211153861708366,3.0891304976590304,4.1782142178022434,0.6499999761581421,2.0644444160991244,5.599090939218348,2.4190322327157183,0.7420000191777945,0.10399999891718228,2.401333294187983,2.838333339430392,2.211153861708366,3.0891304976590304,4.1782142178022434,0.6499999761581421,2.0644444160991244,5.599090939218348,2.4190322327157183,0.7420000191777945,0.10399999891718228,21.99333324432373,16.99666663010915,23.800384576504047,21.55173923658288,16.807857172829763,12.649999618530272,12.836666425069174,13.049999930641867,9.77709677911574,5.050999999046326,5.7140000025431315,23.07399991353353,17.089999953905743,27.468653788933388,27.094782621964164,23.81571422304426,28.1200008392334,26.03666665818956,21.181818181818183,14.201935389349538,0.15700001902878286,3.1939999870955944,15.759999950726828,12.085416664679846,20.834423046845657,21.40847821857618,18.20428568124771,21.760000228881836,19.66611115137736,15.442272749814121,8.52693544580571,-3.306500004790723,-0.9586666751652956,8.445999987920125,7.080833375453949,14.200192304757925,15.722173815188201,12.592857139451162,15.399999618530272,13.295555644565159,9.702727317810059,2.8519355022618846,-6.770000028610229,-5.111333337426186,6.242620034710864,3.2261193106470007,5.62526398927803,8.3660025429118,8.034445040746233,11.760000228881836,10.347988557642699,7.579820320683718,5.542154293336587,5,0,6.242620034710864,3.2261193106470007,5.62526398927803,8.3660025429118,8.034445040746233,11.760000228881836,10.347988557642699,7.579820320683718,5.542154293336587,5,0,0,0,292.51372744245737,484.9317859294287,709.8962470703233,721.6562472992051,814.7881443179893,898.1661678455102,1069.9729509389445,1119.9729509389445,1119.9729509389445,0,0,0.8935865393051734,0.9365652167278787,0.810249993630818,1,0.8056111123826769,0.4923181837255305,0.14749999738508657,0,0,1,1,1,1,1,1,1,1,1,1,1,0.5715666619936626,0.2747499982515971,0.8935865393051734,0.9365652167278787,0.810249993630818,1,0.8056111123826769,0.4923181837255305,0.14749999738508657,0,0,1,1,1,1,1,1,0.9999999999999999,0.9999999999999999,0.9999999999999999,1,1,2017-05-03T12:00:00Z,2017-05-18T12:00:00Z,2017-05-30T12:00:00Z,2017-07-21T12:00:00Z,2017-08-13T12:00:00Z,2017-09-10T12:00:00Z,2017-09-11T12:00:00Z,2017-09-20T12:00:00Z,2017-10-01T12:00:00Z,2017-11-01T12:00:00Z,2017-11-11T12:00:00Z,2017-05-17T12:00:00Z,2017-05-29T12:00:00Z,2017-07-20T12:00:00Z,2017-08-12T12:00:00Z,2017-09-09T12:00:00Z,2017-09-10T12:00:00Z,2017-09-19T12:00:00Z,2017-09-30T12:00:00Z,2017-10-31T12:00:00Z,2017-11-10T12:00:00Z,2017-11-25T12:00:00Z,123,138,150,202,225,253,254,263,274,305,315,14,11,51,22,27,0,8,10,30,9,14,137,149,201,224,252,253,262,273,304,314,329
361,danvers_mn,45.2803,-95.7591,-1.5,2019,11,2019,mid000,221.1948647487253,11,2019-05-04,2019-05-18,84,2019-08-10,2019-08-14,2019-08-28,Harvested at Maturity.,4.259999989594022,3.589090879667889,NA,2.2168181585147977,4.571904801719246,NA,1.8585714426423823,1.3014285905020577,3.2378572337329388,5.547500252723694,4.142666607225935,4.259999989594022,3.589090879667889,NA,2.2168181585147977,4.571904801719246,NA,1.8585714426423823,1.3014285905020577,3.2378572337329388,5.547500252723694,4.142666607225935,20.599999936421714,17.83999980579723,NA,23.654090881347656,20.103809538341704,NA,23.584285736083984,22.145714078630718,22.530714307512557,14.477500319480896,19.719999853769938,16.659999942779542,17.985454559326172,NA,24.808181849392977,25.84238097781227,NA,29.402857099260604,26.842857360839844,26.344999858311244,25.297499656677246,24.335333379109702,10.374666647116344,12.175909058614211,NA,18.54045457189733,21.089523769560316,NA,24.462857246398926,21.404285839625768,20.937499897820608,20.271249771118164,18.869666639963786,4.089333351453146,6.3663635579022495,NA,12.272727294401689,16.336666561308363,NA,19.522857393537247,15.96571431841169,15.529999937329974,15.244999885559082,13.40399990081787,2.482402871447305,3.2786434377098628,NA,7.5358492472274925,9.762130624304435,NA,13.182727336217427,10.791491553518519,11.044563316201632,10.342090111033619,8.179333273569743,2.482402871447305,3.2786434377098628,NA,7.5358492472274925,9.762130624304435,NA,13.182727336217427,10.791491553518519,11.044563316201632,10.342090111033619,8.179333273569743,0,0,NA,165.78868343900487,370.793426549398,NA,463.07251790292,538.6129587775497,693.2368452043726,734.6052056485071,734.6052056485071,0,0,NA,0.7812272732908075,0.9698095208122617,NA,1,0.9774285725184849,0.9299285650253296,0.9546249985694886,0.06666666666666667,1,1,NA,1,1,NA,1,1,1,1,1,0.155099995136261,0.25909090475602586,NA,0.7812272732908075,0.9698095208122617,NA,1,0.9774285725184849,0.9299285650253296,0.9546249985694886,0.8710666688283285,1,1,NA,1,0.9999999999999999,NA,1,0.9999999999999999,1,0.9999999999999999,1,2019-05-04T12:00:00Z,2019-05-19T12:00:00Z,NA,2019-05-30T12:00:00Z,2019-06-21T12:00:00Z,NA,2019-07-12T12:00:00Z,2019-07-19T12:00:00Z,2019-07-26T12:00:00Z,2019-08-09T12:00:00Z,2019-08-13T12:00:00Z,2019-05-18T12:00:00Z,2019-05-29T12:00:00Z,NA,2019-06-20T12:00:00Z,2019-07-11T12:00:00Z,NA,2019-07-18T12:00:00Z,2019-07-25T12:00:00Z,2019-08-08T12:00:00Z,2019-08-12T12:00:00Z,2019-08-27T12:00:00Z,124,139,NA,150,172,NA,193,200,207,221,225,14,10,0,21,20,0,6,6,13,3,14,138,149,NA,171,192,NA,199,206,220,224,239
362,danvers_mn,45.2803,-95.7591,-0.5,2019,11,2019,mid00,876.7472760463993,11,2019-05-04,2019-05-18,123,2019-09-18,2019-09-21,2019-10-05,Harvested at Maturity.,4.259999989594022,3.589090879667889,3.450526314199363,2.286000040421883,3.4125001151114702,NA,4.869999936316162,2.3939999608322977,5.096315851238997,6.339999834696452,2.1106666793425877,4.259999989594022,3.589090879667889,3.450526314199363,2.286000040421883,3.4125001151114702,NA,4.869999936316162,2.3939999608322977,5.096315851238997,6.339999834696452,2.1106666793425877,20.599999936421714,17.83999980579723,21.830526301735325,21.987333297729492,22.30400002002716,NA,20.18624985218048,18.88200001716614,14.230000069266872,16.839999834696453,9.82799989382426,16.659999942779542,17.985454559326172,25.154736920406943,28.03466657002767,26.12249994277954,NA,25.41499972343445,23.719000244140624,22.886315897891397,27.079999923706055,18.897333335876464,10.374666647116344,12.175909058614211,19.55078950053767,23.112333329518634,20.67674994468689,NA,19.980624794960022,18.221000099182127,17.125,22.488333225250244,13.477666647235553,4.089333351453146,6.3663635579022495,13.946842080668398,18.1900000890096,15.230999946594238,NA,14.546249866485596,12.722999954223633,11.363684102108603,17.896666526794434,8.05799995859464,2.482402871447305,3.2786434377098628,7.798861034638454,11.19252596570838,10.202806717771663,NA,10.093660729487986,8.727754193342328,8.099665132526662,12.488333225250244,3.6514432072043173,2.482402871447305,3.2786434377098628,7.798861034638454,11.19252596570838,10.202806717771663,NA,10.093660729487986,8.727754193342328,8.099665132526662,12.488333225250244,3.6514432072043173,0,0,296.3567193162612,464.244608801887,668.3007431573201,NA,749.0500289932241,836.3275709266474,990.221208444654,1027.686208120405,1027.686208120405,0,0,0.8571315784203379,0.9987999979654948,0.9339749956130982,NA,0.9487499952316284,0.8087000131607056,0.7005526341890034,1,0.06666666666666667,1,1,1,1,1,NA,1,1,1,1,1,0.155099995136261,0.25909090475602586,0.8571315784203379,0.9987999979654948,0.9339749956130982,NA,0.9487499952316284,0.8087000131607056,0.7005526341890034,1,0.3877666680018107,1,1,1,1,1,NA,1,1,0.9999999999999999,1,1,2019-05-04T12:00:00Z,2019-05-19T12:00:00Z,2019-05-30T12:00:00Z,2019-07-07T12:00:00Z,2019-07-22T12:00:00Z,NA,2019-08-11T12:00:00Z,2019-08-19T12:00:00Z,2019-08-29T12:00:00Z,2019-09-17T12:00:00Z,2019-09-20T12:00:00Z,2019-05-18T12:00:00Z,2019-05-29T12:00:00Z,2019-07-06T12:00:00Z,2019-07-21T12:00:00Z,2019-08-10T12:00:00Z,NA,2019-08-18T12:00:00Z,2019-08-28T12:00:00Z,2019-09-16T12:00:00Z,2019-09-19T12:00:00Z,2019-10-04T12:00:00Z,124,139,150,188,203,NA,223,231,241,260,263,14,10,37,14,19,0,7,9,18,2,14,138,149,187,202,222,NA,230,240,259,262,277
363,danvers_mn,45.2803,-95.7591,0.5,2019,11,2019,mid0,949.9065938068838,11,2019-05-04,2019-05-18,125,2019-09-20,2019-09-24,2019-10-08,Harvested at Maturity.,4.259999989594022,3.589090879667889,3.364999998966232,1.9256250367034229,3.521000112965703,0.05000000074505806,5.0799999558366835,2.104999948479235,6.75529415806865,0.929999977350235,3.1453334028522173,4.259999989594022,3.589090879667889,3.364999998966232,1.9256250367034229,3.521000112965703,0.05000000074505806,5.0799999558366835,2.104999948479235,6.75529415806865,0.929999977350235,3.1453334028522173,20.599999936421714,17.83999980579723,22.11749997138977,22.28250002861023,20.59600007534027,19.549999237060547,22.619999647140503,16.917000246047973,13.804117623497458,13.737499713897705,9.552666616439819,16.659999942779542,17.985454559326172,25.253750038146972,27.7931250333786,26.098499870300294,24.690000534057617,25.391249895095825,22.36800022125244,23.54176476422478,25.490000247955322,17.135333315531412,10.374666647116344,12.175909058614211,19.678875011205673,22.615312546491623,20.870249915122987,18.820000171661377,19.18812483549118,17.33150010108948,17.956470545600443,20.05625009536743,11.645333320895832,4.089333351453146,6.3663635579022495,14.103999984264373,17.437500059604645,15.641999959945679,12.949999809265137,12.984999775886536,12.294999980926514,12.371176326976103,14.622499942779541,6.155333326260249,2.482402871447305,3.2786434377098628,7.138227199697155,10.01555681324968,10.069202521244193,8.820000171661377,9.525982236245275,8.025781941670775,8.811352291101217,10.359010618126392,2.5187774185756595,2.482402871447305,3.2786434377098628,7.138227199697155,10.01555681324968,10.069202521244193,8.820000171661377,9.525982236245275,8.025781941670775,8.811352291101217,10.359010618126392,2.5187774185756595,0,0,285.52908798788616,445.777996999881,647.1620474247648,655.9820475964261,732.1899054863884,812.4477249030962,962.240713851817,1003.6767563243226,1003.6767563243226,0,0,0.864274999499321,0.9889999985694885,0.9418749952316284,0.8820000171661377,0.8934374988079071,0.7331500101089479,0.7427352961371927,0.8820000052452087,0.04430000305175782,1,1,1,1,1,1,1,1,1,1,1,0.155099995136261,0.25909090475602586,0.864274999499321,0.9889999985694885,0.9418749952316284,0.8820000171661377,0.8934374988079071,0.7331500101089479,0.7427352961371927,0.8820000052452087,0.23420000235239666,1,1,1,1,0.9999999999999999,0.9999999999999998,1,1,1,1,1,2019-05-04T12:00:00Z,2019-05-19T12:00:00Z,2019-05-30T12:00:00Z,2019-07-09T12:00:00Z,2019-07-25T12:00:00Z,2019-08-14T12:00:00Z,2019-08-15T12:00:00Z,2019-08-23T12:00:00Z,2019-09-02T12:00:00Z,2019-09-19T12:00:00Z,2019-09-23T12:00:00Z,2019-05-18T12:00:00Z,2019-05-29T12:00:00Z,2019-07-08T12:00:00Z,2019-07-24T12:00:00Z,2019-08-13T12:00:00Z,2019-08-14T12:00:00Z,2019-08-22T12:00:00Z,2019-09-01T12:00:00Z,2019-09-18T12:00:00Z,2019-09-22T12:00:00Z,2019-10-07T12:00:00Z,124,139,150,190,206,226,227,235,245,262,266,14,10,39,15,19,0,7,9,16,3,14,138,149,189,205,225,226,234,244,261,265,280
364,danvers_mn,45.2803,-95.7591,1.5,2019,11,2019,mid1,1087.7298195559033,11,2019-05-04,2019-05-18,151,2019-10-16,2019-10-26,2019-11-09,Harvested at Maturity.,4.259999989594022,3.589090879667889,3.2668085185850555,2.8705000741407276,3.4244000036269426,0.1599999964237213,4.697999926283956,8.568750177742913,2.6580769737752585,3.747000072710216,0.0720000001291434,4.259999989594022,3.589090879667889,3.2668085185850555,2.8705000741407276,3.4244000036269426,0.1599999964237213,4.697999926283956,8.568750177742913,2.6580769737752585,3.747000072710216,0.0720000001291434,20.599999936421714,17.83999980579723,22.085106342396838,22.091499996185302,19.97520004272461,17.735000133514404,13.855000162124634,13.03249979019165,10.083846101394066,8.694000005722046,8.197999954223633,16.659999942779542,17.985454559326172,25.665106428430434,26.85999994277954,24.706399993896486,21.119999885559082,22.960000228881835,24.444999933242798,16.72423082131606,11.893000030517578,3.8939999779065446,10.374666647116344,12.175909058614211,20.17340427256645,21.671999955177306,19.20879997253418,15.652499914169312,17.36150007247925,18.821874856948853,11.46192308780379,6.1819999948143955,-0.6846666673819224,4.089333351453146,6.3663635579022495,14.681702116702466,16.483999967575073,13.711199951171874,10.184999942779541,11.76299991607666,13.198749780654907,6.199615354291521,0.4709999591112137,-5.263333312670389,2.482402871447305,3.2786434377098628,6.56196795289995,9.03884846967367,8.855419308671198,5.735620526301862,8.172642607523203,9.663601837603004,6.535757255664697,5.1499007082869674,0.08372948068877063,2.482402871447305,3.2786434377098628,6.56196795289995,9.03884846967367,8.855419308671198,5.735620526301862,8.172642607523203,9.663601837603004,6.535757255664697,5.1499007082869674,0.08372948068877063,0,0,308.41249378629766,489.1894631797711,710.5749458965512,722.046186949155,803.772613024387,881.0814277252111,1051.0111163724932,1102.5101234553629,1102.5101234553629,0,0,0.8841063819033035,0.9556499981880188,0.8761600017547607,0.5652499914169312,0.7300000095367432,0.7774374961853028,0.30965384795115547,0.03130000114440919,0,1,1,1,1,1,1,1,1,1,1,1,0.155099995136261,0.25909090475602586,0.8841063819033035,0.9556499981880188,0.8761600017547607,0.5652499914169312,0.7300000095367432,0.7774374961853028,0.30965384795115547,0.03130000114440919,0,1,1,1,1,0.9999999999999999,1,1,1,0.9999999999999999,1,1,2019-05-04T12:00:00Z,2019-05-19T12:00:00Z,2019-05-30T12:00:00Z,2019-07-16T12:00:00Z,2019-08-05T12:00:00Z,2019-08-30T12:00:00Z,2019-09-01T12:00:00Z,2019-09-11T12:00:00Z,2019-09-19T12:00:00Z,2019-10-15T12:00:00Z,2019-10-25T12:00:00Z,2019-05-18T12:00:00Z,2019-05-29T12:00:00Z,2019-07-15T12:00:00Z,2019-08-04T12:00:00Z,2019-08-29T12:00:00Z,2019-08-31T12:00:00Z,2019-09-10T12:00:00Z,2019-09-18T12:00:00Z,2019-10-14T12:00:00Z,2019-10-24T12:00:00Z,2019-11-08T12:00:00Z,124,139,150,197,217,242,244,254,262,288,298,14,10,46,19,24,1,9,7,25,9,14,138,149,196,216,241,243,253,261,287,297,312
365,danvers_mn,45.2803,-95.7591,2.5,2019,11,2019,mid2,1135.4081852583963,11,2019-05-04,2019-05-18,176,2019-11-10,2019-11-21,2019-12-05,Harvested at Maturity.,4.259999989594022,3.589090879667889,3.120943406526491,3.0617392286658287,5.0422580734255815,0.1599999964237213,2.9787499320227653,3.3692857887861982,1.7203030634784338,0.479090913283554,0.8973333321511745,4.259999989594022,3.589090879667889,3.120943406526491,3.0617392286658287,5.0422580734255815,0.1599999964237213,2.9787499320227653,3.3692857887861982,1.7203030634784338,0.479090913283554,0.8973333321511745,20.599999936421714,17.83999980579723,21.87490564022424,21.46826095166414,16.85516126694218,15.670000076293944,15.139999747276306,9.178571377481733,8.746666662620775,5.2163636901161885,4.137333329518636,16.659999942779542,17.985454559326172,25.969811349544884,26.104782519133195,23.173225895051033,23.75,26.443750143051147,16.996428557804652,8.25030304626985,1.27727274461226,1.775333328048388,10.374666647116344,12.175909058614211,20.558773603079455,20.729999936145283,17.65661290384108,15.96999979019165,20.974999964237213,11.688571417970318,3.2028787874927125,-2.9322727051648227,-1.9353333378831545,4.089333351453146,6.3663635579022495,15.147735856614023,15.355217353157375,12.139999912631128,8.1899995803833,15.506249785423279,6.380714278135981,-1.8445454712844256,-7.141818154941906,-5.646000003814697,2.482402871447305,3.2786434377098628,5.66526520312166,8.132082425602894,7.522238264822503,6.150783387768268,11.215230433969946,5.9818839747735435,5.189281139721716,5,0,2.482402871447305,3.2786434377098628,5.66526520312166,8.132082425602894,7.522238264822503,6.150783387768268,11.215230433969946,5.9818839747735435,5.189281139721716,5,0,0,0,300.25905576544807,487.2969515543148,720.4863377638125,726.6371211515807,816.3589646233403,900.1053402701699,1071.3516178809864,1126.3516178809864,1126.3516178809864,0,0,0.8972264141406653,0.9425869527070418,0.7571290369956725,0.596999979019165,0.9309375047683716,0.24350000279290338,0.0432424241846258,0,0,1,1,1,1,1,1,1,1,1,1,1,0.155099995136261,0.25909090475602586,0.8972264141406653,0.9425869527070418,0.7571290369956725,0.596999979019165,0.9309375047683716,0.24350000279290338,0.0432424241846258,0,0,1,1,1,0.9999999999999999,0.9999999999999999,1,1,0.9999999999999999,1,1,1,2019-05-04T12:00:00Z,2019-05-19T12:00:00Z,2019-05-30T12:00:00Z,2019-07-22T12:00:00Z,2019-08-14T12:00:00Z,2019-09-14T12:00:00Z,2019-09-15T12:00:00Z,2019-09-23T12:00:00Z,2019-10-07T12:00:00Z,2019-11-09T12:00:00Z,2019-11-20T12:00:00Z,2019-05-18T12:00:00Z,2019-05-29T12:00:00Z,2019-07-21T12:00:00Z,2019-08-13T12:00:00Z,2019-09-13T12:00:00Z,2019-09-14T12:00:00Z,2019-09-22T12:00:00Z,2019-10-06T12:00:00Z,2019-11-08T12:00:00Z,2019-11-19T12:00:00Z,2019-12-04T12:00:00Z,124,139,150,203,226,257,258,266,280,313,324,14,10,52,22,30,0,7,13,32,10,14,138,149,202,225,256,257,265,279,312,323,338
371,danvers_mn,45.2803,-95.7591,-1.5,2021,11,2021,mid000,240.73599453734255,11,2021-03-24,2021-04-07,107,2021-07-23,2021-07-25,2021-08-08,Harvested at Maturity.,3.633333425348004,1.0560714327730238,NA,1.233214317222259,1.6394736771716882,0,1.6928571159286159,2.821250000037253,1.4735714492521115,3.4749999046325684,2.5813333118955293,3.633333425348004,1.0560714327730238,NA,1.233214317222259,1.6394736771716882,0,1.6928571159286159,2.821250000037253,1.4735714492521115,3.4749999046325684,2.5813333118955293,16.520000139872234,15.983571256910052,NA,23.47607135772705,26.547368451168662,31.06999969482422,22.872857093811035,23.703749895095825,22.115714277539936,18.79499912261963,20.328666559855144,13.862666563193004,12.93750010217939,NA,21.831428630011423,31.346315785458213,25.299999237060547,29.31142861502511,31.350000381469727,28.6878570829119,35.869998931884766,31.016666412353516,6.691333266596,6.878214344382286,NA,15.120714365172066,24.10578948573062,16.854999542236328,23.089999948229107,24.69000017642975,22.556071281433105,28.797499656677246,24.42499984105428,-0.48000003000100455,0.8189285865851811,NA,8.410000100332711,16.865263186003034,8.40999984741211,16.868571281433105,18.02999997138977,16.42428547995431,21.725000381469727,17.833333269755045,1.913602841642257,1.362389961406349,NA,5.780657287100823,10.785079734301297,6.028247102925342,11.10971243738308,11.239988826746906,11.298287500499034,13.128629567641916,12.265963671763737,1.913602841642257,1.362389961406349,NA,5.780657287100823,10.785079734301297,6.028247102925342,11.10971243738308,11.239988826746906,11.298287500499034,13.128629567641916,12.265963671763737,0,0,NA,161.85840403882304,366.7749189905476,372.8031660934729,450.5711531551544,540.4910637691296,698.6670887761159,724.92434791139965,724.92434791139965,0,0,NA,0.5062678596803121,0.9610789499784771,0.6854999542236329,1,0.9776875019073487,0.9907142843518938,1,0.06666666666666667,1,1,NA,1,1,1,1,1,1,1,1,0.10979999606808027,0.07350000270775386,NA,0.5062678596803121,0.9610789499784771,0.6854999542236329,1,0.9776875019073487,0.9907142843518938,1,1,1,1,NA,1,1,1,0.9999999999999999,1,0.9999999999999999,1,1,2021-03-24T12:00:00Z,2021-04-08T12:00:00Z,NA,2021-05-06T12:00:00Z,2021-06-03T12:00:00Z,2021-06-22T12:00:00Z,2021-06-23T12:00:00Z,2021-06-30T12:00:00Z,2021-07-08T12:00:00Z,2021-07-22T12:00:00Z,2021-07-24T12:00:00Z,2021-04-07T12:00:00Z,2021-05-05T12:00:00Z,NA,2021-06-02T12:00:00Z,2021-06-21T12:00:00Z,2021-06-22T12:00:00Z,2021-06-29T12:00:00Z,2021-07-07T12:00:00Z,2021-07-21T12:00:00Z,2021-07-23T12:00:00Z,2021-08-07T12:00:00Z,83,98,NA,126,154,173,174,181,189,203,205,14,27,0,27,18,0,6,7,13,1,14,97,125,NA,153,172,173,180,188,202,204,219
372,danvers_mn,45.2803,-95.7591,-0.5,2021,11,2021,mid00,836.6332696225898,11,2021-03-24,2021-04-07,133,2021-08-18,2021-08-20,2021-09-03,Harvested at Maturity.,3.633333425348004,1.0560714327730238,1.3911904928584893,1.1937499912455678,2.2745000125840305,NA,3.4799999562757353,0.05333333214124044,1.7724999838198225,0,10.353333313514788,3.633333425348004,1.0560714327730238,1.3911904928584893,1.1937499912455678,2.2745000125840305,NA,3.4799999562757353,0.05333333214124044,1.7724999838198225,0,10.353333313514788,16.520000139872234,15.983571256910052,24.9376190276373,24.262499928474426,21.810499906539917,NA,21.301428386143275,20.131666501363117,21.83999999364217,21.9399995803833,16.82733335494995,13.862666563193004,12.93750010217939,25.575000013623917,28.772500157356262,29.51349992752075,NA,33.979999269757954,28.914999961853027,30.264166514078777,34.43000030517578,26.726666768391926,6.691333266596,6.878214344382286,18.564523849325877,22.259687542915344,23.247749900817873,NA,27.126428331647602,22.37583311398824,23.794583241144817,27.757500171661377,21.232333342234295,-0.48000003000100455,0.8189285865851811,11.554047685027832,15.746874928474426,16.98199987411499,NA,20.272857393537247,15.836666266123455,17.324999968210857,21.085000038146973,15.73799991607666,1.913602841642257,1.362389961406349,7.195956699317135,9.569377868152573,10.488336967560754,NA,12.852450760011674,11.913446390421223,13.245781336348351,14.506514706760644,9.922554257800579,1.913602841642257,1.362389961406349,7.195956699317135,9.569377868152573,10.488336967560754,NA,12.852450760011674,11.913446390421223,13.245781336348351,14.506514706760644,9.922554257800579,0,0,302.2301813713196,455.3402272617609,665.1069666129761,NA,755.0741219330578,826.5548002755851,985.5041763117654,1014.5172057252868,1014.5172057252868,0,0,0.6708452397868747,0.9341250002384186,0.9845749998092651,NA,1,1,0.996791664759318,1,0.06666666666666667,1,1,1,1,1,NA,1,1,1,1,1,0.10979999606808027,0.07350000270775386,0.6708452397868747,0.9341250002384186,0.9845749998092651,NA,1,1,0.996791664759318,1,0.9541000016530355,1,1,1,1,1,NA,0.9959186701819501,0.9999999999999999,0.9999999999999999,1,1,2021-03-24T12:00:00Z,2021-04-08T12:00:00Z,2021-05-06T12:00:00Z,2021-06-17T12:00:00Z,2021-07-03T12:00:00Z,NA,2021-07-23T12:00:00Z,2021-07-30T12:00:00Z,2021-08-05T12:00:00Z,2021-08-17T12:00:00Z,2021-08-19T12:00:00Z,2021-04-07T12:00:00Z,2021-05-05T12:00:00Z,2021-06-16T12:00:00Z,2021-07-02T12:00:00Z,2021-07-22T12:00:00Z,NA,2021-07-29T12:00:00Z,2021-08-04T12:00:00Z,2021-08-16T12:00:00Z,2021-08-18T12:00:00Z,2021-09-02T12:00:00Z,83,98,126,168,184,NA,204,211,217,229,231,14,27,41,15,19,0,6,5,11,1,14,97,125,167,183,203,NA,210,216,228,230,245
373,danvers_mn,45.2803,-95.7591,0.5,2021,11,2021,mid0,943.5447307489,11,2021-03-24,2021-04-07,136,2021-08-21,2021-08-25,2021-09-08,Harvested at Maturity.,3.633333425348004,1.0560714327730238,1.3655814114351605,2.1778947299248292,1.5847368477598618,6.71999979019165,1.5200000064713612,3.4149999668200812,0.0881818180734461,5.670000175014138,9.22133325288693,3.633333425348004,1.0560714327730238,1.3655814114351605,2.1778947299248292,1.5847368477598618,6.71999979019165,1.5200000064713612,3.4149999668200812,0.0881818180734461,5.670000175014138,9.22133325288693,16.520000139872234,15.983571256910052,24.795581374057505,23.952105170802067,22.142105152732448,20.40999984741211,20.729999814714706,16.106666564941406,24.014545440673828,19.012499809265137,16.500000127156575,13.862666563193004,12.93750010217939,25.65906979316889,29.533158051340205,29.641578674316406,34.2599983215332,30.47571427481515,30.053333282470703,31.53636360168457,28.959999561309814,24.824000295003255,6.691333266596,6.878214344382286,18.696279120176683,22.89947371733816,23.33289455112658,27.089999198913578,24.062142848968506,23.90583324432373,24.763636328957297,22.146249771118164,19.62266674041748,-0.48000003000100455,0.8189285865851811,11.73348844718448,16.265789383336116,17.024210427936755,19.920000076293945,17.64857142312186,17.758333206176758,17.990909056230024,15.332499980926514,14.421333185831706,1.913602841642257,1.362389961406349,6.647880475817595,8.696603820525489,9.984295698225676,12.200435812748744,11.267677637011634,12.896353674969482,13.354786709779107,11.70373542893827,8.70300006866455,1.913602841642257,1.362389961406349,6.647880475817595,8.696603820525489,9.984295698225676,12.200435812748744,11.267677637011634,12.896353674969482,13.354786709779107,11.70373542893827,8.70300006866455,0,0,285.85886046015656,451.09433305014096,640.7959513164287,652.9963871291775,731.8701305882587,809.2482526380757,956.150906445646,1002.9658481613992,1002.9658481613992,0,0,0.6785000016522962,0.9437368418041029,0.9845526318801077,1,1,1,0.996499997919256,0.9864999890327454,0.06666666666666667,1,1,1,1,1,1,1,1,1,1,1,0.10979999606808027,0.07350000270775386,0.6785000016522962,0.9437368418041029,0.9845526318801077,1,1,1,0.996499997919256,0.9864999890327454,0.9053333441416422,1,1,1,0.9999999999999999,0.9951369589437735,1,0.9980672816282153,0.9883455614199155,0.9999999999999999,1,1,2021-03-24T12:00:00Z,2021-04-08T12:00:00Z,2021-05-06T12:00:00Z,2021-06-18T12:00:00Z,2021-07-07T12:00:00Z,2021-07-26T12:00:00Z,2021-07-27T12:00:00Z,2021-08-03T12:00:00Z,2021-08-09T12:00:00Z,2021-08-20T12:00:00Z,2021-08-24T12:00:00Z,2021-04-07T12:00:00Z,2021-05-05T12:00:00Z,2021-06-17T12:00:00Z,2021-07-06T12:00:00Z,2021-07-25T12:00:00Z,2021-07-26T12:00:00Z,2021-08-02T12:00:00Z,2021-08-08T12:00:00Z,2021-08-19T12:00:00Z,2021-08-23T12:00:00Z,2021-09-07T12:00:00Z,83,98,126,169,188,207,208,215,221,232,236,14,27,42,18,18,0,6,5,10,3,14,97,125,168,187,206,207,214,220,231,235,250
374,danvers_mn,45.2803,-95.7591,1.5,2021,11,2021,mid1,1100.9572698662985,11,2021-03-24,2021-04-07,154,2021-09-08,2021-09-14,2021-09-28,Harvested at Maturity.,3.633333425348004,1.0560714327730238,1.3450000144254703,2.29000000520186,2.3039999736472963,1.659999966621399,0.13000000002128737,2.701666768019398,9.052499930257909,0.0016666666294137633,3.7493332882722217,3.633333425348004,1.0560714327730238,1.3450000144254703,2.29000000520186,2.3039999736472963,1.659999966621399,0.13000000002128737,2.701666768019398,9.052499930257909,0.0016666666294137633,3.7493332882722217,16.520000139872234,15.983571256910052,24.70442302410419,23.041818141937256,20.1564998626709,9.479999542236328,25.1728572845459,20.586666425069172,16.631875038146973,18.518333435058594,15.696666622161866,13.862666563193004,12.93750010217939,25.98769233776973,29.13318191875111,31.72349967956543,28.809999465942383,30.099999836512975,32.14833323160807,25.447500228881836,24.005000114440918,23.436666870117186,6.691333266596,6.878214344382286,19.062115443906244,22.946363579143178,25.054999804496767,24.164999961853027,23.397142682756698,25.533333381017048,19.970312535762787,17.88083330790202,16.75633347829183,-0.48000003000100455,0.8189285865851811,12.136538550042763,16.759545239535246,18.3864999294281,19.520000457763672,16.694285529000418,18.918333530426025,14.493124842643738,11.756666501363119,10.076000086466472,1.913602841642257,1.362389961406349,5.944300497298842,8.104320383720932,10.854488289895432,12.805426805688406,12.174486266621308,13.405707856607672,10.116981829336659,8.58407612006565,6.528303013764819,1.913602841642257,1.362389961406349,5.944300497298842,8.104320383720932,10.854488289895432,12.805426805688406,12.174486266621308,13.405707856607672,10.116981829336659,8.58407612006565,6.528303013764819,0,0,309.1036258595398,487.3986743014004,704.488440099309,717.2938669049973,802.5152707713464,882.9495179109925,1044.8212271803793,1096.3256839007731,1096.3256839007731,0,0,0.7138750014396814,0.9859772725538775,1,1,0.9944999967302595,0.9909999926884969,0.9186250090599061,0.7880833307902019,0.041866668065388996,1,1,1,1,1,1,1,1,1,1,1,0.10979999606808027,0.07350000270775386,0.7138750014396814,0.9859772725538775,1,1,0.9944999967302595,0.9909999926884969,0.9186250090599061,0.7880833307902019,0.6225000127156576,1,1,1,0.9999999999999999,0.926196048490389,1,0.7070913495699646,0.730569946211421,0.990504241809979,1,1,2021-03-24T12:00:00Z,2021-04-08T12:00:00Z,2021-05-06T12:00:00Z,2021-06-27T12:00:00Z,2021-07-19T12:00:00Z,2021-08-08T12:00:00Z,2021-08-09T12:00:00Z,2021-08-16T12:00:00Z,2021-08-22T12:00:00Z,2021-09-07T12:00:00Z,2021-09-13T12:00:00Z,2021-04-07T12:00:00Z,2021-05-05T12:00:00Z,2021-06-26T12:00:00Z,2021-07-18T12:00:00Z,2021-08-07T12:00:00Z,2021-08-08T12:00:00Z,2021-08-15T12:00:00Z,2021-08-21T12:00:00Z,2021-09-06T12:00:00Z,2021-09-12T12:00:00Z,2021-09-27T12:00:00Z,83,98,126,178,200,220,221,228,234,250,256,14,27,51,21,19,0,6,5,15,5,14,97,125,177,199,219,220,227,233,249,255,270
375,danvers_mn,45.2803,-95.7591,2.5,2021,11,2021,mid2,1348.0723374983577,11,2021-03-24,2021-04-07,172,2021-09-26,2021-10-01,2021-10-15,Harvested at Maturity.,3.633333425348004,1.0560714327730238,1.3367241475859593,2.3971999947726728,1.5004761845228216,0,7.482500251848251,11.241110830878219,2.813499966170639,0.1,4.883333497370283,3.633333425348004,1.0560714327730238,1.3367241475859593,2.3971999947726728,1.5004761845228216,0,7.482500251848251,11.241110830878219,2.813499966170639,0.1,4.883333497370283,16.520000139872234,15.983571256910052,24.751379276144093,21.95559986114502,21.00999995640346,21.969999313354492,17.891250014305115,15.194444550408258,17.095999979972838,15.402000045776367,9.75800010363261,13.862666563193004,12.93750010217939,26.45706901879146,30.472799758911133,30.394761766706193,33.540000915527344,28.333750247955322,24.5,23.596500205993653,26.168000411987304,21.728666814168292,6.691333266596,6.878214344382286,19.583879351005727,24.055199851989745,23.872142723628453,27.450000762939453,22.32875007390976,19.61888885498047,17.209500086307525,18.49000029563904,16.253333425521852,-0.48000003000100455,0.8189285865851811,12.710689683219996,17.63759994506836,17.34952368055071,21.360000610351563,16.323749899864197,14.737777709960938,10.822499966621399,10.812000179290772,10.778000036875406,1.913602841642257,1.362389961406349,5.093653366131162,7.572337936402226,10.607948555626349,14.22368381666423,11.567158935876103,9.742081197006172,8.460225693041087,9.553498762853145,5.802978876132369,1.913602841642257,1.362389961406349,5.093653366131162,7.572337936402226,10.607948555626349,14.22368381666423,11.567158935876103,9.742081197006172,8.460225693041087,9.553498762853145,5.802978876132369,0,0,295.4318952356072,484.7403436456629,707.5072633138163,721.7309471304806,814.2682186174895,901.946949390545,1071.151463251367,1118.9189570656326,1118.9189570656326,0,0,0.7434741392217834,0.9876599998474122,0.9981666655767532,1,0.9750625014305115,0.909166669845581,0.6811000072956085,0.821000018119812,0.06666666666666667,1,1,1,1,1,1,1,1,1,1,1,0.10979999606808027,0.07350000270775386,0.7434741392217834,0.9876599998474122,0.9981666655767532,1,0.9750625014305115,0.909166669845581,0.6811000072956085,0.821000018119812,0.6259333435694376,1,1,1,0.9904121991312325,0.7665741799626881,0.4862175877105705,0.8120049993905205,1,0.9999999999999999,1,1,2021-03-24T12:00:00Z,2021-04-08T12:00:00Z,2021-05-06T12:00:00Z,2021-07-03T12:00:00Z,2021-07-28T12:00:00Z,2021-08-18T12:00:00Z,2021-08-19T12:00:00Z,2021-08-27T12:00:00Z,2021-09-05T12:00:00Z,2021-09-25T12:00:00Z,2021-09-30T12:00:00Z,2021-04-07T12:00:00Z,2021-05-05T12:00:00Z,2021-07-02T12:00:00Z,2021-07-27T12:00:00Z,2021-08-17T12:00:00Z,2021-08-18T12:00:00Z,2021-08-26T12:00:00Z,2021-09-04T12:00:00Z,2021-09-24T12:00:00Z,2021-09-29T12:00:00Z,2021-10-14T12:00:00Z,83,98,126,184,209,230,231,239,248,268,273,14,27,57,24,20,0,7,8,19,4,14,97,125,183,208,229,230,238,247,267,272,287
376,danvers_mn,45.2803,-95.7591,-1.5,2022,11,2022,mid000,245.32000026466463,11,2022-04-25,2022-05-09,84,2022-08-01,2022-08-04,2022-08-18,Harvested at Maturity.,3.9413333304226397,13.77599997445941,NA,2.2076666532084346,1.893157895556406,8.3100004196167,1.260000005364418,2.04142860482846,2.729999979671377,0.9266666968663534,3.1206666860729455,3.9413333304226397,13.77599997445941,NA,2.2076666532084346,1.893157895556406,8.3100004196167,1.260000005364418,2.04142860482846,2.729999979671377,0.9266666968663534,3.1206666860729455,16.022666931152344,20.645999717712403,NA,22.02966661453247,26.312105178833008,13.300000190734863,20.155714443751744,25.517142704554967,23.97923073401818,22.996666590372723,20.497333335876466,14.436666552225748,22.76599998474121,NA,21.700666650136313,28.50000010038677,27.719999313354492,28.58714267185756,29.185714176722936,28.332307815551758,30.8766663869222,27.271999994913738,8.449666568140188,17.263000011444092,NA,15.489666669567427,22.418421168076364,21.75999975204468,23.672142846243723,23.430714334760395,22.37769240599412,23.874999682108562,21.550999927520753,2.462666584054629,11.760000038146972,NA,9.27866668899854,16.33684223576596,15.800000190734863,18.757143020629883,17.67571449279785,16.423076996436485,16.873332977294922,15.829999860127767,1.9926590648536446,7.328856793169975,NA,5.513381879693704,10.417612967753108,10.359770290635854,12.058084420726932,12.208376239280817,11.651005893670114,12.945373858650717,10.59818864629666,1.9926590648536446,7.328856793169975,NA,5.513381879693704,10.417612967753108,10.359770290635854,12.058084420726932,12.208376239280817,11.651005893670114,12.945373858650717,10.59818864629666,0,0,NA,165.40145639081112,363.3361027781201,373.69587306875593,458.1024640138445,543.56109768881,695.0241743065216,733.8602958824738,733.8602958824738,0,0,NA,0.5346999979019165,0.9827894737845974,1,1,1,0.9720000010270339,1,0.06666666666666667,1,1,NA,1,1,1,1,1,1,1,1,0.14799999078114828,0.688400011062622,NA,0.5346999979019165,0.9827894737845974,1,1,1,0.9720000010270339,1,0.9849000040690105,1,1,NA,1,1,0.9999999999999996,1,0.9999999999999999,0.9999999999999999,0.9999999999999998,1,2022-04-25T12:00:00Z,2022-05-10T12:00:00Z,NA,2022-05-15T12:00:00Z,2022-06-14T12:00:00Z,2022-07-03T12:00:00Z,2022-07-04T12:00:00Z,2022-07-11T12:00:00Z,2022-07-18T12:00:00Z,2022-07-31T12:00:00Z,2022-08-03T12:00:00Z,2022-05-09T12:00:00Z,2022-05-14T12:00:00Z,NA,2022-06-13T12:00:00Z,2022-07-02T12:00:00Z,2022-07-03T12:00:00Z,2022-07-10T12:00:00Z,2022-07-17T12:00:00Z,2022-07-30T12:00:00Z,2022-08-02T12:00:00Z,2022-08-17T12:00:00Z,115,130,NA,135,165,184,185,192,199,212,215,14,4,0,29,18,0,6,6,12,2,14,129,134,NA,164,183,184,191,198,211,214,229
377,danvers_mn,45.2803,-95.7591,-0.5,2022,11,2022,mid00,941.8489930630168,11,2022-04-25,2022-05-09,113,2022-08-30,2022-09-02,2022-09-16,Harvested at Maturity.,3.9413333304226397,13.77599997445941,2.1931111006273163,1.4900000368555386,2.7894444479089646,0,5.644285737935986,0.7942857372441462,1.6507692137876382,0,1.183999970431129,3.9413333304226397,13.77599997445941,2.1931111006273163,1.4900000368555386,2.7894444479089646,0,5.644285737935986,0.7942857372441462,1.6507692137876382,0,1.183999970431129,16.022666931152344,20.645999717712403,23.52355548010932,22.448000081380208,23.896666632758247,26.079999923706055,21.627142906188965,19.695714133126394,16.858461453364445,22.420000076293945,18.335333379109702,14.436666552225748,22.76599998474121,23.999333339267306,28.173999913533528,28.919444508022732,28.1200008392334,28.39142826625279,27.05714307512556,27.336154057429386,29.25666681925456,28.186000061035156,8.449666568140188,17.263000011444092,17.857000033722983,22.680000019073486,22.960833417044746,21.59500026702881,22.132856913975306,21.45999997002738,21.8980770111084,21.853333314259846,20.79233325322469,2.462666584054629,11.760000038146972,11.71466672817866,17.186000124613443,17.002222326066757,15.06999969482422,15.874285561697825,15.8628568649292,16.45999996478741,14.449999809265137,13.398666445414225,1.9926590648536446,7.328856793169975,6.685097652072577,10.402597388349392,11.451680018050236,11.14544812228763,11.213127899486143,11.505866926528727,11.827059844813439,11.744114793868858,9.497950395912726,1.9926590648536446,7.328856793169975,6.685097652072577,10.402597388349392,11.451680018050236,11.14544812228763,11.213127899486143,11.505866926528727,11.827059844813439,11.744114793868858,9.497950395912726,0,0,300.8293943432661,456.8683551685069,662.9985954934111,674.1440436156987,752.6359389121018,833.1770073978029,986.9287853803776,1022.1611297619842,1022.1611297619842,0,0,0.6825333319769965,1,0.9797777785195245,1,0.9676428658621652,1,0.9950384616851806,1,0.06666666666666667,1,1,1,1,1,1,1,1,1,1,1,0.14799999078114828,0.688400011062622,0.6825333319769965,1,0.9797777785195245,1,0.9676428658621652,1,0.9950384616851806,1,0.8972333272298177,1,1,1,1,0.9999999999999999,1,1,1,1,1,1,2022-04-25T12:00:00Z,2022-05-10T12:00:00Z,2022-05-15T12:00:00Z,2022-06-29T12:00:00Z,2022-07-14T12:00:00Z,2022-08-01T12:00:00Z,2022-08-02T12:00:00Z,2022-08-09T12:00:00Z,2022-08-16T12:00:00Z,2022-08-29T12:00:00Z,2022-09-01T12:00:00Z,2022-05-09T12:00:00Z,2022-05-14T12:00:00Z,2022-06-28T12:00:00Z,2022-07-13T12:00:00Z,2022-07-31T12:00:00Z,2022-08-01T12:00:00Z,2022-08-08T12:00:00Z,2022-08-15T12:00:00Z,2022-08-28T12:00:00Z,2022-08-31T12:00:00Z,2022-09-15T12:00:00Z,115,130,135,180,195,213,214,221,228,241,244,14,4,44,14,17,0,6,6,12,2,14,129,134,179,194,212,213,220,227,240,243,258
378,danvers_mn,45.2803,-95.7591,0.5,2022,11,2022,mid0,982.653528124344,11,2022-04-25,2022-05-09,116,2022-09-02,2022-09-06,2022-09-20,Harvested at Maturity.,3.9413333304226397,13.77599997445941,2.10553190484643,2.152500048512593,2.1015789411765966,NA,5.328750036191195,2.8099999675261125,0.17916666669771075,0.057500000577419996,1.4093333058059216,3.9413333304226397,13.77599997445941,2.10553190484643,2.152500048512593,2.1015789411765966,NA,5.328750036191195,2.8099999675261125,0.17916666669771075,0.057500000577419996,1.4093333058059216,16.022666931152344,20.645999717712403,23.614042505304866,22.225624918937683,24.30368423461914,NA,19.960000038146973,17.252857072012766,18.290833234786987,22.34250020980835,15.66266663869222,14.436666552225748,22.76599998474121,24.308723429416087,28.225624799728394,28.821052651656302,NA,27.523750066757202,26.012857164655415,28.210833708445232,28.71250009536743,27.600666681925457,8.449666568140188,17.263000011444092,18.088085144758224,22.944687485694885,22.657105270184967,NA,21.638125002384186,21.272142818995885,22.02416678269704,21.141249895095825,20.66566661198934,2.462666584054629,11.760000038146972,11.86744686010036,17.663750171661377,16.493157888713636,NA,15.75249993801117,16.531428473336355,15.837499856948853,13.569999694824219,13.730666542053223,1.9926590648536446,7.328856793169975,6.18054804136363,9.808442984302044,10.595928334092237,NA,11.007925451937458,11.272142818995885,11.91992688911309,11.227895084547997,9.795565467536052,1.9926590648536446,7.328856793169975,6.18054804136363,9.808442984302044,10.595928334092237,NA,11.007925451937458,11.272142818995885,11.91992688911309,11.227895084547997,9.795565467536052,0,0,290.48575794409055,447.4208456929233,648.7434840406759,NA,736.8068876561754,815.7118873891466,958.7510100585037,1003.6625903966956,1003.6625903966956,0,0,0.696042551892869,1,0.9808421059658653,NA,0.9716875076293945,0.9932142802647183,0.9985833366711935,0.9079999923706055,0.060899998346964516,1,1,1,1,1,NA,1,1,1,1,1,0.14799999078114828,0.688400011062622,0.696042551892869,1,0.9808421059658653,NA,0.9716875076293945,0.9932142802647183,0.9985833366711935,0.9079999923706055,0.9146333281199137,1,1,1,1,1,NA,0.998709791479151,1,1,0.9999999999999998,1,2022-04-25T12:00:00Z,2022-05-10T12:00:00Z,2022-05-15T12:00:00Z,2022-07-01T12:00:00Z,2022-07-17T12:00:00Z,NA,2022-08-05T12:00:00Z,2022-08-13T12:00:00Z,2022-08-20T12:00:00Z,2022-09-01T12:00:00Z,2022-09-05T12:00:00Z,2022-05-09T12:00:00Z,2022-05-14T12:00:00Z,2022-06-30T12:00:00Z,2022-07-16T12:00:00Z,2022-08-04T12:00:00Z,NA,2022-08-12T12:00:00Z,2022-08-19T12:00:00Z,2022-08-31T12:00:00Z,2022-09-04T12:00:00Z,2022-09-19T12:00:00Z,115,130,135,182,198,NA,217,225,232,244,248,14,4,46,15,18,0,7,6,11,3,14,129,134,181,197,216,NA,224,231,243,247,262
379,danvers_mn,45.2803,-95.7591,1.5,2022,11,2022,mid1,1240.6558391593355,11,2022-04-25,2022-05-09,132,2022-09-18,2022-09-23,2022-10-07,Harvested at Maturity.,3.9413333304226397,13.77599997445941,2.205185186531809,2.4605263120641836,2.4031818371943454,9.65999984741211,1.1399999976690327,0.20999999956360885,1.3286666403214136,0.29199999682605265,0.778666648765405,3.9413333304226397,13.77599997445941,2.205185186531809,2.4605263120641836,2.4031818371943454,9.65999984741211,1.1399999976690327,0.20999999956360885,1.3286666403214136,0.29199999682605265,0.778666648765405,16.022666931152344,20.645999717712403,23.183333290947807,23.66210520894904,21.842272715135053,10.539999961853027,18.13428565434047,18.69714287349156,17.272666676839194,14.75399990081787,12.77999997138977,14.436666552225748,22.76599998474121,24.662222208800138,29.23105269984195,27.614999944513496,26.18000030517578,26.60142871311733,29.79857199532645,27.656666692097982,26.473999786376954,19.367333539326985,8.449666568140188,17.263000011444092,18.638611149456764,23.50421062268709,21.584318074313078,22.30500030517578,21.295000008174352,22.89357158115932,20.48366657892863,20.028999996185302,13.933000111579895,2.462666584054629,11.760000038146972,12.615000090113393,17.777368545532227,15.55363620411266,18.43000030517578,15.988571303231376,15.988571166992188,13.310666465759278,13.584000205993652,8.498666683832804,1.9926590648536446,7.328856793169975,5.691157362539722,9.470259812426308,10.104131041598677,12.30500030517578,11.298047708625454,12.474260300211395,10.761406497571866,10.422763963820934,4.300405544466575,1.9926590648536446,7.328856793169975,5.691157362539722,9.470259812426308,10.104131041598677,12.30500030517578,11.298047708625454,12.474260300211395,10.761406497571866,10.422763963820934,4.300405544466575,0,0,307.322497577145,487.2574340132449,709.5483169284158,721.8533172335916,800.9396511939698,888.2594732954495,1049.6805707590274,1101.7943905781322,1101.7943905781322,0,0,0.7354444433141638,0.9945789487738358,0.9778409112583507,1,0.9932142802647183,0.9975714342934745,0.8972333272298177,0.8737999916076661,0.0171666685740153,1,1,1,1,1,1,1,1,1,1,1,0.14799999078114828,0.688400011062622,0.7354444433141638,0.9945789487738358,0.9778409112583507,1,0.9932142802647183,0.9975714342934745,0.8972333272298177,0.8737999916076661,0.4092666784922282,1,1,1,0.9999999999999999,0.9967560464384653,1,0.9999999999999999,0.948727279358738,1,0.9999999999999999,1,2022-04-25T12:00:00Z,2022-05-10T12:00:00Z,2022-05-15T12:00:00Z,2022-07-08T12:00:00Z,2022-07-27T12:00:00Z,2022-08-18T12:00:00Z,2022-08-19T12:00:00Z,2022-08-26T12:00:00Z,2022-09-02T12:00:00Z,2022-09-17T12:00:00Z,2022-09-22T12:00:00Z,2022-05-09T12:00:00Z,2022-05-14T12:00:00Z,2022-07-07T12:00:00Z,2022-07-26T12:00:00Z,2022-08-17T12:00:00Z,2022-08-18T12:00:00Z,2022-08-25T12:00:00Z,2022-09-01T12:00:00Z,2022-09-16T12:00:00Z,2022-09-21T12:00:00Z,2022-10-06T12:00:00Z,115,130,135,189,208,230,231,238,245,260,265,14,4,53,18,21,0,6,6,14,4,14,129,134,188,207,229,230,237,244,259,264,279
380,danvers_mn,45.2803,-95.7591,2.5,2022,11,2022,mid2,1291.920880404211,11,2022-04-25,2022-05-09,149,2022-10-05,2022-10-13,2022-10-27,Harvested at Maturity.,3.9413333304226397,13.77599997445941,1.9885245913364848,2.485909100029279,2.771818180653182,NA,0.13000000058673322,0.9375,1.144761875005705,0.20624999282881618,0.4519999988377094,3.9413333304226397,13.77599997445941,1.9885245913364848,2.485909100029279,2.771818180653182,NA,0.13000000058673322,0.9375,1.144761875005705,0.20624999282881618,0.4519999988377094,16.022666931152344,20.645999717712403,23.263606509224314,24.192727262323555,18.12045448476618,NA,20.822500109672546,17.53500008583069,13.435714233489264,13.30124980211258,10.2846666653951,14.436666552225748,22.76599998474121,25.140491782641803,29.210454507307574,26.664091110229492,NA,29.321250200271606,27.634999990463257,22.84809534890311,18.988749980926514,12.69466659228007,8.449666568140188,17.263000011444092,19.12942626095209,23.064545436338946,21.294545498761263,NA,21.976249992847443,20.445624947547913,16.744047658784048,12.406250013038516,6.564666626602412,2.462666584054629,11.760000038146972,13.118360739262378,16.91863636537032,15.924999887293035,NA,14.631249785423279,13.256249904632568,10.639999968664986,5.823750045150518,0.43466666092475253,1.9926590648536446,7.328856793169975,4.91320996062547,8.543637197347165,10.413017334508938,NA,11.86610812162906,10.542171901330352,8.333852253174781,6.628591787110316,1.4689597589753072,1.9926590648536446,7.328856793169975,4.91320996062547,8.543637197347165,10.413017334508938,NA,11.86610812162906,10.542171901330352,8.333852253174781,6.628591787110316,1.4689597589753072,0,0,299.70580759815357,487.66582593979115,716.752207298988,NA,811.6810722720204,896.0184474826633,1071.029344799334,1124.0580790962167,1124.0580790962167,0,0,0.7658032776879483,0.9834545460614291,0.9867727301337502,NA,0.9539999961853027,0.8640624940395355,0.6180952412741525,0.341375008225441,0,1,1,1,1,1,NA,1,1,1,1,1,0.14799999078114828,0.688400011062622,0.7658032776879483,0.9834545460614291,0.9867727301337502,NA,0.9539999961853027,0.8640624940395355,0.6180952412741525,0.341375008225441,0.10206666549046835,1,1,1,0.9960342290535842,0.9991026526278772,NA,0.7417720595078947,0.8698983109522311,0.9914580880567091,1,1,2022-04-25T12:00:00Z,2022-05-10T12:00:00Z,2022-05-15T12:00:00Z,2022-07-15T12:00:00Z,2022-08-06T12:00:00Z,NA,2022-08-28T12:00:00Z,2022-09-05T12:00:00Z,2022-09-13T12:00:00Z,2022-10-04T12:00:00Z,2022-10-12T12:00:00Z,2022-05-09T12:00:00Z,2022-05-14T12:00:00Z,2022-07-14T12:00:00Z,2022-08-05T12:00:00Z,2022-08-27T12:00:00Z,NA,2022-09-04T12:00:00Z,2022-09-12T12:00:00Z,2022-10-03T12:00:00Z,2022-10-11T12:00:00Z,2022-10-26T12:00:00Z,115,130,135,196,218,NA,240,248,256,277,285,14,4,60,21,21,0,7,7,20,7,14,129,134,195,217,239,NA,247,255,276,284,299
381,danvers_mn,45.2803,-95.7591,-1.5,2023,11,2023,mid000,241.34346333700296,11,2023-04-30,2023-05-14,74,2023-07-27,2023-07-30,2023-08-13,Harvested at Maturity.,2.095333314066132,0.07833333499729633,NA,0.7606666594743728,3.0023809480702592,0.33000001311302185,1.874285771378449,2.1399999832113585,1.6099999704613135,4.60666670401891,2.6166666828095915,2.095333314066132,0.07833333499729633,NA,0.7606666594743728,3.0023809480702592,0.33000001311302185,1.874285771378449,2.1399999832113585,1.6099999704613135,4.60666670401891,2.6166666828095915,20.588666470845542,23.09666649500529,NA,25.729333368937176,23.31476202465239,26.670000076293945,24.247142791748047,22.85666667090522,22.634615384615383,23.400000254313152,21.40999984741211,20.990000343322755,23.399999936421715,NA,28.39933344523112,27.82857150123233,27.520000457763672,29.74428585597447,26.08333312140571,29.720769295325645,33.68000030517578,28.846666844685874,14.264000185330708,15.341666579246521,NA,21.521333249409995,21.688333420526412,21.420000076293945,23.795714378356934,19.689444330003525,22.67076928798969,27.119999885559082,22.951666831970215,7.538000027338664,7.28333322207133,NA,14.643333053588867,15.548095339820499,15.31999969482422,17.847142900739396,13.295555538601345,15.620769280653734,20.559999465942383,17.05666681925456,5.268788170733799,5.969026370329658,NA,10.386998055490098,10.053903443716322,9.928641241150226,11.899095062916228,9.012705010271324,11.237518411478984,14.21676047212407,11.950819146861235,5.268788170733799,5.969026370329658,NA,10.386998055490098,10.053903443716322,9.928641241150226,11.899095062916228,9.012705010271324,11.237518411478984,14.21676047212407,11.950819146861235,0,0,NA,155.80497083235147,366.93694315039426,376.8655843915445,460.1592498319581,541.2735949243998,687.3613342736268,730.011615689999,730.011615689999,0,0,NA,0.962699998219808,0.9651190530686151,1,1,0.8819999906751845,0.9788076950953557,1,0.06666666666666667,1,1,NA,1,1,1,1,1,1,1,1,0.49253334840138757,0.5341666579246521,NA,0.962699998219808,0.9651190530686151,1,1,0.8819999906751845,0.9788076950953557,1,1,1,1,NA,0.9984529504367864,1,0.9999999999999998,0.9999999999999999,1,1,1,1,2023-04-30T12:00:00Z,2023-05-15T12:00:00Z,NA,2023-05-21T12:00:00Z,2023-06-05T12:00:00Z,2023-06-26T12:00:00Z,2023-06-27T12:00:00Z,2023-07-04T12:00:00Z,2023-07-13T12:00:00Z,2023-07-26T12:00:00Z,2023-07-29T12:00:00Z,2023-05-14T12:00:00Z,2023-05-20T12:00:00Z,NA,2023-06-04T12:00:00Z,2023-06-25T12:00:00Z,2023-06-26T12:00:00Z,2023-07-03T12:00:00Z,2023-07-12T12:00:00Z,2023-07-25T12:00:00Z,2023-07-28T12:00:00Z,2023-08-12T12:00:00Z,120,135,NA,141,156,177,178,185,194,207,210,14,5,0,14,20,0,6,8,12,2,14,134,140,NA,155,176,177,184,193,206,209,224
382,danvers_mn,45.2803,-95.7591,-0.5,2023,11,2023,mid00,904.8265153404064,11,2023-04-30,2023-05-14,103,2023-08-25,2023-08-27,2023-09-10,Harvested at Maturity.,2.095333314066132,0.07833333499729633,1.6424999982700683,3.040000011377475,1.9573684023006965,NA,1.8485714614923512,0.9149999916553497,4.610000048497958,0.04499999899417162,0.26533333733677866,2.095333314066132,0.07833333499729633,1.6424999982700683,3.040000011377475,1.9573684023006965,NA,1.8485714614923512,0.9149999916553497,4.610000048497958,0.04499999899417162,0.26533333733677866,20.588666470845542,23.09666649500529,24.909375071525574,22.752941075493307,22.98631597820081,NA,23.72857121058873,18.99333318074544,20.468571390424458,21.34500026702881,17.738666820526124,20.990000343322755,23.399999936421715,28.135937571525574,27.713529474595013,29.705263137817383,NA,30.707143238612584,27.701666831970215,27.972857066563197,31.83000087738037,30.5646666208903,14.264000185330708,15.341666579246521,21.483749970793724,22.03029422199025,22.73210523003026,NA,24.315000193459646,22.30583349863688,21.958571434020996,25.915000438690186,23.20366668701172,7.538000027338664,7.28333322207133,14.831562370061874,16.347058969385483,15.758947322243138,NA,17.92285714830671,16.91000016530355,15.944285801478795,20,15.842666753133138,5.268788170733799,5.969026370329658,9.414910321961333,9.705975493549424,10.490707870969098,NA,13.09835707295255,12.230898340547261,11.367957728805287,15.043518716245892,10.745805619644722,5.268788170733799,5.969026370329658,9.414910321961333,9.705975493549424,10.490707870969098,NA,13.09835707295255,12.230898340547261,11.367957728805287,15.043518716245892,10.745805619644722,0,0,301.27713030276266,466.278713693103,665.6021632415157,NA,757.2906627521834,830.676052795467,989.8274609987408,1019.9144984312328,1019.9144984312328,0,0,0.9596250027418136,0.9565294097451603,0.9684999992972926,NA,1,1,0.9608214276177542,1,0.06666666666666667,1,1,1,1,1,NA,1,1,1,1,1,0.49253334840138757,0.5341666579246521,0.9596250027418136,0.9565294097451603,0.9684999992972926,NA,1,1,0.9608214276177542,1,0.9511333306630453,1,1,0.9998892508810213,1,0.9960849653846641,NA,0.9999999999999999,1,1,1,1,2023-04-30T12:00:00Z,2023-05-15T12:00:00Z,2023-05-21T12:00:00Z,2023-06-22T12:00:00Z,2023-07-09T12:00:00Z,NA,2023-07-28T12:00:00Z,2023-08-04T12:00:00Z,2023-08-10T12:00:00Z,2023-08-24T12:00:00Z,2023-08-26T12:00:00Z,2023-05-14T12:00:00Z,2023-05-20T12:00:00Z,2023-06-21T12:00:00Z,2023-07-08T12:00:00Z,2023-07-27T12:00:00Z,NA,2023-08-03T12:00:00Z,2023-08-09T12:00:00Z,2023-08-23T12:00:00Z,2023-08-25T12:00:00Z,2023-09-09T12:00:00Z,120,135,141,173,190,NA,209,216,222,236,238,14,5,31,16,18,0,6,5,13,1,14,134,140,172,189,208,NA,215,221,235,237,252
383,danvers_mn,45.2803,-95.7591,0.5,2023,11,2023,mid0,996.1508689272588,11,2023-04-30,2023-05-14,107,2023-08-29,2023-08-31,2023-09-14,Harvested at Maturity.,2.095333314066132,0.07833333499729633,1.7652941101285464,2.481578964151834,1.8894736709955489,NA,2.1414285911513224,9.460000099082079,0.03384615380603533,0,0.3173333382854859,2.095333314066132,0.07833333499729633,1.7652941101285464,2.481578964151834,1.8894736709955489,NA,2.1414285911513224,9.460000099082079,0.03384615380603533,0,0.3173333382854859,20.588666470845542,23.09666649500529,24.72411772784065,23.00210526115016,23.002105311343545,NA,20.6257141658238,19.432856968470983,20.908461497380184,21.050000190734863,17.114000097910562,20.990000343322755,23.399999936421715,28.178529458887436,27.515789533916273,30.253684395237972,NA,29.22428594316755,26.22857121058873,29.30307696415828,30.545000076293945,29.032666651407876,14.264000185330708,15.341666579246521,21.658088221269495,21.42605267072979,23.3481579830772,NA,23.82714298793248,20.89714288711548,22.815000020540676,22.94000005722046,21.92500006357829,7.538000027338664,7.28333322207133,15.137646983651553,15.336315807543302,16.442631570916426,NA,18.430000032697407,15.56571456364223,16.326923076923077,15.335000038146973,14.817333475748699,5.268788170733799,5.969026370329658,8.634373059889194,8.417478274164248,10.4312797193899,NA,12.46413775568661,10.761862379005233,12.073709846301721,12.807208482453229,9.400701236000062,5.268788170733799,5.969026370329658,8.634373059889194,8.417478274164248,10.4312797193899,NA,12.46413775568661,10.761862379005233,12.073709846301721,12.807208482453229,9.400701236000062,0,0,293.56868403623247,453.5007712453532,651.6950859137612,NA,738.9440502035675,814.2770868566041,971.2353148585264,996.8497318234328,996.8497318234328,0,0,0.9620000025805305,0.9441052587408768,0.9855000019073487,NA,1,0.9475714274815151,0.98126922754141,1,0.06666666666666667,1,1,1,1,1,NA,1,1,1,1,1,0.49253334840138757,0.5341666579246521,0.9620000025805305,0.9441052587408768,0.9855000019073487,NA,1,0.9475714274815151,0.98126922754141,1,0.8636333370208741,1,1,0.9998976819713419,0.9999999999999999,0.9915048464539827,NA,0.9881657452225612,0.9938067030100857,0.9999999999999999,1,1,2023-04-30T12:00:00Z,2023-05-15T12:00:00Z,2023-05-21T12:00:00Z,2023-06-24T12:00:00Z,2023-07-13T12:00:00Z,NA,2023-08-01T12:00:00Z,2023-08-08T12:00:00Z,2023-08-15T12:00:00Z,2023-08-28T12:00:00Z,2023-08-30T12:00:00Z,2023-05-14T12:00:00Z,2023-05-20T12:00:00Z,2023-06-23T12:00:00Z,2023-07-12T12:00:00Z,2023-07-31T12:00:00Z,NA,2023-08-07T12:00:00Z,2023-08-14T12:00:00Z,2023-08-27T12:00:00Z,2023-08-29T12:00:00Z,2023-09-13T12:00:00Z,120,135,141,175,194,NA,213,220,227,240,242,14,5,33,18,18,0,6,6,12,1,14,134,140,174,193,212,NA,219,226,239,241,256
384,danvers_mn,45.2803,-95.7591,1.5,2023,11,2023,mid1,1296.7327931247416,11,2023-04-30,2023-05-14,122,2023-09-13,2023-09-19,2023-10-03,Harvested at Maturity.,2.095333314066132,0.07833333499729633,2.069512203199471,1.304782596781202,3.3154999988153575,29.860000610351563,1.6649999998044223,0.06166666684051354,0.2926666706800461,1.1983333689471085,3.451999953885873,2.095333314066132,0.07833333499729633,2.069512203199471,1.304782596781202,3.3154999988153575,29.860000610351563,1.6649999998044223,0.06166666684051354,0.2926666706800461,1.1983333689471085,3.451999953885873,20.588666470845542,23.09666649500529,24.26048785884206,23.033478239308234,21.94049997329712,9.979999542236328,21.742500066757202,19.956666628519695,17.42666680018107,16.923333485921223,10.840666739145915,20.990000343322755,23.399999936421715,28.117317153186335,28.027826060419496,30.176500225067137,19.209999084472656,27.228749990463257,31.130000114440918,30.221333312988282,23.706666946411133,25.972000122070313,14.264000185330708,15.341666579246521,21.73817076334139,21.46239125210306,23.94625015258789,17.549999713897705,20.912500023841858,24.679166714350384,22.924333381652833,16.945000092188515,20.524000072479247,7.538000027338664,7.28333322207133,15.359024373496451,14.896956443786621,17.716000080108643,15.890000343322754,14.596250057220459,18.228333314259846,15.627333450317384,10.1833332379659,15.076000022888184,5.268788170733799,5.969026370329658,7.513201973907002,7.755164982745206,11.10610152619261,7.2170156825321135,10.849822628561885,13.057842231070996,11.405771200095813,8.212105035895108,9.856843052566846,5.268788170733799,5.969026370329658,7.513201973907002,7.755164982745206,11.10610152619261,7.2170156825321135,10.849822628561885,13.057842231070996,11.405771200095813,8.212105035895108,9.856843052566846,0,0,308.04128093018704,486.41007553332673,708.5321060571787,715.7491217397107,802.5477027682058,880.8947561546318,1051.981324156069,1101.2539543714397,1101.2539543714397,0,0,0.9684878070180009,0.9418478240137514,1,0.7549999713897706,0.9620625019073487,0.9896666606267294,0.924366668065389,0.6942500034968059,0.05683333079020182,1,1,1,1,1,1,1,1,1,1,1,0.49253334840138757,0.5341666579246521,0.9684878070180009,0.9418478240137514,1,0.7549999713897706,0.9620625019073487,0.9896666606267294,0.924366668065389,0.6942500034968059,0.9144000053405762,1,1,0.999920077542776,0.9998065381375015,0.9503922244407407,1,0.9999999999999999,0.9804022137846522,0.990059114615674,1,1,2023-04-30T12:00:00Z,2023-05-15T12:00:00Z,2023-05-21T12:00:00Z,2023-07-01T12:00:00Z,2023-07-24T12:00:00Z,2023-08-13T12:00:00Z,2023-08-14T12:00:00Z,2023-08-22T12:00:00Z,2023-08-28T12:00:00Z,2023-09-12T12:00:00Z,2023-09-18T12:00:00Z,2023-05-14T12:00:00Z,2023-05-20T12:00:00Z,2023-06-30T12:00:00Z,2023-07-23T12:00:00Z,2023-08-12T12:00:00Z,2023-08-13T12:00:00Z,2023-08-21T12:00:00Z,2023-08-27T12:00:00Z,2023-09-11T12:00:00Z,2023-09-17T12:00:00Z,2023-10-02T12:00:00Z,120,135,141,182,205,225,226,234,240,255,261,14,5,40,22,19,0,7,5,14,5,14,134,140,181,204,224,225,233,239,254,260,275
385,danvers_mn,45.2803,-95.7591,2.5,2023,11,2023,mid2,1276.2945537760168,11,2023-04-30,2023-05-14,136,2023-09-27,2023-10-02,2023-10-16,Harvested at Maturity.,2.095333314066132,0.07833333499729633,2.127346941593046,1.9654166594458122,3.3177273034710777,0.02999999932944774,0.041428571833031516,0.36000000525798115,2.493333329136173,3.0019999206066132,4.564666638274987,2.095333314066132,0.07833333499729633,2.127346941593046,1.9654166594458122,3.3177273034710777,0.02999999932944774,0.041428571833031516,0.36000000525798115,2.493333329136173,3.0019999206066132,4.564666638274987,20.588666470845542,23.09666649500529,24.161224501473562,23.05708344777425,20.454090811989524,20.520000457763672,20.045714242117747,17.465714590890066,14.04833337995741,7.85,11.296000115076701,20.990000343322755,23.399999936421715,27.98938782361089,29.768333435058594,28.306363625959918,32.58000183105469,29.215714318411692,32.6742856161935,25.137222290039063,23.972000122070313,17.239999993642172,14.264000185330708,15.341666579246521,21.67336736406599,22.869375030199688,22.47750004855069,27.105000495910645,22.2421430179051,25.01071425846645,18.925833384195965,18.991000175476074,11.894333286086718,7.538000027338664,7.28333322207133,15.357346904521085,15.97041662534078,16.64863647114147,21.6299991607666,15.268571717398506,17.347142900739396,12.714444478352865,14.010000228881836,6.548666578531265,5.268788170733799,5.969026370329658,6.066623208549835,7.8133122172791785,10.436129710306634,15.624287845194342,12.222572071667228,11.55052657495056,9.505853638784421,9.10002774443984,2.920537831704269,5.268788170733799,5.969026370329658,6.066623208549835,7.8133122172791785,10.436129710306634,15.624287845194342,12.222572071667228,11.55052657495056,9.505853638784421,9.10002774443984,2.920537831704269,0,0,297.26453721894194,484.7840304336422,714.378884060388,730.0031719055823,815.5611764072529,896.4148624319068,1067.5202279300263,1113.0203666522257,1113.0203666522257,0,0,0.9585510214980768,0.97506249944369,0.9750681812112981,1,0.991142851965768,0.9041428565979004,0.8333333359824286,0.8836000156402588,0.06666666666666667,1,1,1,1,1,1,1,1,1,1,1,0.49253334840138757,0.5341666579246521,0.9585510214980768,0.97506249944369,0.9750681812112981,1,0.991142851965768,0.9041428565979004,0.8333333359824286,0.8836000156402588,0.24463333447774252,1,1,0.9999360273849804,0.9899390693159753,0.9409486775028391,0.8536150521897595,0.7404458368588486,0.6720278938285441,0.9843099790781045,1,1,2023-04-30T12:00:00Z,2023-05-15T12:00:00Z,2023-05-21T12:00:00Z,2023-07-09T12:00:00Z,2023-08-02T12:00:00Z,2023-08-24T12:00:00Z,2023-08-25T12:00:00Z,2023-09-01T12:00:00Z,2023-09-08T12:00:00Z,2023-09-26T12:00:00Z,2023-10-01T12:00:00Z,2023-05-14T12:00:00Z,2023-05-20T12:00:00Z,2023-07-08T12:00:00Z,2023-08-01T12:00:00Z,2023-08-23T12:00:00Z,2023-08-24T12:00:00Z,2023-08-31T12:00:00Z,2023-09-07T12:00:00Z,2023-09-25T12:00:00Z,2023-09-30T12:00:00Z,2023-10-15T12:00:00Z,120,135,141,190,214,236,237,244,251,269,274,14,5,48,23,21,0,6,6,17,4,14,134,140,189,213,235,236,243,250,268,273,288
386,morris_mn,45.3552,-95.5436,-1.5,2017,12,2017,mid000,255.52957363031615,11,2017-05-03,2017-05-17,84,2017-08-09,2017-08-13,2017-08-27,Harvested at Maturity.,2.401333294187983,2.838333339430392,NA,2.6405882473815887,1.8883333418828745,0.1599999964237213,2.47571433867727,2.002857158226626,3.2021429167528237,2.640000114683062,8.121999882161617,2.401333294187983,2.838333339430392,NA,2.6405882473815887,1.8883333418828745,0.1599999964237213,2.47571433867727,2.002857158226626,3.2021429167528237,2.640000114683062,8.121999882161617,21.99333324432373,16.99666663010915,NA,25.29705877865062,23.15791658560435,28.360000610351563,23.578571319580078,21.250000272478378,21.977857181004115,18.707499980926514,15.022000058492024,23.07399991353353,17.089999953905743,NA,27.6158826491412,25.9975000222524,30.479999542236328,30.26571355547224,29.71285683768136,27.310714176722936,24.862500190734863,23.811999893188478,15.759999950726828,12.085416664679846,NA,20.69529426799101,19.744791666666668,23.954999923706055,23.198571068899973,23.326428277151926,21.47321425165449,19.87749993801117,18.896666622161867,8.445999987920125,7.080833375453949,NA,13.77470588684082,13.492083311080933,17.43000030517578,16.131428582327707,16.939999716622488,15.635714326586042,14.892499685287476,13.981333351135254,6.242620034710864,3.2261193106470007,NA,9.429991478209706,8.350024494464053,12.513533414915631,11.02701648380183,12.264343381289256,11.504417733147147,9.934765907865762,8.208333269755046,6.242620034710864,3.2261193106470007,NA,9.429991478209706,8.350024494464053,12.513533414915631,11.02701648380183,12.264343381289256,11.504417733147147,9.934765907865762,8.208333269755046,0,0,NA,160.309855129565,360.71044299670234,373.223976411618,450.4130917982308,536.2634954672557,697.3253437313157,737.0644073627788,737.0644073627788,0,0,NA,0.9089117639205035,0.8435416678587596,1,0.9671428612300328,1,0.9028214284351894,0.9753749966621399,0.06666666666666667,1,1,NA,1,1,1,1,1,1,1,1,0.5715666619936626,0.2747499982515971,NA,0.9089117639205035,0.8435416678587596,1,0.9671428612300328,1,0.9028214284351894,0.9753749966621399,0.8871999899546306,1,1,NA,1,1,1,1,1,1,1,1,2017-05-03T12:00:00Z,2017-05-18T12:00:00Z,NA,2017-05-30T12:00:00Z,2017-06-16T12:00:00Z,2017-07-10T12:00:00Z,2017-07-11T12:00:00Z,2017-07-18T12:00:00Z,2017-07-25T12:00:00Z,2017-08-08T12:00:00Z,2017-08-12T12:00:00Z,2017-05-17T12:00:00Z,2017-05-29T12:00:00Z,NA,2017-06-15T12:00:00Z,2017-07-09T12:00:00Z,2017-07-10T12:00:00Z,2017-07-17T12:00:00Z,2017-07-24T12:00:00Z,2017-08-07T12:00:00Z,2017-08-11T12:00:00Z,2017-08-26T12:00:00Z,123,138,NA,150,167,191,192,199,206,220,224,14,11,0,16,23,0,6,6,13,3,14,137,149,NA,166,190,191,198,205,219,223,238
387,morris_mn,45.3552,-95.5436,-0.5,2017,12,2017,mid00,813.8385986611661,11,2017-05-03,2017-05-17,120,2017-09-14,2017-09-17,2017-10-01,Harvested at Maturity.,2.401333294187983,2.838333339430392,2.231315798273212,2.1564286053180695,2.7147368900477886,8.3100004196167,12.122499857097864,3.0099999349978237,0.2782352893229793,2.8866666158040366,4.767333348592122,2.401333294187983,2.838333339430392,2.231315798273212,2.1564286053180695,2.7147368900477886,8.3100004196167,12.122499857097864,3.0099999349978237,0.2782352893229793,2.8866666158040366,4.767333348592122,21.99333324432373,16.99666663010915,23.98552626057675,23.29785714830671,22.234736894306383,9.850000381469728,15.112500250339508,16.113333225250244,18.634117631351245,12.416666348775228,12.385333251953124,23.07399991353353,17.089999953905743,26.375000150580156,30.43714223589216,27.640526319804945,23.65999984741211,23.796249866485596,23.905555513170032,24.905294193941003,29.60333315531413,21.261333338419597,15.759999950726828,12.085416664679846,19.880131646206504,23.42464256286621,21.727631543812,20.229999542236328,19.451249957084656,18.539444393581814,18.410294154111078,23.289999961853027,15.491333357493083,8.445999987920125,7.080833375453949,13.385263141832853,16.41214288984026,15.814736767819053,16.799999237060547,15.106250047683716,13.173333273993599,11.91529411428115,16.976666768391926,9.72133337656657,6.242620034710864,3.2261193106470007,7.9490861103022015,10.820196655685164,10.98026216244196,10.22999954223633,9.457832220891119,8.963115881619851,9.195494343473632,13.180752722477914,5.552166917988459,6.242620034710864,3.2261193106470007,7.9490861103022015,10.820196655685164,10.98026216244196,10.22999954223633,9.457832220891119,8.963115881619851,9.195494343473632,13.180752722477914,5.552166917988459,0,0,302.06527219148364,453.5480253710758,662.1730064574729,672.4030059997092,748.0656637668382,828.7337067014168,985.0571105404688,1024.5993687079024,1024.5993687079024,0,0,0.8604342109278629,0.9835714306150164,0.9283947367417185,1,0.941062492132187,0.8534444332122804,0.7869999983731438,1,0.02883333206176758,1,1,1,1,1,1,1,1,1,1,1,0.5715666619936626,0.2747499982515971,0.8604342109278629,0.9835714306150164,0.9283947367417185,1,0.941062492132187,0.8534444332122804,0.7869999983731438,1,0.5110666688283285,1,1,1,1,1,1,1,0.9999999999999999,0.9999999999999999,1,1,2017-05-03T12:00:00Z,2017-05-18T12:00:00Z,2017-05-30T12:00:00Z,2017-07-07T12:00:00Z,2017-07-21T12:00:00Z,2017-08-09T12:00:00Z,2017-08-10T12:00:00Z,2017-08-18T12:00:00Z,2017-08-27T12:00:00Z,2017-09-13T12:00:00Z,2017-09-16T12:00:00Z,2017-05-17T12:00:00Z,2017-05-29T12:00:00Z,2017-07-06T12:00:00Z,2017-07-20T12:00:00Z,2017-08-08T12:00:00Z,2017-08-09T12:00:00Z,2017-08-17T12:00:00Z,2017-08-26T12:00:00Z,2017-09-12T12:00:00Z,2017-09-15T12:00:00Z,2017-09-30T12:00:00Z,123,138,150,188,202,221,222,230,239,256,259,14,11,37,13,18,0,7,8,16,2,14,137,149,187,201,220,221,229,238,255,258,273
388,morris_mn,45.3552,-95.5436,0.5,2017,12,2017,mid0,897.3091639956516,11,2017-05-03,2017-05-17,123,2017-09-17,2017-09-21,2017-10-05,Harvested at Maturity.,2.401333294187983,2.838333339430392,2.1197500083595515,2.3720000351468724,3.283000069670379,34.66999816894531,7.241250072605908,2.271111044825779,0.8287499855505303,2.4799999743700027,7.675999971230825,2.401333294187983,2.838333339430392,2.1197500083595515,2.3720000351468724,3.283000069670379,34.66999816894531,7.241250072605908,2.271111044825779,0.8287499855505303,2.4799999743700027,7.675999971230825,21.99333324432373,16.99666663010915,24.23649995326996,22.354000091552734,21.427000045776367,7.510000228881836,13.802500188350677,18.627777682410347,16.936874866485596,10.557499885559082,11.923333263397216,23.07399991353353,17.089999953905743,26.547000122070312,30.228666178385417,26.811999988555907,21,24.25124979019165,24.420000076293945,25.53624999523163,21.480000019073486,20.064000002543132,15.759999950726828,12.085416664679846,20.027625060081483,23.517666371663413,21.095749974250793,18.21500015258789,19.48124986886978,18.52944448259142,19.07125000655651,15.62625002861023,14.68166667620341,8.445999987920125,7.080833375453949,13.508249998092651,16.806666564941406,15.37949995994568,15.43000030517578,14.711249947547913,12.63888888888889,12.606250017881393,9.772500038146973,9.299333349863687,6.242620034710864,3.2261193106470007,7.287443740696585,10.179372473432986,10.079585433567907,8.21500015258789,9.55613513762355,9.036124381811751,9.804197616607697,7.292491945654153,4.746267010957599,6.242620034710864,3.2261193106470007,7.287443740696585,10.179372473432986,10.079585433567907,8.21500015258789,9.55613513762355,9.036124381811751,9.804197616607697,7.292491945654153,4.746267010957599,0,0,291.4977496278634,444.188336729358,645.7800454007161,653.995045553304,730.4441266542924,811.7692460905981,968.6364079563214,997.806375738938,997.806375738938,0,0,0.8674125003814698,0.9846666685740153,0.9270499992370606,0.8215000152587891,0.9475624799728394,0.8397777822282579,0.7954374954104424,0.562625002861023,0.042599999109903974,1,1,1,1,1,1,1,1,1,1,1,0.5715666619936626,0.2747499982515971,0.8674125003814698,0.9846666685740153,0.9270499992370606,0.8215000152587891,0.9475624799728394,0.8397777822282579,0.7954374954104424,0.562625002861023,0.43616666634877527,1,1,1,0.9999999999999999,0.9999999999999999,1,1,0.9999999999999999,0.9999999999999999,1,1,2017-05-03T12:00:00Z,2017-05-18T12:00:00Z,2017-05-30T12:00:00Z,2017-07-09T12:00:00Z,2017-07-24T12:00:00Z,2017-08-13T12:00:00Z,2017-08-14T12:00:00Z,2017-08-22T12:00:00Z,2017-08-31T12:00:00Z,2017-09-16T12:00:00Z,2017-09-20T12:00:00Z,2017-05-17T12:00:00Z,2017-05-29T12:00:00Z,2017-07-08T12:00:00Z,2017-07-23T12:00:00Z,2017-08-12T12:00:00Z,2017-08-13T12:00:00Z,2017-08-21T12:00:00Z,2017-08-30T12:00:00Z,2017-09-15T12:00:00Z,2017-09-19T12:00:00Z,2017-10-04T12:00:00Z,123,138,150,190,205,225,226,234,243,259,263,14,11,39,14,19,0,7,8,15,3,14,137,149,189,204,224,225,233,242,258,262,277
389,morris_mn,45.3552,-95.5436,1.5,2017,12,2017,mid1,1137.2707534469648,11,2017-05-03,2017-05-17,146,2017-10-10,2017-10-19,2017-11-02,Harvested at Maturity.,2.401333294187983,2.838333339430392,2.1463043589306916,1.728333363102542,6.267407383769751,NA,0.3909999946132302,1.169999977806583,5.493478237205873,1.7399999998095963,0.3360000000645717,2.401333294187983,2.838333339430392,2.1463043589306916,1.728333363102542,6.267407383769751,NA,0.3909999946132302,1.169999977806583,5.493478237205873,1.7399999998095963,0.3360000000645717,21.99333324432373,16.99666663010915,23.758695581684943,23.58166684044732,16.95407411787245,NA,18.826000118255614,15.811249613761902,11.312173874481864,11.847777843475342,8.32533327738444,23.07399991353353,17.089999953905743,26.86543485392695,30.498888545566135,23.95777772974085,NA,24.05399990081787,27.84125018119812,19.955217402914297,15.019999821980795,11.233999900023143,15.759999950726828,12.085416664679846,20.352065262587175,23.948055293824936,18.82574070824517,NA,17.75299999713898,21.083750069141388,14.448695680369502,8.386111023111477,5.966333290934562,8.445999987920125,7.080833375453949,13.8386956712474,17.39722204208374,13.693703686749494,NA,11.452000093460082,14.326249957084656,8.942173957824707,1.7522222242421575,0.6986666818459829,6.242620034710864,3.2261193106470007,6.534083388268937,10.238553442389714,8.405369519662221,NA,8.685557868056298,11.414821202859283,6.882162600547982,5.413827410571733,1.3299316189543406,6.242620034710864,3.2261193106470007,6.534083388268937,10.238553442389714,8.405369519662221,NA,8.685557868056298,11.414821202859283,6.882162600547982,5.413827410571733,1.3299316189543406,0,0,300.567835860371,484.8617978233858,711.8067748542658,NA,798.6623535348288,889.980923157703,1048.2706629703068,1096.9951096654524,1096.9951096654524,0,0,0.8797065226928048,1,0.8708703641538267,NA,0.74724999666214,0.9052500009536744,0.42778261018835984,0.08472221957312691,0.01203333059946696,1,1,1,1,1,NA,1,1,1,1,1,0.5715666619936626,0.2747499982515971,0.8797065226928048,1,0.8708703641538267,NA,0.74724999666214,0.9052500009536744,0.42778261018835984,0.08472221957312691,0.1091333293914795,1,1,1,0.9999999999999999,0.9999999999999999,NA,0.9999999999999999,1,1,1,1,2017-05-03T12:00:00Z,2017-05-18T12:00:00Z,2017-05-30T12:00:00Z,2017-07-15T12:00:00Z,2017-08-02T12:00:00Z,NA,2017-08-29T12:00:00Z,2017-09-08T12:00:00Z,2017-09-16T12:00:00Z,2017-10-09T12:00:00Z,2017-10-18T12:00:00Z,2017-05-17T12:00:00Z,2017-05-29T12:00:00Z,2017-07-14T12:00:00Z,2017-08-01T12:00:00Z,2017-08-28T12:00:00Z,NA,2017-09-07T12:00:00Z,2017-09-15T12:00:00Z,2017-10-08T12:00:00Z,2017-10-17T12:00:00Z,2017-11-01T12:00:00Z,123,138,150,196,214,NA,241,251,259,282,291,14,11,45,17,26,0,9,7,22,8,14,137,149,195,213,240,NA,250,258,281,290,305
390,morris_mn,45.3552,-95.5436,2.5,2017,12,2017,mid2,1134.2437506801446,11,2017-05-03,2017-05-17,169,2017-11-02,2017-11-13,2017-11-27,Harvested at Maturity.,2.401333294187983,2.838333339430392,2.211153861708366,4.404999983962625,2.9632142823455587,NA,2.0644444160991244,7.050833399097125,1.7323332918807863,0.6745454719798132,0.10466666556894778,2.401333294187983,2.838333339430392,2.211153861708366,4.404999983962625,2.9632142823455587,NA,2.0644444160991244,7.050833399097125,1.7323332918807863,0.6745454719798132,0.10466666556894778,21.99333324432373,16.99666663010915,23.800384576504047,20.96666677792867,16.99142857960292,NA,12.836666425069174,12.247499942779541,9.989000002543131,5.4490909359671855,5.488666661580404,23.07399991353353,17.089999953905743,27.468653788933388,26.840833346048992,24.069999967302596,NA,26.03666665818956,21.159166653951008,13.978333240747451,0.5272727463055741,3.3653333318730194,15.759999950726828,12.085416664679846,20.834423046845657,21.275416632493336,18.330892826829636,NA,19.66611115137736,15.492916663487753,8.276166636869311,-3.093181826004928,-0.7093333332488934,8.445999987920125,7.080833375453949,14.200192304757925,15.709999918937683,12.59178568635668,NA,13.295555644565159,9.826666673024494,2.574000032991171,-6.71363639831543,-4.783999998370806,6.242620034710864,3.2261193106470007,5.600436333555098,8.300271839320622,8.192068110555615,NA,10.347988557642699,7.535074344733357,5.492130482805161,5,0,6.242620034710864,3.2261193106470007,5.600436333555098,8.300271839320622,8.192068110555615,NA,10.347988557642699,7.535074344733357,5.492130482805161,5,0,0,0,291.2226893448652,490.42921348856,719.8071205841173,NA,812.9390176029016,903.3599097397018,1068.123824223857,1123.123824223857,1123.123824223857,0,0,0.8935865393051734,0.9317708333333333,0.8166249930858612,NA,0.8056111123826769,0.5017083326975504,0.13224999825159708,0,0,1,1,1,1,1,NA,1,1,1,1,1,0.5715666619936626,0.2747499982515971,0.8935865393051734,0.9317708333333333,0.8166249930858612,NA,0.8056111123826769,0.5017083326975504,0.13224999825159708,0,0,1,1,1,1,0.9999999999999999,NA,1,0.9999999999999999,0.9999999999999999,1,1,2017-05-03T12:00:00Z,2017-05-18T12:00:00Z,2017-05-30T12:00:00Z,2017-07-21T12:00:00Z,2017-08-14T12:00:00Z,NA,2017-09-11T12:00:00Z,2017-09-20T12:00:00Z,2017-10-02T12:00:00Z,2017-11-01T12:00:00Z,2017-11-12T12:00:00Z,2017-05-17T12:00:00Z,2017-05-29T12:00:00Z,2017-07-20T12:00:00Z,2017-08-13T12:00:00Z,2017-09-10T12:00:00Z,NA,2017-09-19T12:00:00Z,2017-10-01T12:00:00Z,2017-10-31T12:00:00Z,2017-11-11T12:00:00Z,2017-11-26T12:00:00Z,123,138,150,202,226,NA,254,263,275,305,316,14,11,51,23,27,0,8,11,29,10,14,137,149,201,225,253,NA,262,274,304,315,330
396,morris_mn,45.3552,-95.5436,-1.5,2019,12,2019,mid000,225.47799305013336,11,2019-05-04,2019-05-18,84,2019-08-10,2019-08-14,2019-08-28,Harvested at Maturity.,4.259999989594022,3.589090879667889,NA,2.2168181585147977,4.571904801719246,0.12999999523162842,2.1466666838775077,1.3014285905020577,3.2378572337329388,5.547500252723694,4.142666607225935,4.259999989594022,3.589090879667889,NA,2.2168181585147977,4.571904801719246,0.12999999523162842,2.1466666838775077,1.3014285905020577,3.2378572337329388,5.547500252723694,4.142666607225935,20.599999936421714,17.83999980579723,NA,23.654090881347656,20.103809538341704,24.88999938964844,23.366666793823242,22.145714078630718,22.530714307512557,14.477500319480896,19.719999853769938,16.659999942779542,17.985454559326172,NA,24.808181849392977,25.84238097781227,28.920000076293945,29.483333269755047,26.842857360839844,26.344999858311244,25.297499656677246,24.335333379109702,10.374666647116344,12.175909058614211,NA,18.54045457189733,21.089523769560316,23.020000457763672,24.703333377838135,21.404285839625768,20.937499897820608,20.271249771118164,18.869666639963786,4.089333351453146,6.3663635579022495,NA,12.272727294401689,16.336666561308363,17.1200008392334,19.923333485921223,15.96571431841169,15.529999937329974,15.244999885559082,13.40399990081787,2.482402871447305,3.2786434377098628,NA,7.524815957894169,9.747911898485834,11.791655464466729,13.395131695573042,10.779306638646306,11.04032049853488,10.342090111033619,8.179333273569743,2.482402871447305,3.2786434377098628,NA,7.524815957894169,9.747911898485834,11.791655464466729,13.395131695573042,10.779306638646306,11.04032049853488,10.342090111033619,8.179333273569743,0,0,NA,165.5459510736717,370.25210094187423,382.04375640634095,462.41454657977926,537.8696930503033,692.4341800297916,733.8025404739261,733.8025404739261,0,0,NA,0.7812272732908075,0.9698095208122617,1,1,0.9774285725184849,0.9299285650253296,0.9546249985694886,0.06666666666666667,1,1,NA,1,1,1,1,1,1,1,1,0.155099995136261,0.25909090475602586,NA,0.7812272732908075,0.9698095208122617,1,1,0.9774285725184849,0.9299285650253296,0.9546249985694886,0.8710666688283285,1,1,NA,1,0.9999999999999999,0.9999999999999998,1,0.9999999999999999,0.9999999999999999,1,1,2019-05-04T12:00:00Z,2019-05-19T12:00:00Z,NA,2019-05-30T12:00:00Z,2019-06-21T12:00:00Z,2019-07-12T12:00:00Z,2019-07-13T12:00:00Z,2019-07-19T12:00:00Z,2019-07-26T12:00:00Z,2019-08-09T12:00:00Z,2019-08-13T12:00:00Z,2019-05-18T12:00:00Z,2019-05-29T12:00:00Z,NA,2019-06-20T12:00:00Z,2019-07-11T12:00:00Z,2019-07-12T12:00:00Z,2019-07-18T12:00:00Z,2019-07-25T12:00:00Z,2019-08-08T12:00:00Z,2019-08-12T12:00:00Z,2019-08-27T12:00:00Z,124,139,NA,150,172,193,194,200,207,221,225,14,10,0,21,20,0,5,6,13,3,14,138,149,NA,171,192,193,199,206,220,224,239
397,morris_mn,45.3552,-95.5436,-0.5,2019,12,2019,mid00,876.8031224956653,11,2019-05-04,2019-05-18,123,2019-09-18,2019-09-21,2019-10-05,Harvested at Maturity.,4.259999989594022,3.589090879667889,3.450526314199363,2.286000040421883,3.4125001151114702,NA,4.869999936316162,2.3939999608322977,5.096315851238997,6.339999834696452,2.1106666793425877,4.259999989594022,3.589090879667889,3.450526314199363,2.286000040421883,3.4125001151114702,NA,4.869999936316162,2.3939999608322977,5.096315851238997,6.339999834696452,2.1106666793425877,20.599999936421714,17.83999980579723,21.830526301735325,21.987333297729492,22.30400002002716,NA,20.18624985218048,18.88200001716614,14.230000069266872,16.839999834696453,9.82799989382426,16.659999942779542,17.985454559326172,25.154736920406943,28.03466657002767,26.12249994277954,NA,25.41499972343445,23.719000244140624,22.886315897891397,27.079999923706055,18.897333335876464,10.374666647116344,12.175909058614211,19.55078950053767,23.112333329518634,20.67674994468689,NA,19.980624794960022,18.221000099182127,17.125,22.488333225250244,13.477666647235553,4.089333351453146,6.3663635579022495,13.946842080668398,18.1900000890096,15.230999946594238,NA,14.546249866485596,12.722999954223633,11.363684102108603,17.896666526794434,8.05799995859464,2.482402871447305,3.2786434377098628,7.784282771170519,11.174603222497266,10.19293645695761,NA,10.093660729487986,8.727754193342328,8.099665132526662,12.488333225250244,3.6514432072043173,2.482402871447305,3.2786434377098628,7.784282771170519,11.174603222497266,10.19293645695761,NA,10.093660729487986,8.727754193342328,8.099665132526662,12.488333225250244,3.6514432072043173,0,0,295.8027453044797,463.42179364193873,667.2805227810909,NA,748.029808616995,835.3073505504182,989.2009880684247,1026.6659877441757,1026.6659877441757,0,0,0.8571315784203379,0.9987999979654948,0.9339749956130982,NA,0.9487499952316284,0.8087000131607056,0.7005526341890034,1,0.06666666666666667,1,1,1,1,1,NA,1,1,1,1,1,0.155099995136261,0.25909090475602586,0.8571315784203379,0.9987999979654948,0.9339749956130982,NA,0.9487499952316284,0.8087000131607056,0.7005526341890034,1,0.3877666680018107,1,1,1,1,0.9999999999999999,NA,0.9999999999999999,1,0.9999999999999999,0.9999999999999999,1,2019-05-04T12:00:00Z,2019-05-19T12:00:00Z,2019-05-30T12:00:00Z,2019-07-07T12:00:00Z,2019-07-22T12:00:00Z,NA,2019-08-11T12:00:00Z,2019-08-19T12:00:00Z,2019-08-29T12:00:00Z,2019-09-17T12:00:00Z,2019-09-20T12:00:00Z,2019-05-18T12:00:00Z,2019-05-29T12:00:00Z,2019-07-06T12:00:00Z,2019-07-21T12:00:00Z,2019-08-10T12:00:00Z,NA,2019-08-18T12:00:00Z,2019-08-28T12:00:00Z,2019-09-16T12:00:00Z,2019-09-19T12:00:00Z,2019-10-04T12:00:00Z,124,139,150,188,203,NA,223,231,241,260,263,14,10,37,14,19,0,7,9,18,2,14,138,149,187,202,222,NA,230,240,259,262,277
398,morris_mn,45.3552,-95.5436,0.5,2019,12,2019,mid0,948.5939972231856,11,2019-05-04,2019-05-18,125,2019-09-20,2019-09-24,2019-10-08,Harvested at Maturity.,4.259999989594022,3.589090879667889,3.364999998966232,1.9256250367034229,3.521000112965703,0.05000000074505806,4.515555516299274,2.3388888316435943,6.75529415806865,0.929999977350235,3.1453334028522173,4.259999989594022,3.589090879667889,3.364999998966232,1.9256250367034229,3.521000112965703,0.05000000074505806,4.515555516299274,2.3388888316435943,6.75529415806865,0.929999977350235,3.1453334028522173,20.599999936421714,17.83999980579723,22.11749997138977,22.28250002861023,20.59600007534027,19.549999237060547,22.54555532667372,16.357777966393364,13.804117623497458,13.737499713897705,9.552666616439819,16.659999942779542,17.985454559326172,25.253750038146972,27.7931250333786,26.098499870300294,24.690000534057617,25.235555436876083,22.18777804904514,23.54176476422478,25.490000247955322,17.135333315531412,10.374666647116344,12.175909058614211,19.678875011205673,22.615312546491623,20.870249915122987,18.820000171661377,18.983333163791233,17.33000013563368,17.956470545600443,20.05625009536743,11.645333320895832,4.089333351453146,6.3663635579022495,14.103999984264373,17.437500059604645,15.641999959945679,12.949999809265137,12.731110890706379,12.472222222222221,12.371176326976103,14.622499942779541,6.155333326260249,2.482402871447305,3.2786434377098628,7.120872268761134,9.995693884180328,10.056920218518048,8.820000171661377,9.39659825732112,7.988476998975543,8.811352291101217,10.359010618126392,2.5187774185756595,2.482402871447305,3.2786434377098628,7.120872268761134,9.995693884180328,10.056920218518048,8.820000171661377,9.39659825732112,7.988476998975543,8.811352291101217,10.359010618126392,2.5187774185756595,0,0,284.83489075044525,444.76599289733053,645.9043972676915,654.7243974393529,739.293781755243,811.1900747460229,960.9830636947436,1002.4191061672492,1002.4191061672492,0,0,0.864274999499321,0.9889999985694885,0.9418749952316284,0.8820000171661377,0.8757777743869357,0.7330000135633681,0.7427352961371927,0.8820000052452087,0.04430000305175782,1,1,1,1,1,1,1,1,1,1,1,0.155099995136261,0.25909090475602586,0.864274999499321,0.9889999985694885,0.9418749952316284,0.8820000171661377,0.8757777743869357,0.7330000135633681,0.7427352961371927,0.8820000052452087,0.23420000235239666,1,1,0.9999999999999999,1,1,1,1,0.9999999999999999,0.9999999999999999,1,1,2019-05-04T12:00:00Z,2019-05-19T12:00:00Z,2019-05-30T12:00:00Z,2019-07-09T12:00:00Z,2019-07-25T12:00:00Z,2019-08-14T12:00:00Z,2019-08-15T12:00:00Z,2019-08-24T12:00:00Z,2019-09-02T12:00:00Z,2019-09-19T12:00:00Z,2019-09-23T12:00:00Z,2019-05-18T12:00:00Z,2019-05-29T12:00:00Z,2019-07-08T12:00:00Z,2019-07-24T12:00:00Z,2019-08-13T12:00:00Z,2019-08-14T12:00:00Z,2019-08-23T12:00:00Z,2019-09-01T12:00:00Z,2019-09-18T12:00:00Z,2019-09-22T12:00:00Z,2019-10-07T12:00:00Z,124,139,150,190,206,226,227,236,245,262,266,14,10,39,15,19,0,8,8,16,3,14,138,149,189,205,225,226,235,244,261,265,280
399,morris_mn,45.3552,-95.5436,1.5,2019,12,2019,mid1,1147.0717644137446,11,2019-05-04,2019-05-18,152,2019-10-17,2019-10-26,2019-11-09,Harvested at Maturity.,4.259999989594022,3.589090879667889,3.2668085185850555,2.8705000741407276,3.4244000036269426,0.1599999964237213,4.697999926283956,7.616666824660368,2.662307742983103,4.151111191966468,0.0720000001291434,4.259999989594022,3.589090879667889,3.2668085185850555,2.8705000741407276,3.4244000036269426,0.1599999964237213,4.697999926283956,7.616666824660368,2.662307742983103,4.151111191966468,0.0720000001291434,20.599999936421714,17.83999980579723,22.085106342396838,22.091499996185302,19.97520004272461,17.735000133514404,13.855000162124634,13.713333129882813,9.551538421557499,9.068888876173231,8.197999954223633,16.659999942779542,17.985454559326172,25.665106428430434,26.85999994277954,24.706399993896486,21.119999885559082,22.960000228881835,24.71999994913737,16.085000056486862,12.070000012715656,3.8939999779065446,10.374666647116344,12.175909058614211,20.17340427256645,21.671999955177306,19.20879997253418,15.652499914169312,17.36150007247925,19.034999900394016,10.850576927813773,6.330555539992121,-0.6846666673819224,4.089333351453146,6.3663635579022495,14.681702116702466,16.483999967575073,13.711199951171874,10.184999942779541,11.76299991607666,13.349999851650661,5.616153799140682,0.5911110672685835,-5.263333312670389,2.482402871447305,3.2786434377098628,6.540956524474438,9.019621561762325,8.84896358052503,5.735620526301862,8.172642607523203,9.783201660975482,6.314988015358724,5.1665563425410745,0.08372948068877063,2.482402871447305,3.2786434377098628,6.540956524474438,9.019621561762325,8.84896358052503,5.735620526301862,8.172642607523203,9.783201660975482,6.314988015358724,5.1665563425410745,0.08372948068877063,0,0,307.42495665029855,487.81738788554503,709.0414773986707,720.5127184512745,802.2391445265066,890.287959475286,1054.4776478746128,1100.9766549574824,1100.9766549574824,0,0,0.8841063819033035,0.9556499981880188,0.8761600017547607,0.5652499914169312,0.7300000095367432,0.8021666632758246,0.271192309489617,0.03477777904934354,0,1,1,1,1,1,1,1,1,1,1,1,0.155099995136261,0.25909090475602586,0.8841063819033035,0.9556499981880188,0.8761600017547607,0.5652499914169312,0.7300000095367432,0.8021666632758246,0.271192309489617,0.03477777904934354,0,1,1,1,1,1,1,0.9999999999999999,1,0.9999999999999999,1,1,2019-05-04T12:00:00Z,2019-05-19T12:00:00Z,2019-05-30T12:00:00Z,2019-07-16T12:00:00Z,2019-08-05T12:00:00Z,2019-08-30T12:00:00Z,2019-09-01T12:00:00Z,2019-09-11T12:00:00Z,2019-09-20T12:00:00Z,2019-10-16T12:00:00Z,2019-10-25T12:00:00Z,2019-05-18T12:00:00Z,2019-05-29T12:00:00Z,2019-07-15T12:00:00Z,2019-08-04T12:00:00Z,2019-08-29T12:00:00Z,2019-08-31T12:00:00Z,2019-09-10T12:00:00Z,2019-09-19T12:00:00Z,2019-10-15T12:00:00Z,2019-10-24T12:00:00Z,2019-11-08T12:00:00Z,124,139,150,197,217,242,244,254,263,289,298,14,10,46,19,24,1,9,8,25,8,14,138,149,196,216,241,243,253,262,288,297,312
400,morris_mn,45.3552,-95.5436,2.5,2019,12,2019,mid2,1143.6643498794967,11,2019-05-04,2019-05-18,176,2019-11-10,2019-11-21,2019-12-05,Harvested at Maturity.,4.259999989594022,3.589090879667889,3.120943406526491,3.0617392286658287,5.0422580734255815,0.1599999964237213,2.9787499320227653,3.1453334028522173,1.7737500342191197,0.479090913283554,0.8973333321511745,4.259999989594022,3.589090879667889,3.120943406526491,3.0617392286658287,5.0422580734255815,0.1599999964237213,2.9787499320227653,3.1453334028522173,1.7737500342191197,0.479090913283554,0.8973333321511745,20.599999936421714,17.83999980579723,21.87490564022424,21.46826095166414,16.85516126694218,15.670000076293944,15.139999747276306,9.552666616439819,8.557812497019768,5.2163636901161885,4.137333329518636,16.659999942779542,17.985454559326172,25.969811349544884,26.104782519133195,23.173225895051033,23.75,26.443750143051147,17.135333315531412,7.911875018849969,1.27727274461226,1.775333328048388,10.374666647116344,12.175909058614211,20.558773603079455,20.729999936145283,17.65661290384108,15.96999979019165,20.974999964237213,11.645333320895832,2.9579687507939525,-2.9322727051648227,-1.9353333378831545,4.089333351453146,6.3663635579022495,15.147735856614023,15.355217353157375,12.139999912631128,8.1899995803833,15.506249785423279,6.155333326260249,-1.995937517262064,-7.141818154941906,-5.646000003814697,2.482402871447305,3.2786434377098628,5.640591837476309,8.114157696473574,7.519188555334694,6.150783387768268,11.215230433969946,5.972027541434765,5.1691325042538985,5,0,2.482402871447305,3.2786434377098628,5.640591837476309,8.114157696473574,7.519188555334694,6.150783387768268,11.215230433969946,5.972027541434765,5.1691325042538985,5,0,0,0,298.95136738624433,485.5769944051365,718.6718396205121,724.8226230082803,814.5444664800399,904.1248796015614,1069.537119737686,1124.537119737686,1124.537119737686,0,0,0.8972264141406653,0.9425869527070418,0.7571290369956725,0.596999979019165,0.9309375047683716,0.23420000235239666,0.041343750059604646,0,0,1,1,1,1,1,1,1,1,1,1,1,0.155099995136261,0.25909090475602586,0.8972264141406653,0.9425869527070418,0.7571290369956725,0.596999979019165,0.9309375047683716,0.23420000235239666,0.041343750059604646,0,0,1,1,1,0.9999999999999999,1,1,0.9999999999999999,0.9999999999999999,0.9999999999999999,1,1,2019-05-04T12:00:00Z,2019-05-19T12:00:00Z,2019-05-30T12:00:00Z,2019-07-22T12:00:00Z,2019-08-14T12:00:00Z,2019-09-14T12:00:00Z,2019-09-15T12:00:00Z,2019-09-23T12:00:00Z,2019-10-08T12:00:00Z,2019-11-09T12:00:00Z,2019-11-20T12:00:00Z,2019-05-18T12:00:00Z,2019-05-29T12:00:00Z,2019-07-21T12:00:00Z,2019-08-13T12:00:00Z,2019-09-13T12:00:00Z,2019-09-14T12:00:00Z,2019-09-22T12:00:00Z,2019-10-07T12:00:00Z,2019-11-08T12:00:00Z,2019-11-19T12:00:00Z,2019-12-04T12:00:00Z,124,139,150,203,226,257,258,266,281,313,324,14,10,52,22,30,0,7,14,31,10,14,138,149,202,225,256,257,265,280,312,323,338
406,morris_mn,45.3552,-95.5436,-1.5,2021,12,2021,mid000,240.3527637963873,11,2021-03-24,2021-04-07,107,2021-07-23,2021-07-26,2021-08-09,Harvested at Maturity.,3.633333425348004,1.0560714327730238,NA,1.233214317222259,1.6394736771716882,0,1.6928571159286159,2.821250000037253,1.4735714492521115,3.1466666062672934,2.525999975701173,3.633333425348004,1.0560714327730238,NA,1.233214317222259,1.6394736771716882,0,1.6928571159286159,2.821250000037253,1.4735714492521115,3.1466666062672934,2.525999975701173,16.520000139872234,15.983571256910052,NA,23.47607135772705,26.547368451168662,31.06999969482422,22.872857093811035,23.703749895095825,22.115714277539936,21.543333053588867,19.157999801635743,13.862666563193004,12.93750010217939,NA,21.831428630011423,31.346315785458213,25.299999237060547,29.31142861502511,31.350000381469727,28.6878570829119,34.73999913533529,30.771999740600585,6.691333266596,6.878214344382286,NA,15.120714365172066,24.10578948573062,16.854999542236328,23.089999948229107,24.69000017642975,22.556071281433105,27.888333002726238,24.2979998588562,-0.48000003000100455,0.8189285865851811,NA,8.410000100332711,16.865263186003034,8.40999984741211,16.868571281433105,18.02999997138977,16.42428547995431,21.036666870117188,17.823999977111818,1.913602841642257,1.362389961406349,NA,5.773853605519558,10.768993961063797,6.019016779486608,11.092902051729803,11.22370542344534,11.284025672469497,13.46024124111763,12.310959365941683,1.913602841642257,1.362389961406349,NA,5.773853605519558,10.768993961063797,6.019016779486608,11.092902051729803,11.22370542344534,11.284025672469497,13.46024124111763,12.310959365941683,0,0,NA,161.6679009545476,366.2787862147598,372.2978029942464,449.94811735635494,539.7377607439176,697.7141201584906,738.0948438818434,738.0948438818434,0,0,NA,0.5062678596803121,0.9610789499784771,0.6854999542236329,1,0.9776875019073487,0.9907142843518938,1,0.06666666666666667,1,1,NA,1,1,1,1,1,1,1,1,0.10979999606808027,0.07350000270775386,NA,0.5062678596803121,0.9610789499784771,0.6854999542236329,1,0.9776875019073487,0.9907142843518938,1,1,1,1,NA,1,1,1,0.9999999999999999,1,1,1,1,2021-03-24T12:00:00Z,2021-04-08T12:00:00Z,NA,2021-05-06T12:00:00Z,2021-06-03T12:00:00Z,2021-06-22T12:00:00Z,2021-06-23T12:00:00Z,2021-06-30T12:00:00Z,2021-07-08T12:00:00Z,2021-07-22T12:00:00Z,2021-07-25T12:00:00Z,2021-04-07T12:00:00Z,2021-05-05T12:00:00Z,NA,2021-06-02T12:00:00Z,2021-06-21T12:00:00Z,2021-06-22T12:00:00Z,2021-06-29T12:00:00Z,2021-07-07T12:00:00Z,2021-07-21T12:00:00Z,2021-07-24T12:00:00Z,2021-08-08T12:00:00Z,83,98,NA,126,154,173,174,181,189,203,206,14,27,0,27,18,0,6,7,13,2,14,97,125,NA,153,172,173,180,188,202,205,220
407,morris_mn,45.3552,-95.5436,-0.5,2021,12,2021,mid00,837.1221565176008,11,2021-03-24,2021-04-07,133,2021-08-18,2021-08-21,2021-09-04,Harvested at Maturity.,3.633333425348004,1.0560714327730238,1.3911904928584893,1.1937499912455678,2.2745000125840305,NA,3.4799999562757353,0.05333333214124044,1.7724999838198225,0.019999999552965164,10.730666632950307,3.633333425348004,1.0560714327730238,1.3911904928584893,1.1937499912455678,2.2745000125840305,NA,3.4799999562757353,0.05333333214124044,1.7724999838198225,0.019999999552965164,10.730666632950307,16.520000139872234,15.983571256910052,24.9376190276373,24.262499928474426,21.810499906539917,NA,21.301428386143275,20.131666501363117,21.83999999364217,21.516666412353516,15.862000020345052,13.862666563193004,12.93750010217939,25.575000013623917,28.772500157356262,29.51349992752075,NA,33.979999269757954,28.914999961853027,30.264166514078777,34.390000661214195,25.924000040690103,6.691333266596,6.878214344382286,18.564523849325877,22.259687542915344,23.247749900817873,NA,27.126428331647602,22.37583311398824,23.794583241144817,27.740000406901043,20.624999968210854,-0.48000003000100455,0.8189285865851811,11.554047685027832,15.746874928474426,16.98199987411499,NA,20.272857393537247,15.836666266123455,17.324999968210857,21.09000015258789,15.325999895731607,1.913602841642257,1.362389961406349,7.183841963750724,9.551015624445752,10.47131288464674,NA,12.835873161813959,11.900299200671373,13.243481246513817,14.52817160407702,9.578508412398497,1.913602841642257,1.362389961406349,7.183841963750724,9.551015624445752,10.47131288464674,NA,12.835873161813959,11.900299200671373,13.243481246513817,14.52817160407702,9.578508412398497,0,0,301.7213624775304,454.5376124686625,663.9638701615974,NA,753.814982294295,825.2167774983232,984.138552456489,1027.72306726872,1027.72306726872,0,0,0.6708452397868747,0.9341250002384186,0.9845749998092651,NA,1,1,0.996791664759318,1,0.06666666666666667,1,1,1,1,1,NA,1,1,1,1,1,0.10979999606808027,0.07350000270775386,0.6708452397868747,0.9341250002384186,0.9845749998092651,NA,1,1,0.996791664759318,1,0.9447333367665609,1,1,1,1,1,NA,0.9999999999999999,1,1,0.9999999999999999,1,2021-03-24T12:00:00Z,2021-04-08T12:00:00Z,2021-05-06T12:00:00Z,2021-06-17T12:00:00Z,2021-07-03T12:00:00Z,NA,2021-07-23T12:00:00Z,2021-07-30T12:00:00Z,2021-08-05T12:00:00Z,2021-08-17T12:00:00Z,2021-08-20T12:00:00Z,2021-04-07T12:00:00Z,2021-05-05T12:00:00Z,2021-06-16T12:00:00Z,2021-07-02T12:00:00Z,2021-07-22T12:00:00Z,NA,2021-07-29T12:00:00Z,2021-08-04T12:00:00Z,2021-08-16T12:00:00Z,2021-08-19T12:00:00Z,2021-09-03T12:00:00Z,83,98,126,168,184,NA,204,211,217,229,232,14,27,41,15,19,0,6,5,11,2,14,97,125,167,183,203,NA,210,216,228,231,246
408,morris_mn,45.3552,-95.5436,0.5,2021,12,2021,mid0,947.00763913723,11,2021-03-24,2021-04-07,137,2021-08-22,2021-08-25,2021-09-08,Harvested at Maturity.,3.633333425348004,1.0560714327730238,1.3655814114351605,2.1778947299248292,1.5847368477598618,6.71999979019165,1.5200000064713612,3.4149999668200812,1.4233333840966225,2.1900000299016638,9.22133325288693,3.633333425348004,1.0560714327730238,1.3655814114351605,2.1778947299248292,1.5847368477598618,6.71999979019165,1.5200000064713612,3.4149999668200812,1.4233333840966225,2.1900000299016638,9.22133325288693,16.520000139872234,15.983571256910052,24.795581374057505,23.952105170802067,22.142105152732448,20.40999984741211,20.729999814714706,16.106666564941406,23.230000019073486,20.483332951863606,16.500000127156575,13.862666563193004,12.93750010217939,25.65906979316889,29.533158051340205,29.641578674316406,34.2599983215332,30.47571427481515,30.053333282470703,31.635833263397217,27.703332901000977,24.824000295003255,6.691333266596,6.878214344382286,18.696279120176683,22.89947371733816,23.33289455112658,27.089999198913578,24.062142848968506,23.90583324432373,24.793333292007446,21.15499973297119,19.62266674041748,-0.48000003000100455,0.8189285865851811,11.73348844718448,16.265789383336116,17.024210427936755,19.920000076293945,17.64857142312186,17.758333206176758,17.950833320617676,14.606666564941406,14.421333185831706,1.913602841642257,1.362389961406349,6.6333357388382925,8.675061982918953,9.964711467672325,12.18058744628982,11.25101356394107,12.880493763313261,13.384019696906075,11.019751255897681,8.70300006866455,1.913602841642257,1.362389961406349,6.6333357388382925,8.675061982918953,9.964711467672325,12.18058744628982,11.25101356394107,12.880493763313261,13.384019696906075,11.019751255897681,8.70300006866455,0,0,285.2334367700466,450.05961444550655,639.3891323312806,651.5697197775704,730.326814725158,807.6097773050375,968.2180136679106,1001.2772674356036,1001.2772674356036,0,0,0.6785000016522962,0.9437368418041029,0.9845526318801077,1,1,1,0.996791664759318,0.9819999853769938,0.06666666666666667,1,1,1,1,1,1,1,1,1,1,1,0.10979999606808027,0.07350000270775386,0.6785000016522962,0.9437368418041029,0.9845526318801077,1,1,1,0.996791664759318,0.9819999853769938,0.9053333441416422,1,1,1,1,0.9999999999999999,1,1,1,1,1,1,2021-03-24T12:00:00Z,2021-04-08T12:00:00Z,2021-05-06T12:00:00Z,2021-06-18T12:00:00Z,2021-07-07T12:00:00Z,2021-07-26T12:00:00Z,2021-07-27T12:00:00Z,2021-08-03T12:00:00Z,2021-08-09T12:00:00Z,2021-08-21T12:00:00Z,2021-08-24T12:00:00Z,2021-04-07T12:00:00Z,2021-05-05T12:00:00Z,2021-06-17T12:00:00Z,2021-07-06T12:00:00Z,2021-07-25T12:00:00Z,2021-07-26T12:00:00Z,2021-08-02T12:00:00Z,2021-08-08T12:00:00Z,2021-08-20T12:00:00Z,2021-08-23T12:00:00Z,2021-09-07T12:00:00Z,83,98,126,169,188,207,208,215,221,233,236,14,27,42,18,18,0,6,5,11,2,14,97,125,168,187,206,207,214,220,232,235,250
409,morris_mn,45.3552,-95.5436,1.5,2021,12,2021,mid1,1298.690340674774,11,2021-03-24,2021-04-07,155,2021-09-09,2021-09-14,2021-09-28,Harvested at Maturity.,3.633333425348004,1.0560714327730238,1.3450000144254703,2.29000000520186,2.3039999736472963,1.659999966621399,0.13000000002128737,2.701666768019398,8.520588169641355,0,3.7493332882722217,3.633333425348004,1.0560714327730238,1.3450000144254703,2.29000000520186,2.3039999736472963,1.659999966621399,0.13000000002128737,2.701666768019398,8.520588169641355,0,3.7493332882722217,16.520000139872234,15.983571256910052,24.70442302410419,23.041818141937256,20.1564998626709,9.479999542236328,25.1728572845459,20.586666425069172,16.940000085269705,17.84799995422363,15.696666622161866,13.862666563193004,12.93750010217939,25.98769233776973,29.13318191875111,31.72349967956543,28.809999465942383,30.099999836512975,32.14833323160807,25.382941414328183,23.936000061035156,23.436666870117186,6.691333266596,6.878214344382286,19.062115443906244,22.946363579143178,25.054999804496767,24.164999961853027,23.397142682756698,25.533333381017048,19.90264710258035,17.692999935150148,16.75633347829183,-0.48000003000100455,0.8189285865851811,12.136538550042763,16.759545239535246,18.3864999294281,19.520000457763672,16.694285529000418,18.918333530426025,14.42235279083252,11.449999809265137,10.076000086466472,1.913602841642257,1.362389961406349,5.926322271051834,8.079805491904215,10.833233168729677,12.787180665620808,12.159346382526962,13.400905497862857,10.054474952544535,8.490018359304667,6.528303013764819,1.913602841642257,1.362389961406349,5.926322271051834,8.079805491904215,10.833233168729677,12.787180665620808,12.159346382526962,13.400905497862857,10.054474952544535,8.490018359304667,6.528303013764819,0,0,308.1687580946954,485.92447891658816,702.5891422911816,715.3763229568024,800.491747634491,880.8971806216683,1051.8232548149256,1094.273346611449,1094.273346611449,0,0,0.7138750014396814,0.9859772725538775,1,1,0.9944999967302595,0.9909999926884969,0.9164705977720373,0.7692999935150147,0.041866668065388996,1,1,1,1,1,1,1,1,1,1,1,0.10979999606808027,0.07350000270775386,0.7138750014396814,0.9859772725538775,1,1,0.9944999967302595,0.9909999926884969,0.9164705977720373,0.7692999935150147,0.6225000127156576,1,1,1,1,1,1,1,1,1,1,1,2021-03-24T12:00:00Z,2021-04-08T12:00:00Z,2021-05-06T12:00:00Z,2021-06-27T12:00:00Z,2021-07-19T12:00:00Z,2021-08-08T12:00:00Z,2021-08-09T12:00:00Z,2021-08-16T12:00:00Z,2021-08-22T12:00:00Z,2021-09-08T12:00:00Z,2021-09-13T12:00:00Z,2021-04-07T12:00:00Z,2021-05-05T12:00:00Z,2021-06-26T12:00:00Z,2021-07-18T12:00:00Z,2021-08-07T12:00:00Z,2021-08-08T12:00:00Z,2021-08-15T12:00:00Z,2021-08-21T12:00:00Z,2021-09-07T12:00:00Z,2021-09-12T12:00:00Z,2021-09-27T12:00:00Z,83,98,126,178,200,220,221,228,234,251,256,14,27,51,21,19,0,6,5,16,4,14,97,125,177,199,219,220,227,233,250,255,270
410,morris_mn,45.3552,-95.5436,2.5,2021,12,2021,mid2,1530.4216503600107,11,2021-03-24,2021-04-07,172,2021-09-26,2021-10-01,2021-10-15,Harvested at Maturity.,3.633333425348004,1.0560714327730238,1.3367241475859593,2.3971999947726728,1.4322727215899662,NA,7.482500251848251,11.241110830878219,2.813499966170639,0.1,4.883333497370283,3.633333425348004,1.0560714327730238,1.3367241475859593,2.3971999947726728,1.4322727215899662,NA,7.482500251848251,11.241110830878219,2.813499966170639,0.1,4.883333497370283,16.520000139872234,15.983571256910052,24.751379276144093,21.95559986114502,21.053636290810324,NA,17.891250014305115,15.194444550408258,17.095999979972838,15.402000045776367,9.75800010363261,13.862666563193004,12.93750010217939,26.45706901879146,30.472799758911133,30.5377271825617,NA,28.333750247955322,24.5,23.596500205993653,26.168000411987304,21.728666814168292,6.691333266596,6.878214344382286,19.583879351005727,24.055199851989745,24.034772634506226,NA,22.32875007390976,19.61888885498047,17.209500086307525,18.49000029563904,16.253333425521852,-0.48000003000100455,0.8189285865851811,12.710689683219996,17.63759994506836,17.531818086450752,NA,16.323749899864197,14.737777709960938,10.822499966621399,10.812000179290772,10.778000036875406,1.913602841642257,1.362389961406349,5.07166053467003,7.545265971636474,10.75272167674691,NA,11.56074118166104,9.742081197006172,8.460225693041087,9.553498762853145,5.802978876132369,1.913602841642257,1.362389961406349,5.07166053467003,7.545265971636474,10.75272167674691,NA,11.56074118166104,9.742081197006172,8.460225693041087,9.553498762853145,5.802978876132369,0,0,294.1563110108618,482.7879603017738,719.347837190206,NA,811.8337666434943,899.5124974165498,1068.7170112773715,1116.4845050916374,1116.4845050916374,0,0,0.7434741392217834,0.9876599998474122,0.9982499989596281,NA,0.9750625014305115,0.909166669845581,0.6811000072956085,0.821000018119812,0.06666666666666667,1,1,1,1,1,NA,1,1,1,1,1,0.10979999606808027,0.07350000270775386,0.7434741392217834,0.9876599998474122,0.9982499989596281,NA,0.9750625014305115,0.909166669845581,0.6811000072956085,0.821000018119812,0.6259333435694376,1,1,1,0.9999999999999999,0.9862349550757663,NA,0.9882624865240749,1,1,0.9999999999999999,1,2021-03-24T12:00:00Z,2021-04-08T12:00:00Z,2021-05-06T12:00:00Z,2021-07-03T12:00:00Z,2021-07-28T12:00:00Z,NA,2021-08-19T12:00:00Z,2021-08-27T12:00:00Z,2021-09-05T12:00:00Z,2021-09-25T12:00:00Z,2021-09-30T12:00:00Z,2021-04-07T12:00:00Z,2021-05-05T12:00:00Z,2021-07-02T12:00:00Z,2021-07-27T12:00:00Z,2021-08-18T12:00:00Z,NA,2021-08-26T12:00:00Z,2021-09-04T12:00:00Z,2021-09-24T12:00:00Z,2021-09-29T12:00:00Z,2021-10-14T12:00:00Z,83,98,126,184,209,NA,231,239,248,268,273,14,27,57,24,21,0,7,8,19,4,14,97,125,183,208,230,NA,238,247,267,272,287
411,morris_mn,45.3552,-95.5436,-1.5,2022,12,2022,mid000,233.8652153036153,11,2022-04-25,2022-05-09,84,2022-08-01,2022-08-04,2022-08-18,Harvested at Maturity.,3.9413333304226397,13.77599997445941,NA,2.2076666532084346,2.2140000217594205,NA,1.260000005364418,2.04142860482846,2.729999979671377,0.9266666968663534,3.1206666860729455,3.9413333304226397,13.77599997445941,NA,2.2076666532084346,2.2140000217594205,NA,1.260000005364418,2.04142860482846,2.729999979671377,0.9266666968663534,3.1206666860729455,16.022666931152344,20.645999717712403,NA,22.02966661453247,25.6614999294281,NA,20.155714443751744,25.517142704554967,23.97923073401818,22.996666590372723,20.497333335876466,14.436666552225748,22.76599998474121,NA,21.700666650136313,28.461000061035158,NA,28.58714267185756,29.185714176722936,28.332307815551758,30.8766663869222,27.271999994913738,8.449666568140188,17.263000011444092,NA,15.489666669567427,22.38550009727478,NA,23.672142846243723,23.430714334760395,22.37769240599412,23.874999682108562,21.550999927520753,2.462666584054629,11.760000038146972,NA,9.27866668899854,16.310000133514404,NA,18.757143020629883,17.67571449279785,16.423076996436485,16.873332977294922,15.829999860127767,1.9926590648536446,7.328856793169975,NA,5.505848060728524,10.39896400891296,NA,12.041210610150769,12.192733616889901,11.638246783330418,12.941022760752656,10.59818864629666,1.9926590648536446,7.328856793169975,NA,5.505848060728524,10.39896400891296,NA,12.041210610150769,12.192733616889901,11.638246783330418,12.941022760752656,10.59818864629666,0,0,NA,165.17544182185569,373.1547220001148,NA,457.4431962711702,542.7923315893995,694.0895397726949,732.9126080549529,732.9126080549529,0,0,NA,0.5346999979019165,0.9836500000953674,NA,1,1,0.9720000010270339,1,0.06666666666666667,1,1,NA,1,1,NA,1,1,1,1,1,0.14799999078114828,0.688400011062622,NA,0.5346999979019165,0.9836500000953674,NA,1,1,0.9720000010270339,1,0.9849000040690105,1,1,NA,1,1,NA,0.9999999999999999,1,1,1,1,2022-04-25T12:00:00Z,2022-05-10T12:00:00Z,NA,2022-05-15T12:00:00Z,2022-06-14T12:00:00Z,NA,2022-07-04T12:00:00Z,2022-07-11T12:00:00Z,2022-07-18T12:00:00Z,2022-07-31T12:00:00Z,2022-08-03T12:00:00Z,2022-05-09T12:00:00Z,2022-05-14T12:00:00Z,NA,2022-06-13T12:00:00Z,2022-07-03T12:00:00Z,NA,2022-07-10T12:00:00Z,2022-07-17T12:00:00Z,2022-07-30T12:00:00Z,2022-08-02T12:00:00Z,2022-08-17T12:00:00Z,115,130,NA,135,165,NA,185,192,199,212,215,14,4,0,29,19,0,6,6,12,2,14,129,134,NA,164,184,NA,191,198,211,214,229
412,morris_mn,45.3552,-95.5436,-0.5,2022,12,2022,mid00,941.878536784022,11,2022-04-25,2022-05-09,113,2022-08-30,2022-09-02,2022-09-16,Harvested at Maturity.,3.9413333304226397,13.77599997445941,2.1931111006273163,1.4900000368555386,2.7894444479089646,0,5.644285737935986,0.7942857372441462,1.6507692137876382,0,1.183999970431129,3.9413333304226397,13.77599997445941,2.1931111006273163,1.4900000368555386,2.7894444479089646,0,5.644285737935986,0.7942857372441462,1.6507692137876382,0,1.183999970431129,16.022666931152344,20.645999717712403,23.52355548010932,22.448000081380208,23.896666632758247,26.079999923706055,21.627142906188965,19.695714133126394,16.858461453364445,22.420000076293945,18.335333379109702,14.436666552225748,22.76599998474121,23.999333339267306,28.173999913533528,28.919444508022732,28.1200008392334,28.39142826625279,27.05714307512556,27.336154057429386,29.25666681925456,28.186000061035156,8.449666568140188,17.263000011444092,17.857000033722983,22.680000019073486,22.960833417044746,21.59500026702881,22.132856913975306,21.45999997002738,21.8980770111084,21.853333314259846,20.79233325322469,2.462666584054629,11.760000038146972,11.71466672817866,17.186000124613443,17.002222326066757,15.06999969482422,15.874285561697825,15.8628568649292,16.45999996478741,14.449999809265137,13.398666445414225,1.9926590648536446,7.328856793169975,6.672880392112295,10.384110399684886,11.43567730383968,11.132964729608748,11.20418774270404,11.505866926528727,11.827059844813439,11.744114793868858,9.497950395912726,1.9926590648536446,7.328856793169975,6.672880392112295,10.384110399684886,11.43567730383968,11.132964729608748,11.20418774270404,11.505866926528727,11.827059844813439,11.744114793868858,9.497950395912726,0,0,300.27961764505324,456.0412736403266,661.8834651094409,673.0164298390496,751.4457440379779,831.986812523679,985.7385905062536,1020.9709348878604,1020.9709348878604,0,0,0.6825333319769965,1,0.9797777785195245,1,0.9676428658621652,1,0.9950384616851806,1,0.06666666666666667,1,1,1,1,1,1,1,1,1,1,1,0.14799999078114828,0.688400011062622,0.6825333319769965,1,0.9797777785195245,1,0.9676428658621652,1,0.9950384616851806,1,0.8972333272298177,1,1,1,1,1,0.9999999999999998,0.9999999999999999,1,1,0.9999999999999999,1,2022-04-25T12:00:00Z,2022-05-10T12:00:00Z,2022-05-15T12:00:00Z,2022-06-29T12:00:00Z,2022-07-14T12:00:00Z,2022-08-01T12:00:00Z,2022-08-02T12:00:00Z,2022-08-09T12:00:00Z,2022-08-16T12:00:00Z,2022-08-29T12:00:00Z,2022-09-01T12:00:00Z,2022-05-09T12:00:00Z,2022-05-14T12:00:00Z,2022-06-28T12:00:00Z,2022-07-13T12:00:00Z,2022-07-31T12:00:00Z,2022-08-01T12:00:00Z,2022-08-08T12:00:00Z,2022-08-15T12:00:00Z,2022-08-28T12:00:00Z,2022-08-31T12:00:00Z,2022-09-15T12:00:00Z,115,130,135,180,195,213,214,221,228,241,244,14,4,44,14,17,0,6,6,12,2,14,129,134,179,194,212,213,220,227,240,243,258
413,morris_mn,45.3552,-95.5436,0.5,2022,12,2022,mid0,1001.0231096168308,11,2022-04-25,2022-05-09,116,2022-09-02,2022-09-06,2022-09-20,Harvested at Maturity.,3.9413333304226397,13.77599997445941,2.10553190484643,2.152500048512593,2.1015789411765966,2.6600000858306885,5.710000029099839,2.8099999675261125,0.17916666669771075,0.057500000577419996,1.4093333058059216,3.9413333304226397,13.77599997445941,2.10553190484643,2.152500048512593,2.1015789411765966,2.6600000858306885,5.710000029099839,2.8099999675261125,0.17916666669771075,0.057500000577419996,1.4093333058059216,16.022666931152344,20.645999717712403,23.614042505304866,22.225624918937683,24.30368423461914,24.079999923706055,19.371428625924246,17.252857072012766,18.290833234786987,22.34250020980835,15.66266663869222,14.436666552225748,22.76599998474121,24.308723429416087,28.225624799728394,28.821052651656302,34.47999954223633,26.530000141688756,26.012857164655415,28.210833708445232,28.71250009536743,27.600666681925457,8.449666568140188,17.263000011444092,18.088085144758224,22.944687485694885,22.657105270184967,26.574999809265137,20.932857172829763,21.272142818995885,22.02416678269704,21.141249895095825,20.66566661198934,2.462666584054629,11.760000038146972,11.86744686010036,17.663750171661377,16.493157888713636,18.670000076293945,15.335714203970772,16.531428473336355,15.837499856948853,13.569999694824219,13.730666542053223,1.9926590648536446,7.328856793169975,6.1657973589563975,9.786565739857705,10.578607272646241,12.752678873702624,10.745589935559435,11.272142818995885,11.91992688911309,11.227895084547997,9.795565467536052,1.9926590648536446,7.328856793169975,6.1657973589563975,9.786565739857705,10.578607272646241,12.752678873702624,10.745589935559435,11.272142818995885,11.91992688911309,11.227895084547997,9.795565467536052,0,0,289.7924758709507,446.37752770867405,647.3710658889527,660.1237447626553,735.3428743115713,814.2478740445425,957.2869967138996,1002.1985770520917,1002.1985770520917,0,0,0.696042551892869,1,0.9808421059658653,1,0.9676428658621652,0.9932142802647183,0.9985833366711935,0.9079999923706055,0.060899998346964516,1,1,1,1,1,1,1,1,1,1,1,0.14799999078114828,0.688400011062622,0.696042551892869,1,0.9808421059658653,1,0.9676428658621652,0.9932142802647183,0.9985833366711935,0.9079999923706055,0.9146333281199137,1,1,1,1,0.9999999999999999,1,0.9999999999999999,1,0.9999999999999999,1,1,2022-04-25T12:00:00Z,2022-05-10T12:00:00Z,2022-05-15T12:00:00Z,2022-07-01T12:00:00Z,2022-07-17T12:00:00Z,2022-08-05T12:00:00Z,2022-08-06T12:00:00Z,2022-08-13T12:00:00Z,2022-08-20T12:00:00Z,2022-09-01T12:00:00Z,2022-09-05T12:00:00Z,2022-05-09T12:00:00Z,2022-05-14T12:00:00Z,2022-06-30T12:00:00Z,2022-07-16T12:00:00Z,2022-08-04T12:00:00Z,2022-08-05T12:00:00Z,2022-08-12T12:00:00Z,2022-08-19T12:00:00Z,2022-08-31T12:00:00Z,2022-09-04T12:00:00Z,2022-09-19T12:00:00Z,115,130,135,182,198,217,218,225,232,244,248,14,4,46,15,18,0,6,6,11,3,14,129,134,181,197,216,217,224,231,243,247,262
414,morris_mn,45.3552,-95.5436,1.5,2022,12,2022,mid1,1260.6383820856304,11,2022-04-25,2022-05-09,132,2022-09-18,2022-09-23,2022-10-07,Harvested at Maturity.,3.9413333304226397,13.77599997445941,2.205185186531809,2.4605263120641836,2.4031818371943454,9.65999984741211,1.1399999976690327,0.20999999956360885,1.3286666403214136,0.29199999682605265,0.778666648765405,3.9413333304226397,13.77599997445941,2.205185186531809,2.4605263120641836,2.4031818371943454,9.65999984741211,1.1399999976690327,0.20999999956360885,1.3286666403214136,0.29199999682605265,0.778666648765405,16.022666931152344,20.645999717712403,23.183333290947807,23.66210520894904,21.842272715135053,10.539999961853027,18.13428565434047,18.69714287349156,17.272666676839194,14.75399990081787,12.77999997138977,14.436666552225748,22.76599998474121,24.662222208800138,29.23105269984195,27.614999944513496,26.18000030517578,26.60142871311733,29.79857199532645,27.656666692097982,26.473999786376954,19.367333539326985,8.449666568140188,17.263000011444092,18.638611149456764,23.50421062268709,21.584318074313078,22.30500030517578,21.295000008174352,22.89357158115932,20.48366657892863,20.028999996185302,13.933000111579895,2.462666584054629,11.760000038146972,12.615000090113393,17.777368545532227,15.55363620411266,18.43000030517578,15.988571303231376,15.988571166992188,13.310666465759278,13.584000205993652,8.498666683832804,1.9926590648536446,7.328856793169975,5.672835695808862,9.445856853627465,10.089153843876945,12.30500030517578,11.298047708625454,12.474260300211395,10.761406497571866,10.422763963820934,4.300405544466575,1.9926590648536446,7.328856793169975,5.672835695808862,9.445856853627465,10.089153843876945,12.30500030517578,11.298047708625454,12.474260300211395,10.761406497571866,10.422763963820934,4.300405544466575,0,0,306.33312757367855,485.8044077926005,707.7657923578932,720.070792663069,799.1571266234472,886.476948724927,1047.8980461885048,1100.0118660076096,1100.0118660076096,0,0,0.7354444433141638,0.9945789487738358,0.9778409112583507,1,0.9932142802647183,0.9975714342934745,0.8972333272298177,0.8737999916076661,0.0171666685740153,1,1,1,1,1,1,1,1,1,1,1,0.14799999078114828,0.688400011062622,0.7354444433141638,0.9945789487738358,0.9778409112583507,1,0.9932142802647183,0.9975714342934745,0.8972333272298177,0.8737999916076661,0.4092666784922282,1,1,1,1,1,0.9999999999999996,1,0.9999999999999999,0.9999999999999999,1,1,2022-04-25T12:00:00Z,2022-05-10T12:00:00Z,2022-05-15T12:00:00Z,2022-07-08T12:00:00Z,2022-07-27T12:00:00Z,2022-08-18T12:00:00Z,2022-08-19T12:00:00Z,2022-08-26T12:00:00Z,2022-09-02T12:00:00Z,2022-09-17T12:00:00Z,2022-09-22T12:00:00Z,2022-05-09T12:00:00Z,2022-05-14T12:00:00Z,2022-07-07T12:00:00Z,2022-07-26T12:00:00Z,2022-08-17T12:00:00Z,2022-08-18T12:00:00Z,2022-08-25T12:00:00Z,2022-09-01T12:00:00Z,2022-09-16T12:00:00Z,2022-09-21T12:00:00Z,2022-10-06T12:00:00Z,115,130,135,189,208,230,231,238,245,260,265,14,4,53,18,21,0,6,6,14,4,14,129,134,188,207,229,230,237,244,259,264,279
415,morris_mn,45.3552,-95.5436,2.5,2022,12,2022,mid2,1524.8190615492078,11,2022-04-25,2022-05-09,149,2022-10-05,2022-10-13,2022-10-27,Harvested at Maturity.,3.9413333304226397,13.77599997445941,1.9885245913364848,2.485909100029279,2.771818180653182,0.8100000023841858,0.03285714318709714,0.8333333333333334,1.2019999687559904,0.20624999282881618,0.4519999988377094,3.9413333304226397,13.77599997445941,1.9885245913364848,2.485909100029279,2.771818180653182,0.8100000023841858,0.03285714318709714,0.8333333333333334,1.2019999687559904,0.20624999282881618,0.4519999988377094,16.022666931152344,20.645999717712403,23.263606509224314,24.192727262323555,18.12045448476618,9.949999809265137,22.375714438302175,17.656666649712456,13.175999987125397,13.30124980211258,10.2846666653951,14.436666552225748,22.76599998474121,25.140491782641803,29.210454507307574,26.664091110229492,31.950000762939453,28.94571440560477,27.67555554707845,22.590500116348267,18.988749980926514,12.69466659228007,8.449666568140188,17.263000011444092,19.12942626095209,23.064545436338946,21.294545498761263,25.6850004196167,21.44642850330898,20.300555494096546,16.62425004839897,12.406250013038516,6.564666626602412,2.462666584054629,11.760000038146972,13.118360739262378,16.91863636537032,15.924999887293035,19.420000076293945,13.947142601013184,12.925555441114637,10.657999980449677,5.823750045150518,0.43466666092475253,1.9926590648536446,7.328856793169975,4.891194668073724,8.519516720787614,10.402058979619637,14.784940253233907,11.449132102828367,10.49474932392107,8.24477643060118,6.628591787110316,1.4689597589753072,1.9926590648536446,7.328856793169975,4.891194668073724,8.519516720787614,10.402058979619637,14.784940253233907,11.449132102828367,10.49474932392107,8.24477643060118,6.628591787110316,1.4689597589753072,0,0,298.36287475249725,485.7922426098248,714.6375401614569,729.4224804146908,809.5664051344893,904.019149049779,1068.914677661803,1121.9434119586856,1121.9434119586856,0,0,0.7658032776879483,0.9834545460614291,0.9867727301337502,1,0.9474285670689174,0.8696111043294271,0.6033000040054322,0.341375008225441,0,1,1,1,1,1,1,1,1,1,1,1,0.14799999078114828,0.688400011062622,0.7658032776879483,0.9834545460614291,0.9867727301337502,1,0.9474285670689174,0.8696111043294271,0.6033000040054322,0.341375008225441,0.10206666549046835,1,1,1,0.9999999999999999,0.9999999999999999,1,1,1,1,1,1,2022-04-25T12:00:00Z,2022-05-10T12:00:00Z,2022-05-15T12:00:00Z,2022-07-15T12:00:00Z,2022-08-06T12:00:00Z,2022-08-28T12:00:00Z,2022-08-29T12:00:00Z,2022-09-05T12:00:00Z,2022-09-14T12:00:00Z,2022-10-04T12:00:00Z,2022-10-12T12:00:00Z,2022-05-09T12:00:00Z,2022-05-14T12:00:00Z,2022-07-14T12:00:00Z,2022-08-05T12:00:00Z,2022-08-27T12:00:00Z,2022-08-28T12:00:00Z,2022-09-04T12:00:00Z,2022-09-13T12:00:00Z,2022-10-03T12:00:00Z,2022-10-11T12:00:00Z,2022-10-26T12:00:00Z,115,130,135,196,218,240,241,248,257,277,285,14,4,60,21,21,0,6,8,19,7,14,129,134,195,217,239,240,247,256,276,284,299
416,morris_mn,45.3552,-95.5436,-1.5,2023,12,2023,mid000,245.3755063503253,11,2023-04-30,2023-05-14,75,2023-07-28,2023-07-31,2023-08-14,Harvested at Maturity.,2.095333314066132,0.07833333499729633,NA,0.9187499908730388,2.987999997381121,0.33000001311302185,1.874285771378449,2.1399999832113585,2.399999978020787,0.5666666825612386,4.570666722704967,2.095333314066132,0.07833333499729633,NA,0.9187499908730388,2.987999997381121,0.33000001311302185,1.874285771378449,2.1399999832113585,2.399999978020787,0.5666666825612386,4.570666722704967,20.588666470845542,23.09666649500529,NA,25.240625023841858,23.585000133514406,26.670000076293945,24.247142791748047,22.85666667090522,22.984285763331822,22.836666742960613,20.352666473388673,20.990000343322755,23.399999936421715,NA,28.598750114440918,27.64050006866455,27.520000457763672,29.74428585597447,26.08333312140571,30.09499999455043,31.143334070841473,28.304000091552734,14.264000185330708,15.341666579246521,NA,21.782812416553497,21.48750009536743,21.420000076293945,23.795714378356934,19.689444330003525,23.055714300700597,25.08833344777425,22.65733346939087,7.538000027338664,7.28333322207133,NA,14.966874718666077,15.334500122070313,15.31999969482422,17.847142900739396,13.295555538601345,16.01642860685076,19.03333282470703,17.010666847229004,5.268788170733799,5.969026370329658,NA,10.554267547606008,9.8772042977948,9.913600799307387,11.881466230138486,9.000232611644849,11.408695204425642,13.522224512253533,11.645819095998604,5.268788170733799,5.969026370329658,NA,10.554267547606008,9.8772042977948,9.913600799307387,11.881466230138486,9.000232611644849,11.408695204425642,13.522224512253533,11.645819095998604,0,0,NA,168.86828076169613,366.41236671759214,376.32596751689954,459.4962311278689,540.4983246326724,700.2200574946316,740.7867310313923,740.7867310313923,0,0,NA,0.9650312483310699,0.9633750057220459,1,1,0.8819999906751845,0.9803214311599732,1,0.06666666666666667,1,1,NA,1,1,1,1,1,1,1,1,0.49253334840138757,0.5341666579246521,NA,0.9650312483310699,0.9633750057220459,1,1,0.8819999906751845,0.9803214311599732,1,0.9836666647593181,1,1,NA,1,1,1,0.9999999999999999,1,1,0.9999999999999999,1,2023-04-30T12:00:00Z,2023-05-15T12:00:00Z,NA,2023-05-21T12:00:00Z,2023-06-06T12:00:00Z,2023-06-26T12:00:00Z,2023-06-27T12:00:00Z,2023-07-04T12:00:00Z,2023-07-13T12:00:00Z,2023-07-27T12:00:00Z,2023-07-30T12:00:00Z,2023-05-14T12:00:00Z,2023-05-20T12:00:00Z,NA,2023-06-05T12:00:00Z,2023-06-25T12:00:00Z,2023-06-26T12:00:00Z,2023-07-03T12:00:00Z,2023-07-12T12:00:00Z,2023-07-26T12:00:00Z,2023-07-29T12:00:00Z,2023-08-13T12:00:00Z,120,135,NA,141,157,177,178,185,194,208,211,14,5,0,15,19,0,6,8,13,2,14,134,140,NA,156,176,177,184,193,207,210,225
417,morris_mn,45.3552,-95.5436,-0.5,2023,12,2023,mid00,905.8158550673596,11,2023-04-30,2023-05-14,103,2023-08-25,2023-08-28,2023-09-11,Harvested at Maturity.,2.095333314066132,0.07833333499729633,1.6424999982700683,3.040000011377475,1.9573684023006965,NA,1.8485714614923512,0.9149999916553497,4.610000048497958,0.10666666738688944,0.2513333370288213,2.095333314066132,0.07833333499729633,1.6424999982700683,3.040000011377475,1.9573684023006965,NA,1.8485714614923512,0.9149999916553497,4.610000048497958,0.10666666738688944,0.2513333370288213,20.588666470845542,23.09666649500529,24.909375071525574,22.752941075493307,22.98631597820081,NA,23.72857121058873,18.99333318074544,20.468571390424458,19.426666895548504,17.936666774749757,20.990000343322755,23.399999936421715,28.135937571525574,27.713529474595013,29.705263137817383,NA,30.707143238612584,27.701666831970215,27.972857066563197,29.810000737508137,30.486666615804037,14.264000185330708,15.341666579246521,21.483749970793724,22.03029422199025,22.73210523003026,NA,24.315000193459646,22.30583349863688,21.958571434020996,24.001667022705078,23.063666693369548,7.538000027338664,7.28333322207133,14.831562370061874,16.347058969385483,15.758947322243138,NA,17.92285714830671,16.91000016530355,15.944285801478795,18.19333330790202,15.64066677093506,5.268788170733799,5.969026370329658,9.398058780103215,9.687758986711946,10.47513372130391,NA,13.083364329234366,12.224500004033226,11.367957728805287,13.420679207742214,10.658805662877958,5.268788170733799,5.969026370329658,9.398058780103215,9.687758986711946,10.47513372130391,NA,13.083364329234366,12.224500004033226,11.367957728805287,13.420679207742214,10.658805662877958,0,0,300.7378809633028,465.4297837374059,664.4573244421802,NA,756.0408747468206,829.3878747710199,988.539282974294,1028.8013205975203,1028.8013205975203,0,0,0.9596250027418136,0.9565294097451603,0.9684999992972926,NA,1,1,0.9608214276177542,1,0.0625333309173584,1,1,1,1,1,NA,1,1,1,1,1,0.49253334840138757,0.5341666579246521,0.9596250027418136,0.9565294097451603,0.9684999992972926,NA,1,1,0.9608214276177542,1,0.9382999992370605,1,1,1,0.9999999999999999,1,NA,0.9999999999999999,1,1,0.9999999999999998,1,2023-04-30T12:00:00Z,2023-05-15T12:00:00Z,2023-05-21T12:00:00Z,2023-06-22T12:00:00Z,2023-07-09T12:00:00Z,NA,2023-07-28T12:00:00Z,2023-08-04T12:00:00Z,2023-08-10T12:00:00Z,2023-08-24T12:00:00Z,2023-08-27T12:00:00Z,2023-05-14T12:00:00Z,2023-05-20T12:00:00Z,2023-06-21T12:00:00Z,2023-07-08T12:00:00Z,2023-07-27T12:00:00Z,NA,2023-08-03T12:00:00Z,2023-08-09T12:00:00Z,2023-08-23T12:00:00Z,2023-08-26T12:00:00Z,2023-09-10T12:00:00Z,120,135,141,173,190,NA,209,216,222,236,239,14,5,31,16,18,0,6,5,13,2,14,134,140,172,189,208,NA,215,221,235,238,253
418,morris_mn,45.3552,-95.5436,0.5,2023,12,2023,mid0,1003.4737951932044,11,2023-04-30,2023-05-14,107,2023-08-29,2023-09-01,2023-09-15,Harvested at Maturity.,2.095333314066132,0.07833333499729633,1.7652941101285464,2.481578964151834,1.8894736709955489,NA,2.1414285911513224,9.460000099082079,0.03384615380603533,0,0.7526666856060426,2.095333314066132,0.07833333499729633,1.7652941101285464,2.481578964151834,1.8894736709955489,NA,2.1414285911513224,9.460000099082079,0.03384615380603533,0,0.7526666856060426,20.588666470845542,23.09666649500529,24.72411772784065,23.00210526115016,23.002105311343545,NA,20.6257141658238,19.432856968470983,20.908461497380184,21.39666684468587,16.644000085194907,20.990000343322755,23.399999936421715,28.178529458887436,27.515789533916273,30.253684395237972,NA,29.22428594316755,26.22857121058873,29.30307696415828,30.086666742960613,29.057333374023436,14.264000185330708,15.341666579246521,21.658088221269495,21.42605267072979,23.3481579830772,NA,23.82714298793248,20.89714288711548,22.815000020540676,22.516666730244953,21.814666748046875,7.538000027338664,7.28333322207133,15.137646983651553,15.336315807543302,16.442631570916426,NA,18.430000032697407,15.56571456364223,16.326923076923077,14.946666717529297,14.572000122070312,5.268788170733799,5.969026370329658,8.614146577835147,8.397377099806437,10.412992547875696,NA,12.448034140079653,10.753703732454735,12.073709846301721,12.433066093887886,9.151064120039145,5.268788170733799,5.969026370329658,8.614146577835147,8.397377099806437,10.412992547875696,NA,12.448034140079653,10.753703732454735,12.073709846301721,12.433066093887886,9.151064120039145,0,0,292.88098364639495,452.4311485427172,650.2780069523552,NA,737.4142459329129,812.690172060096,969.6484000620184,1006.947598343682,1006.947598343682,0,0,0.9620000025805305,0.9441052587408768,0.9855000019073487,NA,1,0.9475714274815151,0.98126922754141,1,0.06666666666666667,1,1,1,1,1,NA,1,1,1,1,1,0.49253334840138757,0.5341666579246521,0.9620000025805305,0.9441052587408768,0.9855000019073487,NA,1,0.9475714274815151,0.98126922754141,1,0.8636333370208741,1,1,1,1,1,NA,1,0.9999999999999999,1,1,1,2023-04-30T12:00:00Z,2023-05-15T12:00:00Z,2023-05-21T12:00:00Z,2023-06-24T12:00:00Z,2023-07-13T12:00:00Z,NA,2023-08-01T12:00:00Z,2023-08-08T12:00:00Z,2023-08-15T12:00:00Z,2023-08-28T12:00:00Z,2023-08-31T12:00:00Z,2023-05-14T12:00:00Z,2023-05-20T12:00:00Z,2023-06-23T12:00:00Z,2023-07-12T12:00:00Z,2023-07-31T12:00:00Z,NA,2023-08-07T12:00:00Z,2023-08-14T12:00:00Z,2023-08-27T12:00:00Z,2023-08-30T12:00:00Z,2023-09-14T12:00:00Z,120,135,141,175,194,NA,213,220,227,240,243,14,5,33,18,18,0,6,6,12,2,14,134,140,174,193,212,NA,219,226,239,242,257
419,morris_mn,45.3552,-95.5436,1.5,2023,12,2023,mid1,1398.3568994325185,11,2023-04-30,2023-05-14,122,2023-09-13,2023-09-19,2023-10-03,Harvested at Maturity.,2.095333314066132,0.07833333499729633,2.069512203199471,1.304782596781202,4.579523837459939,13.25,0.00999999977648258,0.05285714300615446,0.31357143287147793,1.1983333689471085,3.451999953885873,2.095333314066132,0.07833333499729633,2.069512203199471,1.304782596781202,4.579523837459939,13.25,0.00999999977648258,0.05285714300615446,0.31357143287147793,1.1983333689471085,3.451999953885873,20.588666470845542,23.09666649500529,24.26048785884206,23.033478239308234,21.370952333722794,21.8700008392334,21.724285670689174,20.2014285496303,17.12357156617301,16.923333485921223,10.840666739145915,20.990000343322755,23.399999936421715,28.117317153186335,28.027826060419496,29.65428588503883,23.670000076293945,27.73714283534459,31.140000207083567,30.151428495134628,23.706666946411133,25.972000122070313,14.264000185330708,15.341666579246521,21.73817076334139,21.46239125210306,23.64166679836455,18.78000020980835,21.217142854418075,24.437857219151088,22.919642891202656,16.945000092188515,20.524000072479247,7.538000027338664,7.28333322207133,15.359024373496451,14.896956443786621,17.629047711690266,13.890000343322754,14.69714287349156,17.735714231218612,15.687857287270683,10.1833332379659,15.076000022888184,5.268788170733799,5.969026370329658,7.48916116659069,7.733427968202044,10.90246852544929,8.476524169713128,11.167891237453665,13.010210069263834,11.31158220735831,8.212105035895108,9.856843052566846,5.268788170733799,5.969026370329658,7.48916116659069,7.733427968202044,10.90246852544929,8.476524169713128,11.167891237453665,13.010210069263834,11.31158220735831,8.212105035895108,9.856843052566846,0,0,307.0556078302183,484.9244510988653,713.8762901333,722.3528143030131,800.5280529651886,891.5995234500355,1049.961674353052,1099.2343045684222,1099.2343045684222,0,0,0.9684878070180009,0.9418478240137514,0.9883333319709414,0.878000020980835,0.9740714277539935,0.991142851965768,0.9189642872129168,0.6942500034968059,0.05683333079020182,1,1,1,1,1,1,1,1,1,1,1,0.49253334840138757,0.5341666579246521,0.9684878070180009,0.9418478240137514,0.9883333319709414,0.878000020980835,0.9740714277539935,0.991142851965768,0.9189642872129168,0.6942500034968059,0.9144000053405762,1,1,1,0.9999999999999999,1,1,1,1,1,1,1,2023-04-30T12:00:00Z,2023-05-15T12:00:00Z,2023-05-21T12:00:00Z,2023-07-01T12:00:00Z,2023-07-24T12:00:00Z,2023-08-14T12:00:00Z,2023-08-15T12:00:00Z,2023-08-22T12:00:00Z,2023-08-29T12:00:00Z,2023-09-12T12:00:00Z,2023-09-18T12:00:00Z,2023-05-14T12:00:00Z,2023-05-20T12:00:00Z,2023-06-30T12:00:00Z,2023-07-23T12:00:00Z,2023-08-13T12:00:00Z,2023-08-14T12:00:00Z,2023-08-21T12:00:00Z,2023-08-28T12:00:00Z,2023-09-11T12:00:00Z,2023-09-17T12:00:00Z,2023-10-02T12:00:00Z,120,135,141,182,205,226,227,234,241,255,261,14,5,40,22,20,0,6,6,13,5,14,134,140,181,204,225,226,233,240,254,260,275
420,morris_mn,45.3552,-95.5436,2.5,2023,12,2023,mid2,1532.110561902075,11,2023-04-30,2023-05-14,137,2023-09-28,2023-10-03,2023-10-17,Harvested at Maturity.,2.095333314066132,0.07833333499729633,2.127346941593046,1.9654166594458122,3.3177273034710777,0.02999999932944774,0.041428571833031516,0.36000000525798115,2.374736837846668,3.089999923110008,4.545999971528848,2.095333314066132,0.07833333499729633,2.127346941593046,1.9654166594458122,3.3177273034710777,0.02999999932944774,0.041428571833031516,0.36000000525798115,2.374736837846668,3.089999923110008,4.545999971528848,20.588666470845542,23.09666649500529,24.161224501473562,23.05708344777425,20.454090811989524,20.520000457763672,20.045714242117747,17.465714590890066,13.715789518858257,9.390000057220458,11.213333400090535,20.990000343322755,23.399999936421715,27.98938782361089,29.768333435058594,28.306363625959918,32.58000183105469,29.215714318411692,32.6742856161935,24.97736850537752,25.92600021362305,16.207333215077718,14.264000185330708,15.341666579246521,21.67336736406599,22.869375030199688,22.47750004855069,27.105000495910645,22.2421430179051,25.01071425846645,18.865789538935612,20.542000102996827,10.79599992732207,7.538000027338664,7.28333322207133,15.357346904521085,15.97041662534078,16.64863647114147,21.6299991607666,15.268571717398506,17.347142900739396,12.754210572493704,15.157999992370605,5.384666639566421,5.268788170733799,5.969026370329658,6.039088672814767,7.788865920495419,10.42079735910782,15.624287845194342,12.222572071667228,11.55052657495056,9.427482335716485,10.437823000580073,2.021948011101534,5.268788170733799,5.969026370329658,6.039088672814767,7.788865920495419,10.42079735910782,15.624287845194342,12.222572071667228,11.55052657495056,9.427482335716485,10.437823000580073,2.021948011101534,0,0,295.91534496792366,482.8481270598136,712.1056689601858,727.7299568053801,813.2879613070506,894.1416473317046,1073.263811710318,1125.4529267132184,1125.4529267132184,0,0,0.9585510214980768,0.97506249944369,0.9750681812112981,1,0.991142851965768,0.9041428565979004,0.830447372637297,0.9279000091552735,0.06666666666666667,1,1,1,1,1,1,1,1,1,1,1,0.49253334840138757,0.5341666579246521,0.9585510214980768,0.97506249944369,0.9750681812112981,1,0.991142851965768,0.9041428565979004,0.830447372637297,0.9279000091552735,0.17796666781107584,1,1,1,1,0.9999999999999999,1,1,0.9950009504795966,0.9999999999999999,1,1,2023-04-30T12:00:00Z,2023-05-15T12:00:00Z,2023-05-21T12:00:00Z,2023-07-09T12:00:00Z,2023-08-02T12:00:00Z,2023-08-24T12:00:00Z,2023-08-25T12:00:00Z,2023-09-01T12:00:00Z,2023-09-08T12:00:00Z,2023-09-27T12:00:00Z,2023-10-02T12:00:00Z,2023-05-14T12:00:00Z,2023-05-20T12:00:00Z,2023-07-08T12:00:00Z,2023-08-01T12:00:00Z,2023-08-23T12:00:00Z,2023-08-24T12:00:00Z,2023-08-31T12:00:00Z,2023-09-07T12:00:00Z,2023-09-26T12:00:00Z,2023-10-01T12:00:00Z,2023-10-16T12:00:00Z,120,135,141,190,214,236,237,244,251,270,275,14,5,48,23,21,0,6,6,18,4,14,134,140,189,213,235,236,243,250,269,274,289
421,kanawha_ia,42.9333,-93.7924,-1.5,2017,13,2017,mid000,215.63522395288177,11,2017-04-02,2017-04-16,98,2017-07-23,2017-07-27,2017-08-10,Harvested at Maturity.,3.322000111391147,3.2699999863183815,NA,3.091724130870967,3.372631572284981,0.1899999976158142,4.0730000320822,2.436666722098986,4.464999950490892,0.3175000101327896,2.0173333205282686,3.322000111391147,3.2699999863183815,NA,3.091724130870967,3.372631572284981,0.1899999976158142,4.0730000320822,2.436666722098986,4.464999950490892,0.3175000101327896,2.0173333205282686,14.127999909718831,16.577894737845973,NA,21.742068964859534,24.897368380897923,24.93000030517578,25.13499994277954,28.72333272298177,22.295833508173626,24.65250015258789,22.27333335876465,15.638666534423828,14.72052644428454,NA,21.53620690312879,27.673157942922494,20.34000015258789,24.219999885559083,28.325000445048016,29.354166825612385,27.36250066757202,25.280666859944663,10.178333276510239,9.0797369260537,NA,15.549655157944251,21.849210513265508,16.53000020980835,18.56449990272522,22.63416679700216,24.054166793823242,22.165000319480896,19.920333449045817,4.718000018596649,3.43894740782286,NA,9.563103412759716,16.025263083608525,12.720000267028809,12.908999919891357,16.9433331489563,18.7541667620341,16.96749997138977,14.560000038146972,2.2770442614271493,1.9785003418495781,NA,5.761406267242322,10.763306018759815,5.918784161191985,8.508409546689673,11.583944588665709,13.19119570546124,12.00662309842851,9.044000085194906,2.2770442614271493,1.9785003418495781,NA,5.761406267242322,10.763306018759815,5.918784161191985,8.508409546689673,11.583944588665709,13.19119570546124,12.00662309842851,9.044000085194906,0,0,NA,167.0807817500273,371.58359610646386,377.50238026765584,462.58647573455255,532.0901432665468,690.3844917320814,738.4109841257954,738.4109841257954,0,0,NA,0.5324655187541041,0.9662105234045731,0.653000020980835,0.7886999940872192,1,0.9901250004768372,0.9862500071525574,0.06666666666666667,1,1,NA,1,1,1,1,1,1,1,1,0.17123333056767784,0.12673684735047192,NA,0.5324655187541041,0.9662105234045731,0.653000020980835,0.7886999940872192,1,0.9901250004768372,0.9862500071525574,0.9075333372751871,1,1,NA,1,1,1,1,0.9999999999999999,0.9999999999999999,1,1,2017-04-02T12:00:00Z,2017-04-17T12:00:00Z,NA,2017-05-06T12:00:00Z,2017-06-04T12:00:00Z,2017-06-23T12:00:00Z,2017-06-24T12:00:00Z,2017-07-04T12:00:00Z,2017-07-10T12:00:00Z,2017-07-22T12:00:00Z,2017-07-26T12:00:00Z,2017-04-16T12:00:00Z,2017-05-05T12:00:00Z,NA,2017-06-03T12:00:00Z,2017-06-22T12:00:00Z,2017-06-23T12:00:00Z,2017-07-03T12:00:00Z,2017-07-09T12:00:00Z,2017-07-21T12:00:00Z,2017-07-25T12:00:00Z,2017-08-09T12:00:00Z,92,107,NA,126,155,174,175,185,191,203,207,14,18,0,28,18,0,9,5,11,3,14,106,125,NA,154,173,174,184,190,202,206,221
422,kanawha_ia,42.9333,-93.7924,-0.5,2017,13,2017,mid00,916.3230696378296,11,2017-04-02,2017-04-16,131,2017-08-25,2017-08-29,2017-09-12,Harvested at Maturity.,3.322000111391147,3.2699999863183815,2.8792856944104037,4.046315836180982,3.8617646880447865,0,1.3699999805539846,2.047777763878306,4.242666567365329,1.8025000244379044,0.08533333366115887,3.322000111391147,3.2699999863183815,2.8792856944104037,4.046315836180982,3.8617646880447865,0,1.3699999805539846,2.047777763878306,4.242666567365329,1.8025000244379044,0.08533333366115887,14.127999909718831,16.577894737845973,23.194523777280533,24.247894688656455,23.72764705209171,27.59000015258789,24.114285741533553,22.085555500454372,19.02733325958252,14.920000076293945,18.348666826883953,15.638666534423828,14.72052644428454,23.787142912546795,24.637894680625514,29.22588258631089,24.700000762939453,26.818571635654994,24.801111433241104,25.151333236694335,23.394999504089355,24.777333450317382,10.178333276510239,9.0797369260537,17.816309531529743,19.271842002868652,23.711470744189093,20.80500030517578,21.597857339041575,19.069444603390163,20.03500000635783,19.07124960422516,18.230000066757203,4.718000018596649,3.43894740782286,11.845476150512695,13.90578932511179,18.197058902067297,16.90999984741211,16.377143042428152,13.337777773539225,14.918666776021322,14.747499704360962,11.682666683197022,2.2770442614271493,1.9785003418495781,7.217451650026688,7.952148763611793,12.160049290471065,10.178895328417234,11.179293272213013,9.445010444716075,10.19320665954113,9.081782913812994,7.776360388326248,2.2770442614271493,1.9785003418495781,7.217451650026688,7.952148763611793,12.160049290471065,10.178895328417234,11.179293272213013,9.445010444716075,10.19320665954113,9.081782913812994,7.776360388326248,0,0,303.13296930112085,454.2237958097449,660.9446337477533,671.1235290761705,749.3785819816616,834.3836759841063,987.2817758772233,1023.6089075324752,1023.6089075324752,0,0,0.6750595251719157,0.8414210470099198,0.9930294121012968,1,0.9921428612300328,0.8568888982137045,0.9338999970753988,0.8979999661445618,0.051400000254313155,1,1,1,1,1,1,1,1,1,1,1,0.17123333056767784,0.12673684735047192,0.6750595251719157,0.8414210470099198,0.9930294121012968,1,0.9921428612300328,0.8568888982137045,0.9338999970753988,0.8979999661445618,0.7908666690190633,1,1,1,0.9999999999999999,1,1,0.9999999999999999,1,1,1,1,2017-04-02T12:00:00Z,2017-04-17T12:00:00Z,2017-05-06T12:00:00Z,2017-06-17T12:00:00Z,2017-07-06T12:00:00Z,2017-07-23T12:00:00Z,2017-07-24T12:00:00Z,2017-07-31T12:00:00Z,2017-08-09T12:00:00Z,2017-08-24T12:00:00Z,2017-08-28T12:00:00Z,2017-04-16T12:00:00Z,2017-05-05T12:00:00Z,2017-06-16T12:00:00Z,2017-07-05T12:00:00Z,2017-07-22T12:00:00Z,2017-07-23T12:00:00Z,2017-07-30T12:00:00Z,2017-08-08T12:00:00Z,2017-08-23T12:00:00Z,2017-08-27T12:00:00Z,2017-09-11T12:00:00Z,92,107,126,168,187,204,205,212,221,236,240,14,18,41,18,16,0,6,8,14,3,14,106,125,167,186,203,204,211,220,235,239,254
423,kanawha_ia,42.9333,-93.7924,0.5,2017,13,2017,mid0,986.0156652087746,11,2017-04-02,2017-04-16,135,2017-08-29,2017-09-02,2017-09-16,Harvested at Maturity.,3.322000111391147,3.2699999863183815,2.852790678483109,3.578095279900091,3.9011764537323925,8.90999984741211,2.2712499832268804,0.36111112166610027,4.524666568140189,0.10499999672174454,0.07866666801273822,3.322000111391147,3.2699999863183815,2.852790678483109,3.578095279900091,3.9011764537323925,8.90999984741211,2.2712499832268804,0.36111112166610027,4.524666568140189,0.10499999672174454,0.07866666801273822,14.127999909718831,16.577894737845973,22.973720894303433,25.535714149475098,23.19000014136819,8.119999885559082,24.837499856948853,22.380000114440918,16.793999926249185,16.267500400543213,18.714000066121418,15.638666534423828,14.72052644428454,23.826279107914416,25.169047673543293,28.908823798684512,26.350000381469727,26.173750162124634,24.271111170450848,24.786666488647462,23.927500247955322,26.672000122070312,10.178333276510239,9.0797369260537,17.86488372226094,19.69261900583903,23.507647233850815,23.145000457763672,20.741875112056732,18.71055555343628,19.94199994405111,18.413750171661377,19.594000069300332,4.718000018596649,3.43894740782286,11.903488336607467,14.216190338134766,18.106470669017117,19.940000534057617,15.31000006198883,13.149999936421713,15.097333399454753,12.900000095367432,12.516000016530356,2.2770442614271493,1.9785003418495781,6.707840662955516,7.615712200057358,11.33234364904947,11.87736511581327,10.13874920317381,8.98769566193086,10.065072080642382,8.751579643568396,9.085207718479634,2.2770442614271493,1.9785003418495781,6.707840662955516,7.615712200057358,11.33234364904947,11.87736511581327,10.13874920317381,8.98769566193086,10.065072080642382,8.751579643568396,9.085207718479634,0,0,288.4371485070872,448.3671047082918,641.0169467421326,652.8943118579459,734.0043054833363,814.8935664407142,965.86964765035,1000.8759662246237,1000.8759662246237,0,0,0.6823953495469205,0.8569761866614932,0.9897941196666045,1,0.9550625026226044,0.8611111111111112,0.9281333255767823,0.8371250152587891,0.044066664377848314,1,1,1,1,1,1,1,1,1,1,1,0.17123333056767784,0.12673684735047192,0.6823953495469205,0.8569761866614932,0.9897941196666045,1,0.9550625026226044,0.8611111111111112,0.9281333255767823,0.8371250152587891,0.8342999982833863,1,1,1,1,1,1,1,1,0.9999999999999999,0.9999999999999998,1,2017-04-02T12:00:00Z,2017-04-17T12:00:00Z,2017-05-06T12:00:00Z,2017-06-18T12:00:00Z,2017-07-09T12:00:00Z,2017-07-26T12:00:00Z,2017-07-27T12:00:00Z,2017-08-04T12:00:00Z,2017-08-13T12:00:00Z,2017-08-28T12:00:00Z,2017-09-01T12:00:00Z,2017-04-16T12:00:00Z,2017-05-05T12:00:00Z,2017-06-17T12:00:00Z,2017-07-08T12:00:00Z,2017-07-25T12:00:00Z,2017-07-26T12:00:00Z,2017-08-03T12:00:00Z,2017-08-12T12:00:00Z,2017-08-27T12:00:00Z,2017-08-31T12:00:00Z,2017-09-15T12:00:00Z,92,107,126,169,190,207,208,216,225,240,244,14,18,42,20,16,0,7,8,14,3,14,106,125,168,189,206,207,215,224,239,243,258
424,kanawha_ia,42.9333,-93.7924,1.5,2017,13,2017,mid1,1276.9835087627157,11,2017-04-02,2017-04-16,152,2017-09-15,2017-09-20,2017-10-04,Harvested at Maturity.,3.322000111391147,3.2699999863183815,2.923396220290155,3.119000016339123,3.350869546603897,0.01999999955296516,4.084444339490599,3.8949999334290624,0.07529411793631666,6.126000084355473,4.37400006291767,3.322000111391147,3.2699999863183815,2.923396220290155,3.119000016339123,3.350869546603897,0.01999999955296516,4.084444339490599,3.8949999334290624,0.07529411793631666,6.126000084355473,4.37400006291767,14.127999909718831,16.577894737845973,23.47490565281994,25.061499881744385,22.045652223669965,23.3799991607666,17.744444423251682,17.87124991416931,18.465882525724524,12.977999877929687,14.0866668065389,15.638666534423828,14.72052644428454,23.688490579713065,28.015500259399413,26.432174102119777,25.920000076293945,25.15555551317003,24.306249618530273,25.39941193075741,26.52599983215332,25.271333185831704,10.178333276510239,9.0797369260537,17.79415092828139,22.319000148773192,21.33478268333103,20.894999980926514,19.981666723887127,19.633749783039093,18.732941276886883,20.319999980926514,19.275666570663454,4.718000018596649,3.43894740782286,11.89981127684971,16.622500038146974,16.23739126454229,15.869999885559082,14.807777934604221,14.961249947547913,12.066470623016357,14.114000129699708,13.279999955495198,2.2770442614271493,1.9785003418495781,5.852011300212446,8.792640493185147,9.577425538783498,10.47395694683482,9.988312341653648,9.849419341166318,9.447609932513448,10.469934596551656,8.511892867276668,2.2770442614271493,1.9785003418495781,5.852011300212446,8.792640493185147,9.577425538783498,10.47395694683482,9.988312341653648,9.849419341166318,9.447609932513448,10.469934596551656,8.511892867276668,0,0,310.1565989112597,486.00940877496254,706.2901961669828,716.7641531138177,806.6589641887005,885.4543189180309,1046.0636877707595,1098.4133607535182,1098.4133607535182,0,0,0.6886981127397069,0.9859999990463257,0.9373043516407843,1,0.9624444431728787,0.8796874821186066,0.8154705903109383,0.8071000003814698,0.06666666666666667,1,1,1,1,1,1,1,1,1,1,1,0.17123333056767784,0.12673684735047192,0.6886981127397069,0.9859999990463257,0.9373043516407843,1,0.9624444431728787,0.8796874821186066,0.8154705903109383,0.8071000003814698,0.7875999943415324,1,1,1,0.9999999999999999,0.9999999999999999,0.9999999999999998,1,1,0.9999999999999999,0.9999999999999999,1,2017-04-02T12:00:00Z,2017-04-17T12:00:00Z,2017-05-06T12:00:00Z,2017-06-28T12:00:00Z,2017-07-18T12:00:00Z,2017-08-10T12:00:00Z,2017-08-11T12:00:00Z,2017-08-20T12:00:00Z,2017-08-28T12:00:00Z,2017-09-14T12:00:00Z,2017-09-19T12:00:00Z,2017-04-16T12:00:00Z,2017-05-05T12:00:00Z,2017-06-27T12:00:00Z,2017-07-17T12:00:00Z,2017-08-09T12:00:00Z,2017-08-10T12:00:00Z,2017-08-19T12:00:00Z,2017-08-27T12:00:00Z,2017-09-13T12:00:00Z,2017-09-18T12:00:00Z,2017-10-03T12:00:00Z,92,107,126,179,199,222,223,232,240,257,262,14,18,52,19,22,0,8,7,16,4,14,106,125,178,198,221,222,231,239,256,261,276
425,kanawha_ia,42.9333,-93.7924,2.5,2017,13,2017,mid2,1464.5329109451204,11,2017-04-02,2017-04-16,162,2017-09-25,2017-10-02,2017-10-16,Harvested at Maturity.,3.322000111391147,3.2699999863183815,3.3548275860154937,3.023913033792506,2.7107691892351093,NA,2.800999940186739,0.09600000139325857,2.215000030052449,3.184285742895944,9.747333316504955,3.322000111391147,3.2699999863183815,3.3548275860154937,3.023913033792506,2.7107691892351093,NA,2.800999940186739,0.09600000139325857,2.215000030052449,3.184285742895944,9.747333316504955,14.127999909718831,16.577894737845973,23.326724126421173,24.582608637602434,20.758846099560078,NA,17.294000148773193,18.596000099182127,16.114285741533553,14.73428589957101,8.403999853134156,15.638666534423828,14.72052644428454,23.886379324156664,28.65739158962084,25.406153972332294,NA,23.953999710083007,24.068000030517577,28.255714416503906,23.448571068899973,17.88400001525879,10.178333276510239,9.0797369260537,18.048103431175495,23.242391441179358,20.101730878536518,NA,19.03099980354309,17.399500012397766,21.718571492603846,17.502856969833374,12.971666709582012,4.718000018596649,3.43894740782286,12.209827538194327,17.82739129273788,14.797307784740742,NA,14.107999897003173,10.730999994277955,15.181428568703788,11.557142870766777,8.059333403905233,2.2770442614271493,1.9785003418495781,5.0993418331634315,8.526015629521956,8.731709079556762,NA,9.302848348355294,8.529247776233554,11.716357857593895,8.673042937967606,3.3211088591864706,2.2770442614271493,1.9785003418495781,5.0993418331634315,8.526015629521956,8.731709079556762,NA,9.302848348355294,8.529247776233554,11.716357857593895,8.673042937967606,3.3211088591864706,0,0,295.76182632347894,491.86018580248407,718.8846218709597,NA,811.9131053545126,897.2055831168482,1061.2345931231628,1121.945893688936,1121.945893688936,0,0,0.7127499991449817,0.9924565232318381,0.9336538479878352,NA,0.8655499887466431,0.7245000004768372,0.931107142993382,0.655285702432905,0.04753333409627279,1,1,1,1,1,NA,1,1,1,1,1,0.17123333056767784,0.12673684735047192,0.7127499991449817,0.9924565232318381,0.9336538479878352,NA,0.8655499887466431,0.7245000004768372,0.931107142993382,0.655285702432905,0.34153333663940433,1,1,1,1,0.9999999999999999,NA,0.9999999999999999,0.9999999999999999,0.9999999999999999,1,1,2017-04-02T12:00:00Z,2017-04-17T12:00:00Z,2017-05-06T12:00:00Z,2017-07-03T12:00:00Z,2017-07-26T12:00:00Z,NA,2017-08-21T12:00:00Z,2017-08-31T12:00:00Z,2017-09-10T12:00:00Z,2017-09-24T12:00:00Z,2017-10-01T12:00:00Z,2017-04-16T12:00:00Z,2017-05-05T12:00:00Z,2017-07-02T12:00:00Z,2017-07-25T12:00:00Z,2017-08-20T12:00:00Z,NA,2017-08-30T12:00:00Z,2017-09-09T12:00:00Z,2017-09-23T12:00:00Z,2017-09-30T12:00:00Z,2017-10-15T12:00:00Z,92,107,126,184,207,NA,233,243,253,267,274,14,18,57,22,25,0,9,9,13,6,14,106,125,183,206,232,NA,242,252,266,273,288
426,kanawha_ia,42.9333,-93.7924,-1.5,2018,13,2018,mid000,192.7560515430942,11,2018-04-18,2018-05-02,74,2018-07-15,2018-07-18,2018-08-01,Harvested at Maturity.,3.008000014225642,7.337999848276377,NA,3.5940000491216777,5.7373684125119135,0.5400000214576721,11.90499983727932,5.845000006258488,3.5507692416700034,0.8733333125710487,3.0600000540415446,3.008000014225642,7.337999848276377,NA,3.5940000491216777,5.7373684125119135,0.5400000214576721,11.90499983727932,5.845000006258488,3.5507692416700034,0.8733333125710487,3.0600000540415446,22.646000099182128,23.386000061035155,NA,20.00550012588501,23.320000046177913,24.84000015258789,17.333750009536743,20.3083332379659,25.56153854956994,22.51666704813639,23.694666608174643,15.665333306789398,23.852000427246093,NA,23.843500185012818,27.756315632870322,31.520000457763672,25.365000009536743,27.98333295186361,28.318461931668796,27.793333689371746,24.99333330790202,8.779000001152356,16.47300033569336,NA,18.181000030040742,22.15184211730957,26.72000026702881,21.575625121593475,23.543333053588867,22.949615515195408,23.15500036875407,20.083000024159748,1.8926666955153146,9.094000244140625,NA,12.518499875068665,16.54736860174882,21.920000076293945,17.786250233650208,19.10333315531413,17.58076909872202,18.516667048136394,15.17266674041748,2.4552975208464267,6.544548974699974,NA,7.985337666952069,10.97736926317108,14.513343266910208,10.462852329085639,12.179098840621961,11.984082690348032,12.532056025724843,9.252666695912678,2.4552975208464267,6.544548974699974,NA,7.985337666952069,10.97736926317108,14.513343266910208,10.462852329085639,12.179098840621961,11.984082690348032,12.532056025724843,9.252666695912678,0,0,NA,159.70675333904137,368.2767693392919,382.7901126062021,466.4929312388872,539.5675242826189,695.3605992571432,732.9567673343178,732.9567673343178,0,0,NA,0.7140500020980836,0.9667368412017823,1,0.9571875035762787,1,1,1,0.06666666666666667,1,1,NA,1,1,1,1,1,1,1,1,0.136966667175293,0.647300033569336,NA,0.7140500020980836,0.9667368412017823,1,0.9571875035762787,1,1,1,0.9397999954223633,1,1,NA,1,1,1,1,1,1,0.9999999999999999,1,2018-04-18T12:00:00Z,2018-05-03T12:00:00Z,NA,2018-05-08T12:00:00Z,2018-05-28T12:00:00Z,2018-06-16T12:00:00Z,2018-06-17T12:00:00Z,2018-06-25T12:00:00Z,2018-07-01T12:00:00Z,2018-07-14T12:00:00Z,2018-07-17T12:00:00Z,2018-05-02T12:00:00Z,2018-05-07T12:00:00Z,NA,2018-05-27T12:00:00Z,2018-06-15T12:00:00Z,2018-06-16T12:00:00Z,2018-06-24T12:00:00Z,2018-06-30T12:00:00Z,2018-07-13T12:00:00Z,2018-07-16T12:00:00Z,2018-07-31T12:00:00Z,108,123,NA,128,148,167,168,176,182,195,198,14,4,0,19,18,0,7,5,12,2,14,122,127,NA,147,166,167,175,181,194,197,212
427,kanawha_ia,42.9333,-93.7924,-0.5,2018,13,2018,mid00,863.3329791186281,11,2018-04-18,2018-05-02,105,2018-08-15,2018-08-18,2018-09-01,Harvested at Maturity.,3.008000014225642,7.337999848276377,4.773529433152255,8.010624937713146,3.8744444406280913,NA,4.737500074785203,0.9233333563639058,3.9376922960464773,3.3333332538604736,7.3666667153437935,3.008000014225642,7.337999848276377,4.773529433152255,8.010624937713146,3.8744444406280913,NA,4.737500074785203,0.9233333563639058,3.9376922960464773,3.3333332538604736,7.3666667153437935,22.646000099182128,23.386000061035155,21.651764813591452,19.076249957084656,24.119444529215496,NA,23.77875006198883,24.228888829549152,21.608461746802696,12.243333498636881,15.709333356221517,15.665333306789398,23.852000427246093,25.518235346850226,26.32812488079071,28.55833360883925,NA,26.115000009536743,24.573333316379124,27.24769225487342,26.170000076293945,25.109333292643228,8.779000001152356,16.47300033569336,19.873088268672717,21.919999986886978,23.359722322887844,NA,21.59250020980835,19.391666571299236,21.836538461538463,22.626667022705078,20.133999983469646,1.8926666955153146,9.094000244140625,14.22794119049521,17.511875092983246,18.161111036936443,NA,17.070000410079956,14.209999826219347,16.4253846682035,19.08333396911621,15.158666674296061,2.4552975208464267,6.544548974699974,8.819962819529337,10.040319957228,11.577214310995755,NA,10.655544619518203,9.246682840819137,11.87630346335918,12.626667022705078,9.30433333714803,2.4552975208464267,6.544548974699974,8.819962819529337,10.040319957228,11.577214310995755,NA,10.655544619518203,9.246682840819137,11.87630346335918,12.626667022705078,9.30433333714803,0,0,299.87873586399746,460.52385517964547,668.9137127775692,NA,754.1580697337149,837.3782153010873,991.7701603247566,1029.6501613928715,1029.6501613928715,0,0,0.8168970584869385,0.9707500040531158,1,NA,1,0.8996666590372722,0.9795769214630127,1,0.06666666666666667,1,1,1,1,1,NA,1,1,1,1,1,0.136966667175293,0.647300033569336,0.8168970584869385,0.9707500040531158,1,NA,1,0.8996666590372722,0.9795769214630127,1,0.8806333255767822,1,1,1,1,0.9999999999999999,NA,1,1,1,0.9999999999999999,1,2018-04-18T12:00:00Z,2018-05-03T12:00:00Z,2018-05-08T12:00:00Z,2018-06-11T12:00:00Z,2018-06-27T12:00:00Z,NA,2018-07-15T12:00:00Z,2018-07-23T12:00:00Z,2018-08-01T12:00:00Z,2018-08-14T12:00:00Z,2018-08-17T12:00:00Z,2018-05-02T12:00:00Z,2018-05-07T12:00:00Z,2018-06-10T12:00:00Z,2018-06-26T12:00:00Z,2018-07-14T12:00:00Z,NA,2018-07-22T12:00:00Z,2018-07-31T12:00:00Z,2018-08-13T12:00:00Z,2018-08-16T12:00:00Z,2018-08-31T12:00:00Z,108,123,128,162,178,NA,196,204,213,226,229,14,4,33,15,17,0,7,8,12,2,14,122,127,161,177,195,NA,203,212,225,228,243
428,kanawha_ia,42.9333,-93.7924,0.5,2018,13,2018,mid0,987.5186576925798,11,2018-04-18,2018-05-02,108,2018-08-18,2018-08-22,2018-09-05,Harvested at Maturity.,3.008000014225642,7.337999848276377,4.703055575489998,7.133529353667708,3.88555555149085,0.07999999821186066,4.98000008923312,0.9537499968428165,4.546666637063026,13.017500132322311,9.351999911665917,3.008000014225642,7.337999848276377,4.703055575489998,7.133529353667708,3.88555555149085,0.07999999821186066,4.98000008923312,0.9537499968428165,4.546666637063026,13.017500132322311,9.351999911665917,22.646000099182128,23.386000061035155,21.486388974719578,19.70764704311595,24.87222237057156,24.739999771118164,23.673333168029785,21.68875014781952,19.492500225702923,14.949999928474426,14.65933338801066,15.665333306789398,23.852000427246093,25.568333387374878,26.8517645667581,28.263889206780327,25.260000228881836,24.778888914320206,25.586249589920044,27.25666681925456,25.542499542236328,25.14733339945475,8.779000001152356,16.47300033569336,19.95888893471824,22.382941133835736,23.12916678852505,20.76500034332275,20.053333441416424,20.056874752044678,22.40375018119812,20.892499804496765,20.667000007629394,1.8926666955153146,9.094000244140625,14.349444482061598,17.914117700913373,17.994444370269775,16.270000457763672,15.327777968512642,14.527499914169312,17.55083354314168,16.242500066757202,16.186666615804036,2.4552975208464267,6.544548974699974,8.228131937229003,9.493793282622773,10.650560248787183,9.20956510571564,9.018902822610485,9.606954808047977,12.346575701540289,10.894900753574072,10.181666692097982,2.4552975208464267,6.544548974699974,8.228131937229003,9.493793282622773,10.650560248787183,9.20956510571564,9.018902822610485,9.606954808047977,12.346575701540289,10.894900753574072,10.181666692097982,0,0,296.21274974024413,457.60723554483127,649.3173200230008,658.5268851287165,739.6970105322107,816.5526489965946,964.711557415078,1008.2911604293744,1008.2911604293744,0,0,0.827069444126553,0.9724705920499914,1,1,0.9326111104753283,0.9297499895095825,1,0.9477499842643737,0.04853333155314128,1,1,1,1,1,1,1,1,1,1,1,0.136966667175293,0.647300033569336,0.827069444126553,0.9724705920499914,1,1,0.9326111104753283,0.9297499895095825,1,0.9477499842643737,0.8945666631062825,1,1,1,0.9999999999999999,1,0.9999999999999998,1,1,0.9999999999999999,1,1,2018-04-18T12:00:00Z,2018-05-03T12:00:00Z,2018-05-08T12:00:00Z,2018-06-13T12:00:00Z,2018-06-30T12:00:00Z,2018-07-18T12:00:00Z,2018-07-19T12:00:00Z,2018-07-28T12:00:00Z,2018-08-05T12:00:00Z,2018-08-17T12:00:00Z,2018-08-21T12:00:00Z,2018-05-02T12:00:00Z,2018-05-07T12:00:00Z,2018-06-12T12:00:00Z,2018-06-29T12:00:00Z,2018-07-17T12:00:00Z,2018-07-18T12:00:00Z,2018-07-27T12:00:00Z,2018-08-04T12:00:00Z,2018-08-16T12:00:00Z,2018-08-20T12:00:00Z,2018-09-04T12:00:00Z,108,123,128,164,181,199,200,209,217,229,233,14,4,35,16,17,0,8,7,11,3,14,122,127,163,180,198,199,208,216,228,232,247
429,kanawha_ia,42.9333,-93.7924,1.5,2018,13,2018,mid1,1296.6279291539856,11,2018-04-18,2018-05-02,125,2018-09-04,2018-09-09,2018-09-23,Harvested at Maturity.,3.008000014225642,7.337999848276377,4.524146360595052,7.359047560198676,2.721600034609437,0,7.077142843178341,1.8657142434801375,8.555000022985041,13.869999885559082,8.392666512603562,3.008000014225642,7.337999848276377,4.524146360595052,7.359047560198676,2.721600034609437,0,7.077142843178341,1.8657142434801375,8.555000022985041,13.869999885559082,8.392666512603562,22.646000099182128,23.386000061035155,21.734878144613127,21.339523814973376,23.688800010681152,25.280000686645508,19.44142872946603,18.56000014713832,14.770625054836273,12.42199993133545,17.474666341145834,15.665333306789398,23.852000427246093,26.014146362862935,26.570952460879372,26.292800064086915,30.1299991607666,27.252857208251953,27.15428570338658,25.073750019073486,22.618000030517578,24.920000139872233,8.779000001152356,16.47300033569336,20.434390271582256,22.104761918385822,21.20040006637573,22.299999713897705,22.428571496691024,22.432143007005966,20.37125000357628,18.84099998474121,19.52100005149841,1.8926666955153146,9.094000244140625,14.854634180301574,17.638571375892276,16.108000068664552,14.470000267028809,17.60428578513009,17.71000031062535,15.668749988079071,15.063999938964844,14.121999963124592,2.4552975208464267,6.544548974699974,7.623834583794713,8.359888433393708,8.84520416568527,11.040239949887818,11.598958999485088,12.33117487740693,10.658356499073282,9.313048993190527,9.300573207261165,2.4552975208464267,6.544548974699974,7.623834583794713,8.359888433393708,8.84520416568527,11.040239949887818,11.598958999485088,12.33117487740693,10.658356499073282,9.313048993190527,9.300573207261165,0,0,312.5772179355831,488.134875036851,709.2649791789826,720.3052191288704,801.497932125266,887.8161562671144,1058.3498602522868,1104.9151052182397,1104.9151052182397,0,0,0.8450975615803789,0.9836904775528681,0.9532599964141846,1,1,1,0.8880937427282334,0.7803000068664551,0.038566665649414064,1,1,1,1,1,1,1,1,1,1,1,0.136966667175293,0.647300033569336,0.8450975615803789,0.9836904775528681,0.9532599964141846,1,1,1,0.8880937427282334,0.7803000068664551,0.7899000056584676,1,1,0.9999999999999999,1,0.9999999999999999,1,1,0.9999999999999999,1,1,1,2018-04-18T12:00:00Z,2018-05-03T12:00:00Z,2018-05-08T12:00:00Z,2018-06-18T12:00:00Z,2018-07-09T12:00:00Z,2018-08-03T12:00:00Z,2018-08-04T12:00:00Z,2018-08-11T12:00:00Z,2018-08-18T12:00:00Z,2018-09-03T12:00:00Z,2018-09-08T12:00:00Z,2018-05-02T12:00:00Z,2018-05-07T12:00:00Z,2018-06-17T12:00:00Z,2018-07-08T12:00:00Z,2018-08-02T12:00:00Z,2018-08-03T12:00:00Z,2018-08-10T12:00:00Z,2018-08-17T12:00:00Z,2018-09-02T12:00:00Z,2018-09-07T12:00:00Z,2018-09-22T12:00:00Z,108,123,128,169,190,215,216,223,230,246,251,14,4,40,20,24,0,6,6,15,4,14,122,127,168,189,214,215,222,229,245,250,265
430,kanawha_ia,42.9333,-93.7924,2.5,2018,13,2018,mid2,1488.4030262246624,11,2018-04-18,2018-05-02,138,2018-09-17,2018-09-21,2018-10-05,Harvested at Maturity.,3.008000014225642,7.337999848276377,5.770217388868332,3.8035999907553197,3.734230794585668,0,6.933333367109299,7.055000027641654,6.279999935883097,21.77249965071678,4.923333238065243,3.008000014225642,7.337999848276377,5.770217388868332,3.8035999907553197,3.734230794585668,0,6.933333367109299,7.055000027641654,6.279999935883097,21.77249965071678,4.923333238065243,22.646000099182128,23.386000061035155,20.919130511905838,23.758400077819825,22.486923144413876,23.829999923706055,14.858888891008165,15.441250145435333,16.340624809265137,12.887499570846558,11.175333293279012,15.665333306789398,23.852000427246093,25.884347853453264,27.800400161743163,25.87692304757925,28.729999542236328,25.091110865275066,25.162500143051147,24.646875023841858,27.502500534057617,17.237333424886067,8.779000001152356,16.47300033569336,20.511847874392632,22.872400035858153,20.761923111402073,22.854999542236328,20.619444423251682,20.084375083446503,20.017499953508377,23.012500286102295,11.977333374818166,1.8926666955153146,9.094000244140625,15.139347895332005,17.944399909973143,15.646923175224892,16.979999542236328,16.147777981228298,15.006250023841858,15.388124883174896,18.522500038146973,6.717333324750265,2.4552975208464267,6.544548974699974,6.504340234012676,7.764460475226741,8.505098229741472,11.85625658171524,10.483269169331715,10.457907308874278,10.477338427088782,13.012500286102295,2.3491851004236937,2.4552975208464267,6.544548974699974,6.504340234012676,7.764460475226741,8.505098229741472,11.85625658171524,10.483269169331715,10.457907308874278,10.477338427088782,13.012500286102295,2.3491851004236937,0,0,299.1996507645831,493.3111626452518,714.4437166185298,726.2999732002451,820.6493957242304,904.3126541952246,1071.950069028645,1124.0000701730542,1124.0000701730542,0,0,0.8546521746593972,0.9997000007629394,0.9550576888597929,1,0.9114999877081977,0.8757499992847443,0.8461562544107437,1,0.06666666666666667,1,1,1,1,1,1,1,1,1,1,1,0.136966667175293,0.647300033569336,0.8546521746593972,0.9997000007629394,0.9550576888597929,1,0.9114999877081977,0.8757499992847443,0.8461562544107437,1,0.24576666990915935,1,1,1,1,0.9999999999999999,1,1,1,1,1,1,2018-04-18T12:00:00Z,2018-05-03T12:00:00Z,2018-05-08T12:00:00Z,2018-06-23T12:00:00Z,2018-07-18T12:00:00Z,2018-08-13T12:00:00Z,2018-08-14T12:00:00Z,2018-08-23T12:00:00Z,2018-08-31T12:00:00Z,2018-09-16T12:00:00Z,2018-09-20T12:00:00Z,2018-05-02T12:00:00Z,2018-05-07T12:00:00Z,2018-06-22T12:00:00Z,2018-07-17T12:00:00Z,2018-08-12T12:00:00Z,2018-08-13T12:00:00Z,2018-08-22T12:00:00Z,2018-08-30T12:00:00Z,2018-09-15T12:00:00Z,2018-09-19T12:00:00Z,2018-10-04T12:00:00Z,108,123,128,174,199,225,226,235,243,259,263,14,4,45,24,25,0,8,7,15,3,14,122,127,173,198,224,225,234,242,258,262,277
431,kanawha_ia,42.9333,-93.7924,-1.5,2019,13,2019,mid000,192.0894660241893,11,2019-03-27,2019-04-10,108,2019-07-27,2019-07-30,2019-08-13,Harvested at Maturity.,2.343999998519818,2.689130400509938,NA,5.572727248806394,3.705416644224897,NA,3.905714290482657,1.4199999812990427,4.3066666894592345,3.0299998869498572,1.9706666763871907,2.343999998519818,2.689130400509938,NA,5.572727248806394,3.705416644224897,NA,3.905714290482657,1.4199999812990427,4.3066666894592345,3.0299998869498572,1.9706666763871907,14.684000237782797,16.410434826560643,NA,18.97181817257043,20.121249973773956,NA,22.24428531101772,24.73285702296666,21.799999793370564,21.78333282470703,22.220666631062826,11.777333196004232,14.06782607410265,NA,19.794242396499172,24.149583498636883,NA,27.751428604125977,27.071428571428573,27.227500120798748,28.3733336130778,25.95799992879232,6.369666597247123,8.030434786949469,NA,14.19939391992309,19.450000097354252,NA,24.472142900739396,22.502857072012766,23.11875009536743,24.169999758402508,21.224666690826417,0.9619999984900157,1.993043499796287,NA,8.604545443347007,14.750416696071625,NA,21.19285719735282,17.93428557259696,19.010000069936115,19.966665903727215,16.491333452860513,1.2509592716377724,1.6774410909593955,NA,4.814953938033144,8.62732459534925,NA,13.30056678815398,11.714628243132552,12.629158162197346,14.163776210210914,10.588333384195964,1.2509592716377724,1.6774410909593955,NA,4.814953938033144,8.62732459534925,NA,13.30056678815398,11.714628243132552,12.629158162197346,14.163776210210914,10.588333384195964,0,0,NA,158.89347995509377,365.9492702434759,NA,459.05323776055377,541.0556354624816,692.6055334088497,735.0968620394825,735.0968620394825,0,0,NA,0.44003030061721804,0.8450625071922938,NA,1,1,0.974958332379659,1,0.06363333066304526,1,1,NA,1,1,NA,1,1,1,1,1,0.07313332478205363,0.0870000025500422,NA,0.44003030061721804,0.8450625071922938,NA,1,1,0.974958332379659,1,0.9621333312988282,1,1,NA,1,0.9999999999999999,NA,1,0.9999999999999999,0.9999999999999998,1,1,2019-03-27T12:00:00Z,2019-04-11T12:00:00Z,NA,2019-05-04T12:00:00Z,2019-06-06T12:00:00Z,NA,2019-06-30T12:00:00Z,2019-07-07T12:00:00Z,2019-07-14T12:00:00Z,2019-07-26T12:00:00Z,2019-07-29T12:00:00Z,2019-04-10T12:00:00Z,2019-05-03T12:00:00Z,NA,2019-06-05T12:00:00Z,2019-06-29T12:00:00Z,NA,2019-07-06T12:00:00Z,2019-07-13T12:00:00Z,2019-07-25T12:00:00Z,2019-07-28T12:00:00Z,2019-08-12T12:00:00Z,86,101,NA,124,157,NA,181,188,195,207,210,14,22,0,32,23,0,6,6,11,2,14,100,123,NA,156,180,NA,187,194,206,209,224
432,kanawha_ia,42.9333,-93.7924,-0.5,2019,13,2019,mid00,807.4805403812725,11,2019-03-27,2019-04-10,138,2019-08-26,2019-08-31,2019-09-14,Harvested at Maturity.,2.343999998519818,2.689130400509938,4.798867896128938,3.52846155458918,3.62235294961754,0.3700000047683716,1.2757142375090293,2.7000000045767854,3.2113333839923146,0.4759999763220549,4.536000030363599,2.343999998519818,2.689130400509938,4.798867896128938,3.52846155458918,3.62235294961754,0.3700000047683716,1.2757142375090293,2.7000000045767854,3.2113333839923146,0.4759999763220549,4.536000030363599,14.684000237782797,16.410434826560643,19.47113207151305,22.190768975477955,22.29235273249009,26.709999084472656,22.8271427154541,25.16857147216797,18.2646666208903,18.596000099182127,14.367333285013835,11.777333196004232,14.06782607410265,21.109811386972105,27.82846157367413,27.21764710370232,28.229999542236328,26.030000141688756,26.64999989100865,24.725999959309895,23.110000228881837,23.38000005086263,6.369666597247123,8.030434786949469,15.858301930270105,23.883461512052097,22.979705922743854,23.51499938964844,21.174285752432688,21.750714233943395,20.292999998728433,18.13700008392334,18.767666721343993,0.9619999984900157,1.993043499796287,10.606792473568106,19.938461450430065,18.741764741785385,18.799999237060547,16.31857136317662,16.85142857687814,15.860000038146973,13.163999938964842,14.155333391825359,1.2509592716377724,1.6774410909593955,5.641678111567175,11.982608972887325,11.779568572203821,12.950666744609755,11.076482182291702,11.81019559096098,10.382666728599073,8.459465508599282,8.370333353678387,1.2509592716377724,1.6774410909593955,5.641678111567175,11.982608972887325,11.779568572203821,12.950666744609755,11.076482182291702,11.81019559096098,10.382666728599073,8.459465508599282,8.370333353678387,0,0,299.00893991306026,454.78285656059546,655.0355222880607,667.9861890326705,745.5215643087123,828.1929334454392,983.9329343744251,1026.2302619174216,1026.2302619174216,0,0,0.5811792470374197,1,0.9823235287385829,1,0.9472142832619803,0.9716428552355085,0.9357666683197021,0.813700008392334,0.03973333676656087,1,1,1,1,1,1,1,1,1,1,1,0.07313332478205363,0.0870000025500422,0.5811792470374197,1,0.9823235287385829,1,0.9472142832619803,0.9716428552355085,0.9357666683197021,0.813700008392334,0.8099666659037272,1,1,1,1,1,1,1,1,1,1,1,2019-03-27T12:00:00Z,2019-04-11T12:00:00Z,2019-05-04T12:00:00Z,2019-06-26T12:00:00Z,2019-07-09T12:00:00Z,2019-07-26T12:00:00Z,2019-07-27T12:00:00Z,2019-08-03T12:00:00Z,2019-08-10T12:00:00Z,2019-08-25T12:00:00Z,2019-08-30T12:00:00Z,2019-04-10T12:00:00Z,2019-05-03T12:00:00Z,2019-06-25T12:00:00Z,2019-07-08T12:00:00Z,2019-07-25T12:00:00Z,2019-07-26T12:00:00Z,2019-08-02T12:00:00Z,2019-08-09T12:00:00Z,2019-08-24T12:00:00Z,2019-08-29T12:00:00Z,2019-09-13T12:00:00Z,86,101,124,177,190,207,208,215,222,237,242,14,22,52,12,16,0,6,6,14,4,14,100,123,176,189,206,207,214,221,236,241,256
433,kanawha_ia,42.9333,-93.7924,0.5,2019,13,2019,mid0,861.161343138237,11,2019-03-27,2019-04-10,142,2019-08-30,2019-09-04,2019-09-18,Harvested at Maturity.,2.343999998519818,2.689130400509938,4.710370342488642,3.4519999984651806,3.808235296322142,0.18000000715255737,2.642857146848525,1.5542857301022326,2.499375033425167,0.2820000037550926,4.5926666934043165,2.343999998519818,2.689130400509938,4.710370342488642,3.4519999984651806,3.808235296322142,0.18000000715255737,2.642857146848525,1.5542857301022326,2.499375033425167,0.2820000037550926,4.5926666934043165,14.684000237782797,16.410434826560643,19.480925922040587,22.702666409810384,21.89764679179472,27.38999938964844,23.57285717555455,20.12999997820173,19.247500002384186,16.608000183105467,14.308666610717774,11.777333196004232,14.06782607410265,21.223888962357133,27.530666732788085,27.609411800608914,24.719999313354492,26.182857240949357,25.90999984741211,23.998125076293945,23.060000228881837,24.56999994913737,6.369666597247123,8.030434786949469,15.96527782468884,23.647333335876464,23.370882314794205,19.544999599456787,21.335714408329554,21.35357141494751,19.327812522649765,18.045000076293945,19.751000022888185,0.9619999984900157,1.993043499796287,10.70666668702055,19.763999938964844,19.132352828979492,14.369999885559082,16.488571575709752,16.79714298248291,14.657499969005585,13.029999923706054,14.932000096638998,1.2509592716377724,1.6774410909593955,5.2815448004912104,10.87317499161394,11.522342769693438,8.81742564819998,10.940764789192613,11.363583005580356,9.493296972786636,8.646653001177311,9.122666708628337,1.2509592716377724,1.6774410909593955,5.2815448004912104,10.87317499161394,11.522342769693438,8.81742564819998,10.940764789192613,11.363583005580356,9.493296972786636,8.646653001177311,9.122666708628337,0,0,285.2034192265254,448.30104410073454,644.1808711855231,652.9982968337231,729.5836503580714,809.128731397134,961.02148296172,1004.2547479676066,1004.2547479676066,0,0,0.5889351869070971,1,0.9823235287385829,0.9544999599456788,0.9537142889840262,0.9716428552355085,0.8881562560796737,0.7675000000000001,0.06283333142598471,1,1,1,1,1,1,1,1,1,1,1,0.07313332478205363,0.0870000025500422,0.5889351869070971,1,0.9823235287385829,0.9544999599456788,0.9537142889840262,0.9716428552355085,0.8881562560796737,0.7675000000000001,0.8661999988555908,1,1,1,1,1,0.9999999999999998,1,0.9999999999999999,0.9999999999999999,1,1,2019-03-27T12:00:00Z,2019-04-11T12:00:00Z,2019-05-04T12:00:00Z,2019-06-27T12:00:00Z,2019-07-12T12:00:00Z,2019-07-29T12:00:00Z,2019-07-30T12:00:00Z,2019-08-06T12:00:00Z,2019-08-13T12:00:00Z,2019-08-29T12:00:00Z,2019-09-03T12:00:00Z,2019-04-10T12:00:00Z,2019-05-03T12:00:00Z,2019-06-26T12:00:00Z,2019-07-11T12:00:00Z,2019-07-28T12:00:00Z,2019-07-29T12:00:00Z,2019-08-05T12:00:00Z,2019-08-12T12:00:00Z,2019-08-28T12:00:00Z,2019-09-02T12:00:00Z,2019-09-17T12:00:00Z,86,101,124,178,193,210,211,218,225,241,246,14,22,53,14,16,0,6,6,15,4,14,100,123,177,192,209,210,217,224,240,245,260
434,kanawha_ia,42.9333,-93.7924,1.5,2019,13,2019,mid1,1125.7603224354796,11,2019-03-27,2019-04-10,160,2019-09-17,2019-09-20,2019-10-04,Harvested at Maturity.,2.343999998519818,2.689130400509938,4.7410169284222485,3.876666671182546,2.0404545356604187,0.8399999737739563,2.6125000102911144,2.700000054513415,3.882222245240377,8.286666846523682,6.911999957884351,2.343999998519818,2.689130400509938,4.7410169284222485,3.876666671182546,2.0404545356604187,0.8399999737739563,2.6125000102911144,2.700000054513415,3.882222245240377,8.286666846523682,6.911999957884351,14.684000237782797,16.410434826560643,19.577966067750577,23.164999855889214,23.073181629180908,9.829999923706056,18.111250162124634,19.07111093733046,14.647777769300673,14.140000025431315,10.895333242416381,11.777333196004232,14.06782607410265,21.895084801366774,27.735000080532497,26.188636346296832,26.049999237060547,24.762500047683716,23.378889083862305,23.79388893975152,27.343332926432293,21.59000040690104,6.369666597247123,8.030434786949469,16.744745782371293,23.901388963063557,21.322272712534126,23.31999969482422,20.52812498807907,18.550555653042263,18.92805560429891,23.041666348775227,17.010666886965435,0.9619999984900157,1.993043499796287,11.594406763375815,20.06777784559462,16.45590907877142,20.59000015258789,16.293749928474426,13.722222222222221,14.0622222688463,18.739999771118164,12.431333367029826,1.2509592716377724,1.6774410909593955,5.206940571245382,10.204455641337821,9.855647927436754,12.931887841064542,10.486048380793536,8.84262001116342,9.381518715087573,13.041666348775227,6.364830023495654,1.2509592716377724,1.6774410909593955,5.206940571245382,10.204455641337821,9.855647927436754,12.931887841064542,10.486048380793536,8.84262001116342,9.381518715087573,13.041666348775227,6.364830023495654,0,0,307.20949370347756,490.8896952475584,707.7139496511669,720.6458374922314,804.5342245385797,884.1178046390504,1052.9851415106268,1092.1101405569525,1092.1101405569525,0,0,0.6237711880166652,1,0.9605227253653786,1,0.9793124973773957,0.8195555686950684,0.8239166657129924,1,0.06666666666666667,1,1,1,1,1,1,1,1,1,1,1,0.07313332478205363,0.0870000025500422,0.6237711880166652,1,0.9605227253653786,1,0.9793124973773957,0.8195555686950684,0.8239166657129924,1,0.6063333495457968,1,1,1,0.9999999999999999,1,1,1,0.9999999999999999,1,1,1,2019-03-27T12:00:00Z,2019-04-11T12:00:00Z,2019-05-04T12:00:00Z,2019-07-02T12:00:00Z,2019-07-20T12:00:00Z,2019-08-11T12:00:00Z,2019-08-12T12:00:00Z,2019-08-20T12:00:00Z,2019-08-29T12:00:00Z,2019-09-16T12:00:00Z,2019-09-19T12:00:00Z,2019-04-10T12:00:00Z,2019-05-03T12:00:00Z,2019-07-01T12:00:00Z,2019-07-19T12:00:00Z,2019-08-10T12:00:00Z,2019-08-11T12:00:00Z,2019-08-19T12:00:00Z,2019-08-28T12:00:00Z,2019-09-15T12:00:00Z,2019-09-18T12:00:00Z,2019-10-03T12:00:00Z,86,101,124,183,201,223,224,232,241,259,262,14,22,58,17,21,0,7,8,17,2,14,100,123,182,200,222,223,231,240,258,261,276
435,kanawha_ia,42.9333,-93.7924,2.5,2019,13,2019,mid2,1358.8221262023606,11,2019-03-27,2019-04-10,170,2019-09-27,2019-10-05,2019-10-19,Harvested at Maturity.,2.343999998519818,2.689130400509938,4.754920614144159,2.850454552776434,3.155000019042442,0.119999997317791,0.30454544604501943,2.5344444076634116,7.412000114594896,7.92499986384064,3.611999949812889,2.343999998519818,2.689130400509938,4.754920614144159,2.850454552776434,3.155000019042442,0.119999997317791,0.30454544604501943,2.5344444076634116,7.412000114594896,7.92499986384064,3.611999949812889,14.684000237782797,16.410434826560643,19.70047613931081,23.180454297499224,21.07083336512248,8.59000015258789,19.017272689125754,14.707777553134495,12.694666767120362,9.772499769926071,11.143999926249187,11.777333196004232,14.06782607410265,22.236349257211838,27.271818247708406,25.779166618982952,22.93000030517578,22.585454767400567,23.978888829549152,25.20933354695638,18.878750324249268,13.771333456039429,6.369666597247123,8.030434786949469,17.207777805271604,22.97954546321522,21.181458314259846,18.660000324249268,17.588636441664264,19.190555625491672,20.589000097910564,14.383125141263008,8.249666729569435,0.9619999984900157,1.993043499796287,12.179206353331368,18.687272678722035,16.583750009536743,14.390000343322754,12.591818115927955,14.40222242143419,15.968666648864748,9.887499958276749,2.7280000030994414,1.2509592716377724,1.6774410909593955,4.667326742653623,8.623320462460818,9.778711795754484,8.66000032424927,8.098749783954837,9.521328917150365,10.954055784975687,6.853387793034315,1.554700486566412,1.2509592716377724,1.6774410909593955,4.667326742653623,8.623320462460818,9.778711795754484,8.66000032424927,8.098749783954837,9.521328917150365,10.954055784975687,6.853387793034315,1.554700486566412,0,0,294.0415847871783,483.7546349613163,718.4437180594239,727.1037183836731,816.1899660071763,901.8819262615297,1066.1927630361647,1121.0198653804391,1121.0198653804391,0,0,0.6476587316346547,0.9863409085707231,0.9694374978542328,0.8660000324249268,0.7588636441664263,0.8544999970330133,0.8784333388010661,0.40262502133846284,0,1,1,1,1,1,1,1,1,1,1,1,0.07313332478205363,0.0870000025500422,0.6476587316346547,0.9863409085707231,0.9694374978542328,0.8660000324249268,0.7588636441664263,0.8544999970330133,0.8784333388010661,0.40262502133846284,0.10150000413258871,1,1,1,0.9999999999999999,1,1,0.9999999999999999,1,1,1,1,2019-03-27T12:00:00Z,2019-04-11T12:00:00Z,2019-05-04T12:00:00Z,2019-07-06T12:00:00Z,2019-07-28T12:00:00Z,2019-08-21T12:00:00Z,2019-08-22T12:00:00Z,2019-09-02T12:00:00Z,2019-09-11T12:00:00Z,2019-09-26T12:00:00Z,2019-10-04T12:00:00Z,2019-04-10T12:00:00Z,2019-05-03T12:00:00Z,2019-07-05T12:00:00Z,2019-07-27T12:00:00Z,2019-08-20T12:00:00Z,2019-08-21T12:00:00Z,2019-09-01T12:00:00Z,2019-09-10T12:00:00Z,2019-09-25T12:00:00Z,2019-10-03T12:00:00Z,2019-10-18T12:00:00Z,86,101,124,187,209,233,234,245,254,269,277,14,22,62,21,23,0,10,8,14,7,14,100,123,186,208,232,233,244,253,268,276,291
436,kanawha_ia,42.9333,-93.7924,-1.5,2020,13,2020,mid000,212.3738322722347,11,2020-05-02,2020-05-16,72,2020-07-27,2020-07-30,2020-08-13,Harvested at Maturity.,3.0026666233936945,4.689999987504312,NA,4.756875014747493,5.929999949854045,0.20999999344348907,0.10666666552424431,2.479999933391809,1.6576923156300416,1.743333372597893,1.1379999972879886,3.0026666233936945,4.689999987504312,NA,4.756875014747493,5.929999949854045,0.20999999344348907,0.10666666552424431,2.479999933391809,1.6576923156300416,1.743333372597893,1.1379999972879886,19.370000139872232,11.471428734915596,NA,23.757499933242798,22.969523793175107,16.920000076293945,26.303333282470703,23.651666482289635,22.9499998826247,21.56999969482422,21.080666732788085,15.83466657002767,19.828571319580078,NA,26.368749976158142,25.551428476969402,26.90999984741211,28.880000114440918,28.641666412353516,27.54230807377742,29.099999745686848,25.78400001525879,10.172999968628089,15.404285635266985,NA,20.878750026226044,20.531428564162482,24.329999923706055,24.783333460489906,24.02666664123535,22.427307862501877,23.708333651224773,20.834333388010663,4.511333367228508,10.979999950953893,NA,15.388750076293945,15.511428651355562,21.75,20.6866668065389,19.411666870117188,17.312307651226337,18.316667556762695,15.884666760762533,2.3409947871364345,5.423700863455023,NA,10.045498303508818,9.567573923165417,13.117329082933336,13.638886551336398,13.067673264013782,11.943440912155852,13.671590548292796,9.915999838748773,2.3409947871364345,5.423700863455023,NA,10.045498303508818,9.567573923165417,13.117329082933336,13.638886551336398,13.067673264013782,11.943440912155852,13.671590548292796,9.915999838748773,0,0,NA,160.72797285614106,361.64702524261475,374.7643543255481,456.5976736335665,535.0037132176492,690.2684450756753,731.2832167205537,731.2832167205537,0,0,NA,0.882718750834465,0.9185714244842529,1,1,1,0.9896153853489802,1,0.06666666666666667,1,1,NA,1,1,1,1,1,1,1,1,0.1650999959309896,0.5404285635266985,NA,0.882718750834465,0.9185714244842529,1,1,1,0.9896153853489802,1,0.9308000055948893,1,1,NA,1,1,1,1,1,1,0.9999999999999999,1,2020-05-02T12:00:00Z,2020-05-17T12:00:00Z,NA,2020-05-24T12:00:00Z,2020-06-09T12:00:00Z,2020-06-30T12:00:00Z,2020-07-01T12:00:00Z,2020-07-07T12:00:00Z,2020-07-13T12:00:00Z,2020-07-26T12:00:00Z,2020-07-29T12:00:00Z,2020-05-16T12:00:00Z,2020-05-23T12:00:00Z,NA,2020-06-08T12:00:00Z,2020-06-29T12:00:00Z,2020-06-30T12:00:00Z,2020-07-06T12:00:00Z,2020-07-12T12:00:00Z,2020-07-25T12:00:00Z,2020-07-28T12:00:00Z,2020-08-12T12:00:00Z,123,138,NA,145,161,182,183,189,195,208,211,14,6,0,15,20,0,5,5,12,2,14,137,144,NA,160,181,182,188,194,207,210,225
437,kanawha_ia,42.9333,-93.7924,-0.5,2020,13,2020,mid00,820.1701053520574,11,2020-05-02,2020-05-16,101,2020-08-25,2020-08-27,2020-09-10,Harvested at Maturity.,3.0026666233936945,4.689999987504312,5.812727247618816,0.7623076923191547,2.295555545327564,NA,0.09499999764375389,2.3242857115609303,2.296153874208148,0.8050000164657831,4.73933331159254,3.0026666233936945,4.689999987504312,5.812727247618816,0.7623076923191547,2.295555545327564,NA,0.09499999764375389,2.3242857115609303,2.296153874208148,0.8050000164657831,4.73933331159254,19.370000139872232,11.471428734915596,23.572121157790676,23.810769154475285,22.234999921586777,NA,24.677500009536743,18.542857033865793,22.549999970656174,20.65999984741211,17.84933336575826,15.83466657002767,19.828571319580078,25.738181721080434,28.477692383986252,27.675555759006077,NA,25.87875008583069,26.51285716465541,28.02692281282865,34.510000228881836,24.85,10.172999968628089,15.404285635266985,20.340303016431402,24.519615540137657,22.705833435058594,NA,20.716250121593475,21.710714408329554,21.93499990609976,27.387499809265137,18.875666618347168,4.511333367228508,10.979999950953893,14.942424311782375,20.561538696289063,17.73611111111111,NA,15.553750157356262,16.908571652003697,15.843076999370869,20.264999389648438,12.901333236694336,2.3409947871364345,5.423700863455023,8.904269840893743,12.541191171234736,11.594526425213667,NA,10.739266405529323,11.688603543480806,11.940808947908879,14.163373879492283,7.7854955578655005,2.3409947871364345,5.423700863455023,8.904269840893743,12.541191171234736,11.594526425213667,NA,10.739266405529323,11.688603543480806,11.940808947908879,14.163373879492283,7.7854955578655005,0,0,293.8409047494935,456.8763899755451,665.577865629391,NA,751.4919968736255,833.312221677991,988.5427380008064,1016.869485759791,1016.869485759791,0,0,0.891318179621841,1,0.992500000529819,NA,0.9273125052452087,0.9347857202802385,0.9729999909034143,1,0.06666666666666667,1,1,1,1,1,NA,1,1,1,1,1,0.1650999959309896,0.5404285635266985,0.891318179621841,1,0.992500000529819,NA,0.9273125052452087,0.9347857202802385,0.9729999909034143,1,0.7486000061035156,1,1,1,1,1,NA,1,0.9999999999999999,0.9999999999999999,1,1,2020-05-02T12:00:00Z,2020-05-17T12:00:00Z,2020-05-24T12:00:00Z,2020-06-26T12:00:00Z,2020-07-09T12:00:00Z,NA,2020-07-27T12:00:00Z,2020-08-04T12:00:00Z,2020-08-11T12:00:00Z,2020-08-24T12:00:00Z,2020-08-26T12:00:00Z,2020-05-16T12:00:00Z,2020-05-23T12:00:00Z,2020-06-25T12:00:00Z,2020-07-08T12:00:00Z,2020-07-26T12:00:00Z,NA,2020-08-03T12:00:00Z,2020-08-10T12:00:00Z,2020-08-23T12:00:00Z,2020-08-25T12:00:00Z,2020-09-09T12:00:00Z,123,138,145,178,191,NA,209,217,224,237,239,14,6,32,12,17,0,7,6,12,1,14,137,144,177,190,208,NA,216,223,236,238,253
438,kanawha_ia,42.9333,-93.7924,0.5,2020,13,2020,mid0,885.1536421180672,11,2020-05-02,2020-05-16,103,2020-08-27,2020-08-30,2020-09-13,Harvested at Maturity.,3.0026666233936945,4.689999987504312,5.695428547742112,1.1957142576575277,1.5255555665741365,NA,0.11555555255876647,2.656666668752829,2.585000032093376,2.2233332792917886,5.606666644290089,3.0026666233936945,4.689999987504312,5.695428547742112,1.1957142576575277,1.5255555665741365,NA,0.11555555255876647,2.656666668752829,2.585000032093376,2.2233332792917886,5.606666644290089,19.370000139872232,11.471428734915596,23.522285652160644,23.42571428843907,22.925555335150825,NA,22.541111204359268,18.43333339691162,22.66416660944621,20.666666666666668,15.094000053405763,15.83466657002767,19.828571319580078,25.817142759050643,28.627142906188965,27.707777976989746,NA,24.533333672417534,28.089999516805012,29.271666526794434,33.43333307902018,21.274000104268392,10.172999968628089,15.404285635266985,20.481000001089914,24.533214364733013,22.645000139872234,NA,19.510000228881836,23.25666658083598,22.773749868075054,27.056666374206543,15.859333403905232,4.511333367228508,10.979999950953893,15.144857243129186,20.439285823277064,17.58222230275472,NA,14.486666785346136,18.423333644866943,16.27583320935567,20.679999669392902,10.444666703542074,2.3409947871364345,5.423700863455023,8.27272554667387,11.627667666091213,10.99331085392592,NA,9.447951214608072,13.097499323485295,12.242688675072788,14.766290699017048,5.730850389144421,2.3409947871364345,5.423700863455023,8.27272554667387,11.627667666091213,10.99331085392592,NA,9.447951214608072,13.097499323485295,12.242688675072788,14.766290699017048,5.730850389144421,0,0,289.54539413358543,452.3327414588625,650.2123368295291,NA,735.2438977610017,813.8288937019134,960.7411578027868,1005.040029899838,1005.040029899838,0,0,0.8975285693577357,1,0.992500000529819,NA,0.8858889049953884,0.9981666564941406,0.9707499901453654,1,0.059366668065389004,1,1,1,1,1,NA,1,1,1,1,1,0.1650999959309896,0.5404285635266985,0.8975285693577357,1,0.992500000529819,NA,0.8858889049953884,0.9981666564941406,0.9707499901453654,1,0.5960333442687988,1,1,0.9999999999999999,0.9999999999999999,1,NA,0.9999999999999999,1,1,1,1,2020-05-02T12:00:00Z,2020-05-17T12:00:00Z,2020-05-24T12:00:00Z,2020-06-28T12:00:00Z,2020-07-12T12:00:00Z,NA,2020-07-30T12:00:00Z,2020-08-08T12:00:00Z,2020-08-14T12:00:00Z,2020-08-26T12:00:00Z,2020-08-29T12:00:00Z,2020-05-16T12:00:00Z,2020-05-23T12:00:00Z,2020-06-27T12:00:00Z,2020-07-11T12:00:00Z,2020-07-29T12:00:00Z,NA,2020-08-07T12:00:00Z,2020-08-13T12:00:00Z,2020-08-25T12:00:00Z,2020-08-28T12:00:00Z,2020-09-12T12:00:00Z,123,138,145,180,194,NA,212,221,227,239,242,14,6,34,13,17,0,8,5,11,2,14,137,144,179,193,211,NA,220,226,238,241,256
439,kanawha_ia,42.9333,-93.7924,1.5,2020,13,2020,mid1,1178.2620912448976,11,2020-05-02,2020-05-16,121,2020-09-14,2020-09-21,2020-10-05,Harvested at Maturity.,3.0026666233936945,4.689999987504312,5.027249979274347,1.6961111069346466,1.2936363569884137,0.14000000059604645,1.1842857471534185,3.838333361161252,5.042777750123706,0.014285714498588018,0.32466666276256245,3.0026666233936945,4.689999987504312,5.027249979274347,1.6961111069346466,1.2936363569884137,0.14000000059604645,1.1842857471534185,3.838333361161252,5.042777750123706,0.014285714498588018,0.32466666276256245,19.370000139872232,11.471428734915596,23.194999957084654,23.957777712080215,21.959090839732777,16.260000228881836,23.527142660958425,21.041666666666668,16.02277782228258,16.698571341378347,13.054666519165039,15.83466657002767,19.828571319580078,26.007499933242798,28.41444460550944,26.578181873668324,26.149999618530273,27.031428473336355,31.97833315531413,23.300555600060356,21.998571395874023,20.672000058492024,10.172999968628089,15.404285635266985,20.933000016212464,23.594722350438435,21.576590993187644,20.894999980926514,21.029999937329976,25.25166654586792,17.725555565622116,15.437857151031494,14.795666646957397,4.511333367228508,10.979999950953893,15.858500099182129,18.77500009536743,16.575000112706963,15.640000343322754,15.02857140132359,18.52499993642171,12.150555531183878,8.877142906188965,8.919333235422771,2.3409947871364345,5.423700863455023,7.636622076136388,10.025467638676432,10.178788813785445,10.78760130916698,11.19927737803882,13.991816632181408,9.18203721391062,7.455243379747442,5.2339058112591506,2.3409947871364345,5.423700863455023,7.636622076136388,10.025467638676432,10.178788813785445,10.78760130916698,11.19927737803882,13.991816632181408,9.18203721391062,7.455243379747442,5.2339058112591506,0,0,305.46488304545557,485.9233005416313,709.856654444911,720.644255754078,799.0391974003498,882.9900971934383,1048.2667670438295,1100.4534707020616,1100.4534707020616,0,0,0.9103374981880188,0.9977222230699327,0.9485454581000589,1,0.9498571259634836,1,0.6633611202239991,0.5437857151031494,0.03843333244323731,1,1,1,1,1,1,1,1,1,1,1,0.1650999959309896,0.5404285635266985,0.9103374981880188,0.9977222230699327,0.9485454581000589,1,0.9498571259634836,1,0.6633611202239991,0.5437857151031494,0.5115666643778484,1,1,1,1,0.9999999999999999,1,0.9999999999999999,1,1,0.9999999999999999,1,2020-05-02T12:00:00Z,2020-05-17T12:00:00Z,2020-05-24T12:00:00Z,2020-07-03T12:00:00Z,2020-07-21T12:00:00Z,2020-08-12T12:00:00Z,2020-08-13T12:00:00Z,2020-08-20T12:00:00Z,2020-08-26T12:00:00Z,2020-09-13T12:00:00Z,2020-09-20T12:00:00Z,2020-05-16T12:00:00Z,2020-05-23T12:00:00Z,2020-07-02T12:00:00Z,2020-07-20T12:00:00Z,2020-08-11T12:00:00Z,2020-08-12T12:00:00Z,2020-08-19T12:00:00Z,2020-08-25T12:00:00Z,2020-09-12T12:00:00Z,2020-09-19T12:00:00Z,2020-10-04T12:00:00Z,123,138,145,185,203,225,226,233,239,257,264,14,6,39,17,21,0,6,5,17,6,14,137,144,184,202,224,225,232,238,256,263,278
440,kanawha_ia,42.9333,-93.7924,2.5,2020,13,2020,mid2,1483.0497712917895,11,2020-05-02,2020-05-16,135,2020-09-28,2020-10-07,2020-10-21,Harvested at Maturity.,3.0026666233936945,4.689999987504312,4.579318162942814,1.8936363555152307,1.1030434864856626,7.03000020980835,2.9233333182831607,1.1433332941184442,3.7847619005257176,0.49111110385921264,0.7273333374410867,3.0026666233936945,4.689999987504312,4.579318162942814,1.8936363555152307,1.1030434864856626,7.03000020980835,2.9233333182831607,1.1433332941184442,3.7847619005257176,0.49111110385921264,0.7273333374410867,19.370000139872232,11.471428734915596,23.573181780901823,22.953181656924162,21.918260823125426,20.920000076293945,21.133333524068195,20.36888885498047,13.339523724147252,12.118888854980469,12.476000038782756,15.83466657002767,19.828571319580078,26.33340904929421,28.054545575922187,26.327826043833856,30.979999542236328,33.198333422342934,26.464444478352863,21.503809565589542,16.466666645473904,16.757333580652872,10.172999968628089,15.404285635266985,21.323863658038054,23.03818195516413,20.978913058405336,24.10999965667725,26.700833320617676,19.583333280351425,15.78357145899818,11.064999951256645,11.018333423137664,4.511333367228508,10.979999950953893,16.314318266781893,18.021818334406074,15.630000072976816,17.239999771118164,20.203333218892414,12.702222082349989,10.06333335240682,5.663333257039388,5.279333265622457,2.3409947871364345,5.423700863455023,6.6625666179103575,8.802227030556097,9.765928295457595,13.896817200767996,14.533608247917892,9.96497153420647,7.978381281055297,5.67235228430099,3.198219160971083,2.3409947871364345,5.423700863455023,6.6625666179103575,8.802227030556097,9.765928295457595,13.896817200767996,14.533608247917892,9.96497153420647,7.978381281055297,5.67235228430099,3.198219160971083,0,0,293.1529311880558,486.80192586028994,711.4182766558148,725.3150938565827,812.5167433440902,902.2014871519484,1069.74749405411,1120.7986646128188,1120.7986646128188,0,0,0.9184886347163808,0.9938636367971246,0.9396086941594664,1,1,0.8810555669996474,0.5741666702997117,0.20177777343326148,0.04820000012715658,1,1,1,1,1,1,1,1,1,1,1,0.1650999959309896,0.5404285635266985,0.9184886347163808,0.9938636367971246,0.9396086941594664,1,1,0.8810555669996474,0.5741666702997117,0.20177777343326148,0.3382666754722595,1,1,1,0.9999999999999999,0.9993609267331036,1,0.9717009765798639,0.9999999999999999,0.9999999999999999,0.9999999999999999,1,2020-05-02T12:00:00Z,2020-05-17T12:00:00Z,2020-05-24T12:00:00Z,2020-07-07T12:00:00Z,2020-07-29T12:00:00Z,2020-08-21T12:00:00Z,2020-08-22T12:00:00Z,2020-08-28T12:00:00Z,2020-09-06T12:00:00Z,2020-09-27T12:00:00Z,2020-10-06T12:00:00Z,2020-05-16T12:00:00Z,2020-05-23T12:00:00Z,2020-07-06T12:00:00Z,2020-07-28T12:00:00Z,2020-08-20T12:00:00Z,2020-08-21T12:00:00Z,2020-08-27T12:00:00Z,2020-09-05T12:00:00Z,2020-09-26T12:00:00Z,2020-10-05T12:00:00Z,2020-10-20T12:00:00Z,123,138,145,189,211,234,235,241,250,271,280,14,6,43,21,22,0,5,8,20,8,14,137,144,188,210,233,234,240,249,270,279,294
441,kanawha_ia,42.9333,-93.7924,-1.5,2021,13,2021,mid000,207.99865631557108,11,2021-05-06,2021-05-20,67,2021-07-26,2021-07-29,2021-08-12,Harvested at Maturity.,2.4760000282277663,5.31333323319753,NA,1.7382353411658722,2.982222250352303,5.449999809265137,0.6399999956289927,4.783749961294234,2.59166661867251,0.14000000307957333,2.6326666153967384,2.4760000282277663,5.31333323319753,NA,1.7382353411658722,2.982222250352303,5.449999809265137,0.6399999956289927,4.783749961294234,2.59166661867251,0.14000000307957333,2.6326666153967384,18.60733324686686,16.863332748413086,NA,23.685882512260886,25.068333466847736,21.110000610351563,26.386666615804035,18.61374992132187,22.582499980926514,24.03000005086263,18.783333269755047,19.268000030517577,27.72333335876465,NA,26.39941181856043,31.185000313652885,27.790000915527344,31.03000005086263,27.25749969482422,29.860833168029785,34.62999979654948,29.938666915893556,13.4083333949248,22.99666690826416,NA,19.942647036384134,24.478333499696518,23.2450008392334,24.524166584014893,21.946249961853027,23.711666584014893,26.928333282470703,24.25466667811076,7.548666759332021,18.270000457763672,NA,13.485882254207835,17.771666685740154,18.700000762939453,18.018333117167156,16.635000228881836,17.5625,19.226666768391926,18.57066644032796,4.565812538899655,12.99666690826416,NA,9.0491805528016709,11.760389575547197,12.064809773174789,12.732026609855826,10.381742299073654,12.669424947514166,13.66644579359616,12.613844305535952,4.565812538899655,12.99666690826416,NA,9.0491805528016709,11.760389575547197,12.064809773174789,12.732026609855826,10.381742299073654,12.669424947514166,13.66644579359616,12.613844305535952,0,0,NA,153.8360693976284,365.5230817574778,377.5878915306526,453.9800511897875,537.0339895823766,689.0670889525468,730.0664263333352,730.0664263333352,0,0,NA,0.733382358270533,0.9788611094156902,1,1,0.9675000071525575,1,1,0.06666666666666667,1,1,NA,1,1,1,1,1,1,1,1,0.3652333418528239,1,NA,0.733382358270533,0.9788611094156902,1,1,0.9675000071525575,1,1,1,1,1,NA,1,0.9999999999999999,1,1,1,1,1,1,2021-05-06T12:00:00Z,2021-05-21T12:00:00Z,NA,2021-05-24T12:00:00Z,2021-06-10T12:00:00Z,2021-06-28T12:00:00Z,2021-06-29T12:00:00Z,2021-07-05T12:00:00Z,2021-07-13T12:00:00Z,2021-07-25T12:00:00Z,2021-07-28T12:00:00Z,2021-05-20T12:00:00Z,2021-05-23T12:00:00Z,NA,2021-06-09T12:00:00Z,2021-06-27T12:00:00Z,2021-06-28T12:00:00Z,2021-07-04T12:00:00Z,2021-07-12T12:00:00Z,2021-07-24T12:00:00Z,2021-07-27T12:00:00Z,2021-08-11T12:00:00Z,126,141,NA,144,161,179,180,186,194,206,209,14,2,0,16,17,0,5,7,11,2,14,140,143,NA,160,178,179,185,193,205,208,223
442,kanawha_ia,42.9333,-93.7924,-0.5,2021,13,2021,mid00,757.9634220980712,11,2021-05-06,2021-05-20,92,2021-08-20,2021-08-23,2021-09-06,Harvested at Maturity.,2.4760000282277663,5.31333323319753,1.591935508854447,4.384285730975015,2.842222177527017,NA,1.1749999678383272,1.2057142938886372,2.2199999432672155,10.583333015441895,10.52733329385519,2.4760000282277663,5.31333323319753,1.591935508854447,4.384285730975015,2.842222177527017,NA,1.1749999678383272,1.2057142938886372,2.2199999432672155,10.583333015441895,10.52733329385519,18.60733324686686,16.863332748413086,25.149355026983446,22.836428574153356,20.905555486679077,NA,20.00166670481364,19.659999711172922,22.60909115184437,22.299999872843426,16.18933327992757,19.268000030517577,27.72333335876465,28.93000018212103,30.053571428571427,28.682777616712784,NA,32.32499980926514,28.984286172049387,30.812727494673297,30.433333079020183,26.64400011698405,13.4083333949248,22.99666690826416,22.07451618871381,24.44714287349156,22.72999996609158,NA,26.078333059946697,23.027143001556396,24.292727383700285,24.358333110809326,21.944000085194904,7.548666759332021,18.270000457763672,15.219032195306593,18.840714318411692,16.77722231547038,NA,19.831666310628254,17.069999831063406,17.772727272727273,18.28333314259847,17.244000053405763,4.565812538899655,12.99666690826416,9.581848560854462,11.719057144753016,11.181671451856532,NA,13.587959176201553,12.811979636715808,13.74135926626704,13.157492806017398,11.255754875060717,4.565812538899655,12.99666690826416,9.581848560854462,11.719057144753016,11.181671451856532,NA,13.587959176201553,12.811979636715808,13.74135926626704,13.157492806017398,11.255754875060717,0,0,297.03730538648836,461.10410541303054,662.3741915464478,NA,743.9019466036573,833.5858040606679,984.7407559896052,1024.2132344076574,1024.2132344076574,0,0,0.8415161309703704,0.9997500010899135,0.9857500023312039,NA,1,1,1,0.9964999993642172,0.06360000292460125,1,1,1,1,1,NA,1,1,1,1,1,0.3652333418528239,1,0.8415161309703704,0.9997500010899135,0.9857500023312039,NA,1,1,1,0.9964999993642172,0.9572333367665609,1,1,1,1,0.9999999999999999,NA,0.9999999999999999,1,0.9999999999999999,1,1,2021-05-06T12:00:00Z,2021-05-21T12:00:00Z,2021-05-24T12:00:00Z,2021-06-24T12:00:00Z,2021-07-08T12:00:00Z,NA,2021-07-26T12:00:00Z,2021-08-01T12:00:00Z,2021-08-08T12:00:00Z,2021-08-19T12:00:00Z,2021-08-22T12:00:00Z,2021-05-20T12:00:00Z,2021-05-23T12:00:00Z,2021-06-23T12:00:00Z,2021-07-07T12:00:00Z,2021-07-25T12:00:00Z,NA,2021-07-31T12:00:00Z,2021-08-07T12:00:00Z,2021-08-18T12:00:00Z,2021-08-21T12:00:00Z,2021-09-05T12:00:00Z,126,141,144,175,189,NA,207,213,220,231,234,14,2,30,13,17,0,5,6,10,2,14,140,143,174,188,206,NA,212,219,230,233,248
443,kanawha_ia,42.9333,-93.7924,0.5,2021,13,2021,mid0,765.0288499890131,11,2021-05-06,2021-05-20,95,2021-08-23,2021-08-25,2021-09-08,Harvested at Maturity.,2.4760000282277663,5.31333323319753,1.5559375241282396,5.062500000465661,1.780555522483256,NA,0.8714285466287818,6.483999884128571,2.6824999215702214,4.190000027418137,9.968666623532773,2.4760000282277663,5.31333323319753,1.5559375241282396,5.062500000465661,1.780555522483256,NA,0.8714285466287818,6.483999884128571,2.6824999215702214,4.190000027418137,9.968666623532773,18.60733324686686,16.863332748413086,24.950000196695328,20.97624996304512,22.7888888253106,NA,20.67285701206752,16.017999839782714,23.320833524068195,20.505000114440918,16.267999839782714,19.268000030517577,27.72333335876465,29.007812678813934,28.7618750333786,30.52777756585015,NA,29.011428560529435,29.620000457763673,30.985833485921223,28.510000228881836,26.214666748046874,13.4083333949248,22.99666690826416,22.225468799471855,23.391562581062317,24.125277678171795,NA,22.732142652784074,24.44300022125244,24.382500052452087,22.487500429153442,21.53800001144409,7.548666759332021,18.270000457763672,15.443124920129776,18.021250128746033,17.722777790493435,NA,16.452856745038712,19.26599998474121,17.779166618982952,16.46500062942505,16.86133327484131,4.565812538899655,12.99666690826416,8.90693400785142,10.076610537590048,11.31099949699924,NA,11.754075736612611,14.000784385924758,13.579168516045808,12.562796840405465,10.39026356266578,4.565812538899655,12.99666690826416,8.90693400785142,10.076610537590048,11.31099949699924,NA,11.754075736612611,14.000784385924758,13.579168516045808,12.562796840405465,10.39026356266578,0,0,285.02188825124546,446.24765685268625,649.8456477986726,NA,732.1241779549609,802.1280998845848,965.0781220771344,990.2037157579452,990.2037157579452,0,0,0.8464687518775463,0.9837500035762787,1,NA,1,1,0.9991249998410543,0.9770000219345093,0.06666666666666667,1,1,1,1,1,NA,1,1,1,1,1,0.3652333418528239,1,0.8464687518775463,0.9837500035762787,1,NA,1,1,0.9991249998410543,0.9770000219345093,0.9528666655222575,1,1,1,1,0.9999999999999999,NA,0.9999999999999999,0.9999999999999999,1,0.9999999999999999,1,2021-05-06T12:00:00Z,2021-05-21T12:00:00Z,2021-05-24T12:00:00Z,2021-06-25T12:00:00Z,2021-07-11T12:00:00Z,NA,2021-07-29T12:00:00Z,2021-08-05T12:00:00Z,2021-08-10T12:00:00Z,2021-08-22T12:00:00Z,2021-08-24T12:00:00Z,2021-05-20T12:00:00Z,2021-05-23T12:00:00Z,2021-06-24T12:00:00Z,2021-07-10T12:00:00Z,2021-07-28T12:00:00Z,NA,2021-08-04T12:00:00Z,2021-08-09T12:00:00Z,2021-08-21T12:00:00Z,2021-08-23T12:00:00Z,2021-09-07T12:00:00Z,126,141,144,176,192,NA,210,217,222,234,236,14,2,31,15,17,0,6,4,11,1,14,140,143,175,191,209,NA,216,221,233,235,250
444,kanawha_ia,42.9333,-93.7924,1.5,2021,13,2021,mid1,1122.2136546395084,11,2021-05-06,2021-05-20,108,2021-09-05,2021-09-11,2021-09-25,Harvested at Maturity.,2.4760000282277663,5.31333323319753,2.4128947659444653,3.449999957066029,2.0963157479112087,NA,0.18285714089870453,5.291666507720947,12.119230724298037,0.05999999865889549,1.5206666527936856,2.4760000282277663,5.31333323319753,2.4128947659444653,3.449999957066029,2.0963157479112087,NA,0.18285714089870453,5.291666507720947,12.119230724298037,0.05999999865889549,1.5206666527936856,18.60733324686686,16.863332748413086,24.304210662841797,21.921999907493593,20.30421051226164,NA,23.4500002179827,22.823333422342937,15.890769151540903,20.346666653951008,15.957333374023438,19.268000030517577,27.72333335876465,28.862894911515085,28.626499938964844,31.016842089201276,NA,30.768571853637695,31.15499973297119,26.911538637601414,24.483333269755047,24.677333450317384,13.4083333949248,22.99666690826416,22.387105326903495,22.68200001716614,24.89631570012946,NA,24.13642876488822,24.554999828338623,22.370769354013298,18.551666577657063,18.316333389282228,7.548666759332021,18.270000457763672,15.911315742291903,16.73750009536743,18.775789311057643,NA,17.504285676138743,17.954999923706055,17.830000070425182,12.619999885559082,11.95533332824707,4.565812538899655,12.99666690826416,8.079256782155294,8.913262607605443,11.835715392923305,NA,13.394266641179058,13.4565146869123,12.37549591656373,9.012381061813235,7.8162023024451734,4.565812538899655,12.99666690826416,8.079256782155294,8.913262607605443,11.835715392923305,NA,13.394266641179058,13.4565146869123,12.37549591656373,9.012381061813235,7.8162023024451734,0,0,307.0117577219012,485.2770098740101,710.1556023395527,NA,803.9154688278062,884.6545569492799,1045.5360038646083,1099.6102902354878,1099.6102902354878,0,0,0.8707105278968811,0.987000002861023,1,NA,1,0.9982499996821086,0.9634230833787185,0.8551666577657064,0.06179999987284343,1,1,1,1,1,NA,1,1,1,1,1,0.3652333418528239,1,0.8707105278968811,0.987000002861023,1,NA,1,0.9982499996821086,0.9634230833787185,0.8551666577657064,0.7600666681925456,1,1,1,0.9999999999999999,0.9999999999999999,NA,0.9999999999999999,0.9999999999999999,0.9999999999999999,1,1,2021-05-06T12:00:00Z,2021-05-21T12:00:00Z,2021-05-24T12:00:00Z,2021-07-01T12:00:00Z,2021-07-21T12:00:00Z,NA,2021-08-09T12:00:00Z,2021-08-16T12:00:00Z,2021-08-22T12:00:00Z,2021-09-04T12:00:00Z,2021-09-10T12:00:00Z,2021-05-20T12:00:00Z,2021-05-23T12:00:00Z,2021-06-30T12:00:00Z,2021-07-20T12:00:00Z,2021-08-08T12:00:00Z,NA,2021-08-15T12:00:00Z,2021-08-21T12:00:00Z,2021-09-03T12:00:00Z,2021-09-09T12:00:00Z,2021-09-24T12:00:00Z,126,141,144,182,202,NA,221,228,234,247,253,14,2,37,19,18,0,6,5,12,5,14,140,143,181,201,220,NA,227,233,246,252,267
445,kanawha_ia,42.9333,-93.7924,2.5,2021,13,2021,mid2,1303.5874321583665,11,2021-05-06,2021-05-20,121,2021-09-18,2021-09-24,2021-10-08,Harvested at Maturity.,2.4760000282277663,5.31333323319753,2.1662790949867907,3.1436363240195946,1.9744999615475538,0,6.688333183526993,17.218571390424454,1.9094117416397614,1.8416666022191446,1.687333322688937,2.4760000282277663,5.31333323319753,2.1662790949867907,3.1436363240195946,1.9744999615475538,0,6.688333183526993,17.218571390424454,1.9094117416397614,1.8416666022191446,1.687333322688937,18.60733324686686,16.863332748413086,24.666744320891624,21.11999995058233,20.587000036239623,23,21.638333320617676,16.244285583496094,16.67588239557603,16.578333059946697,13.950000349680582,19.268000030517577,27.72333335876465,29.3130234119504,29.26863618330522,29.984000301361085,32.459999084472656,30.24333318074544,28.461428778512136,24.992941239300897,24.37333329518636,23.912666829427085,13.4083333949248,22.99666690826416,22.76662796597148,23.27068177136508,23.90575006008148,25.054999351501465,24.09166669845581,24.224285670689174,19.395294161403882,17.558333317438763,17.896666765213013,7.548666759332021,18.270000457763672,16.220232519992564,17.272727359424938,17.82749981880188,17.649999618530273,17.94000021616618,19.98714256286621,13.797647083506865,10.743333339691162,11.880666700998942,4.565812538899655,12.99666690826416,6.938560596116204,8.352066646803129,11.467674186728171,13.429162924202712,13.143079022026576,14.13545482906103,9.645651827682467,8.92195147297879,7.694541075656613,4.565812538899655,12.99666690826416,6.938560596116204,8.352066646803129,11.467674186728171,13.429162924202712,13.143079022026576,14.13545482906103,9.645651827682467,8.92195147297879,7.694541075656613,0,0,298.35810563299674,482.10357186266566,711.4570555972289,724.8862185214316,803.7446926535911,902.6928764570184,1066.6689575276205,1120.2006663654931,1120.2006663654931,0,0,0.8857441874437554,0.9881818207827482,1,1,0.9905833403269451,1,0.8976764707004323,0.6859999895095825,0.03453333536783854,1,1,1,1,1,1,1,1,1,1,1,0.3652333418528239,1,0.8857441874437554,0.9881818207827482,1,1,0.9905833403269451,1,0.8976764707004323,0.6859999895095825,0.7640000041325887,1,1,1,1,0.9921984161257266,0.8561723305526914,0.9442850312061217,0.9999999999999999,0.9999999999999999,0.9999999999999999,1,2021-05-06T12:00:00Z,2021-05-21T12:00:00Z,2021-05-24T12:00:00Z,2021-07-06T12:00:00Z,2021-07-28T12:00:00Z,2021-08-17T12:00:00Z,2021-08-18T12:00:00Z,2021-08-24T12:00:00Z,2021-08-31T12:00:00Z,2021-09-17T12:00:00Z,2021-09-23T12:00:00Z,2021-05-20T12:00:00Z,2021-05-23T12:00:00Z,2021-07-05T12:00:00Z,2021-07-27T12:00:00Z,2021-08-16T12:00:00Z,2021-08-17T12:00:00Z,2021-08-23T12:00:00Z,2021-08-30T12:00:00Z,2021-09-16T12:00:00Z,2021-09-22T12:00:00Z,2021-10-07T12:00:00Z,126,141,144,187,209,229,230,236,243,260,266,14,2,42,21,19,0,5,6,16,5,14,140,143,186,208,228,229,235,242,259,265,280
446,kanawha_ia,42.9333,-93.7924,-1.5,2022,13,2022,mid000,207.24792931891724,11,2022-05-11,2022-05-25,67,2022-07-31,2022-08-03,2022-08-17,Harvested at Maturity.,3.2339999542882043,0.8950000256299973,NA,4.793333356165224,2.885000012608038,NA,5.887142968763198,0.4499999886999528,1.805000017862767,0.17333332697550455,4.319333421438932,3.2339999542882043,0.8950000256299973,NA,4.793333356165224,2.885000012608038,NA,5.887142968763198,0.4499999886999528,1.805000017862767,0.17333332697550455,4.319333421438932,20.390666707356772,21.049999952316284,NA,21.473333093855118,26.982777701483833,NA,21.41285719190325,24.97499990463257,25.73166640599569,27.109999974568684,20.33000005086263,22.18000011444092,23.99250030517578,NA,25.58833344777425,29.279444694519043,NA,28.32285717555455,29.541666666666668,30.758333524068195,31.14000066121419,29.35399996439616,16.37000006834666,17.736250281333923,NA,20.06305554178026,23.013055721918743,NA,24.095714160374232,24.034166653951008,24.56250003973643,23.801667213439938,23.217666625976563,10.560000022252401,11.480000257492065,NA,14.537777635786268,16.74666674931844,NA,19.86857114519392,18.52666664123535,18.366666555404663,16.463333765665688,17.081333287556966,6.842494938294292,8.013748689331115,NA,9.11062735844715,11.652506044293611,NA,12.976518866879793,13.216055438432738,13.170604779259245,13.2761341432333,11.346412808431785,6.842494938294292,8.013748689331115,NA,9.11062735844715,11.652506044293611,NA,12.976518866879793,13.216055438432738,13.170604779259245,13.2761341432333,11.346412808431785,0,0,NA,163.99129245204873,373.73640124933377,NA,464.5720333174923,543.8683659480888,701.9156232991999,741.7440257288998,741.7440257288998,0,0,NA,0.8616388930214776,0.9848055574629042,NA,1,1,1,1,0.06666666666666667,1,1,NA,1,1,NA,1,1,1,1,1,0.5778000005086263,0.6629999995231628,NA,0.8616388930214776,0.9848055574629042,NA,1,1,1,1,0.9908666610717773,1,1,NA,1,1,NA,1,1,1,0.9999999999999999,1,2022-05-11T12:00:00Z,2022-05-26T12:00:00Z,NA,2022-05-30T12:00:00Z,2022-06-17T12:00:00Z,NA,2022-07-05T12:00:00Z,2022-07-12T12:00:00Z,2022-07-18T12:00:00Z,2022-07-30T12:00:00Z,2022-08-02T12:00:00Z,2022-05-25T12:00:00Z,2022-05-29T12:00:00Z,NA,2022-06-16T12:00:00Z,2022-07-04T12:00:00Z,NA,2022-07-11T12:00:00Z,2022-07-17T12:00:00Z,2022-07-29T12:00:00Z,2022-08-01T12:00:00Z,2022-08-16T12:00:00Z,131,146,NA,150,168,NA,186,193,199,211,214,14,3,0,17,17,0,6,5,11,2,14,145,149,NA,167,185,NA,192,198,210,213,228
447,kanawha_ia,42.9333,-93.7924,-0.5,2022,13,2022,mid00,830.3582822842984,11,2022-05-11,2022-05-25,94,2022-08-27,2022-08-29,2022-09-12,Harvested at Maturity.,3.2339999542882043,0.8950000256299973,3.783125003101304,4.496923178577652,1.5162500090664253,0,0.17499999701976776,9.068333476781845,2.690000043782805,18.334999084472656,1.9413333302984634,3.2339999542882043,0.8950000256299973,3.783125003101304,4.496923178577652,1.5162500090664253,0,0.17499999701976776,9.068333476781845,2.690000043782805,18.334999084472656,1.9413333302984634,20.390666707356772,21.049999952316284,24.350937336683273,23.083076843848595,25.088749825954437,28.18000030517578,26.1349999109904,20.359999974568684,18.017857210976736,18.614999771118164,19.17466672261556,22.18000011444092,23.99250030517578,27.16937518119812,28.672307821420524,30.629375100135803,29.59000015258789,33.1766668955485,28.859999974568684,27.140714372907365,28.40999984741211,27.261333084106447,16.37000006834666,17.736250281333923,21.265937566757202,23.697307660029484,24.651250034570694,22.010000228881836,25.600833574930824,22.999166568120323,21.731071506227767,22.854999780654907,20.918999862670898,10.560000022252401,11.480000257492065,15.362499952316284,18.722307498638447,18.673124969005585,14.43000030517578,18.025000254313152,17.138333161671955,16.321428639548166,17.299999713897705,14.576666641235352,6.842494938294292,8.013748689331115,9.492750977338014,11.913649811445563,12.796189355630379,11.785725195837747,13.429308987723491,12.322369676740964,11.735908986307892,12.854999780654907,9.896369397845268,6.842494938294292,8.013748689331115,9.492750977338014,11.913649811445563,12.796189355630379,11.785725195837747,13.429308987723491,12.322369676740964,11.735908986307892,12.854999780654907,9.896369397845268,0,0,303.76803127481634,458.6454788236086,663.3845085136946,675.1702337095323,755.7460876358732,829.680305696319,993.9830315046296,1019.6930310659392,1019.6930310659392,0,0,0.9136250033974648,1,1,1,1,0.9902499914169312,0.994392854826791,1,0.06666666666666667,1,1,1,1,1,1,1,1,1,1,1,0.5778000005086263,0.6629999995231628,0.9136250033974648,1,1,1,1,0.9902499914169312,0.994392854826791,1,0.9198666699727377,1,1,1,1,1,1,0.9999999999999999,0.9999999999999999,0.9999999999999999,0.9999999999999998,1,2022-05-11T12:00:00Z,2022-05-26T12:00:00Z,2022-05-30T12:00:00Z,2022-07-01T12:00:00Z,2022-07-14T12:00:00Z,2022-07-30T12:00:00Z,2022-07-31T12:00:00Z,2022-08-06T12:00:00Z,2022-08-12T12:00:00Z,2022-08-26T12:00:00Z,2022-08-28T12:00:00Z,2022-05-25T12:00:00Z,2022-05-29T12:00:00Z,2022-06-30T12:00:00Z,2022-07-13T12:00:00Z,2022-07-29T12:00:00Z,2022-07-30T12:00:00Z,2022-08-05T12:00:00Z,2022-08-11T12:00:00Z,2022-08-25T12:00:00Z,2022-08-27T12:00:00Z,2022-09-11T12:00:00Z,131,146,150,182,195,211,212,218,224,238,240,14,3,31,12,15,0,5,5,13,1,14,145,149,181,194,210,211,217,223,237,239,254
448,kanawha_ia,42.9333,-93.7924,0.5,2022,13,2022,mid0,917.7755021752898,11,2022-05-11,2022-05-25,96,2022-08-29,2022-09-01,2022-09-15,Harvested at Maturity.,3.2339999542882043,0.8950000256299973,3.570294120842043,4.660000095430475,1.3135294233832289,0.3400000035762787,8.983333478371302,1.5042857783181327,5.374999860146393,3.2366665999094644,1.2940000103165705,3.2339999542882043,0.8950000256299973,3.570294120842043,4.660000095430475,1.3135294233832289,0.3400000035762787,8.983333478371302,1.5042857783181327,5.374999860146393,3.2366665999094644,1.2940000103165705,20.390666707356772,21.049999952316284,24.271764558904312,23.462307636554424,25.400588035583496,26.13999938964844,21.324999968210857,18.287143026079452,19.433333317438763,20.69666608174642,19.012666829427083,22.18000011444092,23.99250030517578,27.26235311171588,29.053846212533806,30.648823794196634,36.9900016784668,31.084999402364094,27.18571444920131,27.6150000890096,27.27666664123535,27.039999771118165,16.37000006834666,17.736250281333923,21.359705953037036,24.081538420457107,24.418235414168414,28.50500106811523,24.653332948684692,21.570714337485178,22.06083341439565,21.718333562215168,20.24933319091797,10.560000022252401,11.480000257492065,15.457058794358197,19.10923062838041,18.187647034140195,20.020000457763672,18.22166649500529,15.955714225769043,16.506666739781696,16.160000483194988,13.458666610717774,6.842494938294292,8.013748689331115,8.773124452625497,11.33258045380538,12.010113055602591,12.212185648304176,12.785520422496106,11.558965950235299,12.066477141155799,11.808652232845624,9.329831420373916,6.842494938294292,8.013748689331115,8.773124452625497,11.33258045380538,12.010113055602591,12.212185648304176,12.785520422496106,11.558965950235299,12.066477141155799,11.808652232845624,9.329831420373916,0,0,298.28623138926696,445.60977728873695,649.781699233981,661.9938848822852,738.7070074172618,819.6197690689089,964.4174947627783,999.8434514613152,999.8434514613152,0,0,0.9187058855505551,1,1,1,0.9902499914169312,0.9887857096535819,1,0.98116668065389,0.06666666666666667,1,1,1,1,1,1,1,1,1,1,1,0.5778000005086263,0.6629999995231628,0.9187058855505551,1,1,1,0.9902499914169312,0.9887857096535819,1,0.98116668065389,0.8870000012715658,1,1,1,0.9999999999999999,0.9999999999999999,0.9999999999999998,1,0.9999999999999999,1,0.9999999999999999,1,2022-05-11T12:00:00Z,2022-05-26T12:00:00Z,2022-05-30T12:00:00Z,2022-07-03T12:00:00Z,2022-07-16T12:00:00Z,2022-08-02T12:00:00Z,2022-08-03T12:00:00Z,2022-08-09T12:00:00Z,2022-08-16T12:00:00Z,2022-08-28T12:00:00Z,2022-08-31T12:00:00Z,2022-05-25T12:00:00Z,2022-05-29T12:00:00Z,2022-07-02T12:00:00Z,2022-07-15T12:00:00Z,2022-08-01T12:00:00Z,2022-08-02T12:00:00Z,2022-08-08T12:00:00Z,2022-08-15T12:00:00Z,2022-08-27T12:00:00Z,2022-08-30T12:00:00Z,2022-09-14T12:00:00Z,131,146,150,184,197,214,215,221,228,240,243,14,3,33,12,16,0,5,6,11,2,14,145,149,183,196,213,214,220,227,239,242,257
449,kanawha_ia,42.9333,-93.7924,1.5,2022,13,2022,mid1,1134.6698285056748,11,2022-05-11,2022-05-25,111,2022-09-13,2022-09-17,2022-10-01,Harvested at Maturity.,3.2339999542882043,0.8950000256299973,4.361315818307431,1.9070588499307632,3.4805000660941006,0.8700000047683716,3.861428595547165,5.415714021506054,1.9413333302984634,0.002499999944120645,0.475333330531915,3.2339999542882043,0.8950000256299973,4.361315818307431,1.9070588499307632,3.4805000660941006,0.8700000047683716,3.861428595547165,5.415714021506054,1.9413333302984634,0.002499999944120645,0.475333330531915,20.390666707356772,21.049999952316284,23.98736828251889,24.441176414489746,24.052499866485597,12.640000343322754,17.987143107822963,18.677142551967076,19.17466672261556,18.664999961853027,15.983333301544189,22.18000011444092,23.99250030517578,27.544210684926888,30.41705894470215,29.97750015258789,27.299999237060547,26.201428822108678,28.114285605294363,27.261333084106447,26.96250009536743,23.41866658528646,16.37000006834666,17.736250281333923,21.760921101821097,24.842647047603833,23.54125008583069,22.53499984741211,21.056428704942977,22.364999975476945,20.918999862670898,19.490000247955322,17.06633319457372,10.560000022252401,11.480000257492065,15.977631518715306,19.268235150505514,17.105000019073486,17.770000457763672,15.911428587777273,16.61571434565953,14.576666641235352,12.017500400543213,10.713999803860982,6.842494938294292,8.013748689331115,8.03905186665793,10.606051160939542,11.366171360284294,12.411434694913272,11.056296927197765,12.3746749356372,11.100240636349518,10.231284975227714,6.4408525476876894,6.842494938294292,8.013748689331115,8.03905186665793,10.606051160939542,11.366171360284294,12.411434694913272,11.056296927197765,12.3746749356372,11.100240636349518,10.231284975227714,6.4408525476876894,0,0,305.4839709330014,485.7868406689736,713.1102678746594,725.5217025695727,802.915781059957,889.5385056094174,1056.0421151546602,1096.967255055571,1096.967255055571,0,0,0.9272631607557598,1,0.9970749974250793,1,0.9887857096535819,1,0.9198666699727377,0.862625002861023,0.06666666666666667,1,1,1,1,1,1,1,1,1,1,1,0.5778000005086263,0.6629999995231628,0.9272631607557598,1,0.9970749974250793,1,0.9887857096535819,1,0.9198666699727377,0.862625002861023,0.6190333239237468,1,1,1,0.9999999999999999,1,1,1,0.9999999999999999,0.9999999999999999,0.9999999999999998,1,2022-05-11T12:00:00Z,2022-05-26T12:00:00Z,2022-05-30T12:00:00Z,2022-07-07T12:00:00Z,2022-07-24T12:00:00Z,2022-08-13T12:00:00Z,2022-08-14T12:00:00Z,2022-08-21T12:00:00Z,2022-08-28T12:00:00Z,2022-09-12T12:00:00Z,2022-09-16T12:00:00Z,2022-05-25T12:00:00Z,2022-05-29T12:00:00Z,2022-07-06T12:00:00Z,2022-07-23T12:00:00Z,2022-08-12T12:00:00Z,2022-08-13T12:00:00Z,2022-08-20T12:00:00Z,2022-08-27T12:00:00Z,2022-09-11T12:00:00Z,2022-09-15T12:00:00Z,2022-09-30T12:00:00Z,131,146,150,188,205,225,226,233,240,255,259,14,3,37,16,19,0,6,6,14,3,14,145,149,187,204,224,225,232,239,254,258,273
450,kanawha_ia,42.9333,-93.7924,2.5,2022,13,2022,mid2,1459.8617821164055,11,2022-05-11,2022-05-25,122,2022-09-24,2022-10-02,2022-10-16,Harvested at Maturity.,3.2339999542882043,0.8950000256299973,4.172558172540955,1.2440000063739718,4.3585714997635,0,6.778571135497519,0.19375000265426934,1.3212500079534946,0.48249999550171196,0.3213333363334338,3.2339999542882043,0.8950000256299973,4.172558172540955,1.2440000063739718,4.3585714997635,0,6.778571135497519,0.19375000265426934,1.3212500079534946,0.48249999550171196,0.3213333363334338,20.390666707356772,21.049999952316284,23.76976731766102,25.601499795913696,20.46333344777425,23.399999618530273,18.20857102530343,20.735000133514404,16.66000008583069,16.528749883174896,13.594000053405763,22.18000011444092,23.99250030517578,27.578604809073514,30.381000137329103,28.91714295886812,27.270000457763672,28.397142682756698,27.996249675750732,26.504374980926514,20.50374984741211,19.148000081380207,16.37000006834666,17.736250281333923,21.95441864812097,24.24275004863739,22.967857201894123,20.545000076293945,22.929285730634415,21.21687477827072,20.055937469005585,13.92374985665083,12.516333395242691,10.560000022252401,11.480000257492065,16.330232487168423,18.104499959945677,17.01857144492013,13.81999969482422,17.461428778512136,14.43749988079071,13.607499957084656,7.34374986588955,5.884666709105174,6.842494938294292,8.013748689331115,6.909889131729603,9.456358113971435,10.931635813091642,10.545000076293944,12.929285730634415,11.241332676595448,10.361182765951753,6.670142858888022,3.8333798636714125,6.842494938294292,8.013748689331115,6.909889131729603,9.456358113971435,10.931635813091642,10.545000076293944,12.929285730634415,11.241332676595448,10.361182765951753,6.670142858888022,3.8333798636714125,0,0,297.12523266437285,486.2523949438015,715.816747018726,726.36174709502,816.8667472094609,906.7974086222246,1072.5763328774528,1125.937475748557,1125.937475748557,0,0,0.9357209327609041,1,0.9934761864798409,1,1,0.95725000500679025,0.85450000166893,0.4004999816417694,0.04366666793823242,1,1,1,1,1,1,1,1,1,1,1,0.5778000005086263,0.6629999995231628,0.9357209327609041,1,0.9934761864798409,1,1,0.95725000500679025,0.85450000166893,0.4004999816417694,0.3712666781743368,1,1,1,1,1,1,0.9999999999999999,1,1,0.9999999999999999,1,2022-05-11T12:00:00Z,2022-05-26T12:00:00Z,2022-05-30T12:00:00Z,2022-07-12T12:00:00Z,2022-08-01T12:00:00Z,2022-08-22T12:00:00Z,2022-08-23T12:00:00Z,2022-08-30T12:00:00Z,2022-09-07T12:00:00Z,2022-09-23T12:00:00Z,2022-10-01T12:00:00Z,2022-05-25T12:00:00Z,2022-05-29T12:00:00Z,2022-07-11T12:00:00Z,2022-07-31T12:00:00Z,2022-08-21T12:00:00Z,2022-08-22T12:00:00Z,2022-08-29T12:00:00Z,2022-09-06T12:00:00Z,2022-09-22T12:00:00Z,2022-09-30T12:00:00Z,2022-10-15T12:00:00Z,131,146,150,193,213,234,235,242,250,266,274,14,3,42,19,20,0,6,7,15,7,14,145,149,192,212,233,234,241,249,265,273,288
451,kanawha_ia,42.9333,-93.7924,-1.5,2023,13,2023,mid000,217.3112125625865,11,2023-04-27,2023-05-11,74,2023-07-24,2023-07-26,2023-08-09,Harvested at Maturity.,2.7860000312328337,7.961999946460128,NA,0.7677777724133598,1.3778947590801276,0.00999999977648258,6.330000172768321,0.9075000036973506,2.857142860469009,0,1.8020000354697308,2.7860000312328337,7.961999946460128,NA,0.7677777724133598,1.3778947590801276,0.00999999977648258,6.330000172768321,0.9075000036973506,2.857142860469009,0,1.8020000354697308,20.26066649754842,15.218000030517578,NA,25.02388906478882,23.693684276781585,26.329999923706055,19.08571434020996,21.619999766349792,23.4235714503697,23.760000228881836,20.509999974568686,20.273333422342937,22.22800006866455,NA,25.780555460188125,28.335263202064915,32.43000030517578,28.597142900739396,27.828749895095825,28.51214259011405,32.08000087738037,31.913333384195962,13.725000055631002,17.08200011253357,NA,19.07166663805644,21.837105324393825,27.19499969482422,22.97928558077131,21.888749837875366,21.964285612106323,24.3725004196167,25.737333297729492,7.176666688919068,11.936000156402589,NA,12.362777815924751,15.338947446722733,21.959999084472656,17.361428260803223,15.948749780654907,15.416428634098597,16.664999961853027,19.561333211263022,5.045375289248526,7.144889832123518,NA,8.736546961349758,10.67747927342759,14.339875329717476,11.699092363903667,10.69403790329638,11.377899320129638,13.229346097153538,12.872890134675503,5.045375289248526,7.144889832123518,NA,8.736546961349758,10.67747927342759,14.339875329717476,11.699092363903667,10.69403790329638,11.377899320129638,13.229346097153538,12.872890134675503,0,0,NA,157.25784530429567,360.12995149941986,374.46982682913733,456.363473376463,541.9157766028341,701.2063670846488,727.6650592789558,727.6650592789558,0,0,NA,0.8234166622161866,0.9576052665710449,1,0.9947142805371966,0.9301874935626984,0.9904999971389771,1,0.06666666666666667,1,1,NA,1,1,1,1,1,1,1,1,0.4450666693846385,0.6868000173568726,NA,0.8234166622161866,0.9576052665710449,1,0.9947142805371966,0.9301874935626984,0.9904999971389771,1,0.9995666694641113,1,1,NA,1,1,1,1,1,0.9999999999999999,1,1,2023-04-27T12:00:00Z,2023-05-12T12:00:00Z,NA,2023-05-17T12:00:00Z,2023-06-04T12:00:00Z,2023-06-23T12:00:00Z,2023-06-24T12:00:00Z,2023-07-01T12:00:00Z,2023-07-09T12:00:00Z,2023-07-23T12:00:00Z,2023-07-25T12:00:00Z,2023-05-11T12:00:00Z,2023-05-16T12:00:00Z,NA,2023-06-03T12:00:00Z,2023-06-22T12:00:00Z,2023-06-23T12:00:00Z,2023-06-30T12:00:00Z,2023-07-08T12:00:00Z,2023-07-22T12:00:00Z,2023-07-24T12:00:00Z,2023-08-08T12:00:00Z,117,132,NA,137,155,174,175,182,190,204,206,14,4,0,17,18,0,6,7,13,1,14,131,136,NA,154,173,174,181,189,203,205,220
452,kanawha_ia,42.9333,-93.7924,-0.5,2023,13,2023,mid00,859.5849298241269,11,2023-04-27,2023-05-11,99,2023-08-18,2023-08-21,2023-09-04,Harvested at Maturity.,2.7860000312328337,7.961999946460128,1.1764705978224383,3.37428579545979,2.3336842183611894,0,0.7799999987085661,0.17833333369344473,3.9958333517424762,0.019999999552965164,0.5279999891916911,2.7860000312328337,7.961999946460128,1.1764705978224383,3.37428579545979,2.3336842183611894,0,0.7799999987085661,0.17833333369344473,3.9958333517424762,0.019999999552965164,0.5279999891916911,20.26066649754842,15.218000030517578,24.004117797402774,22.19785703931536,22.869473658109968,21.93000030517578,22.87333345413208,20.838332970937092,20.074166695276897,23.670000076293945,21.760000038146973,20.273333422342937,22.22800006866455,26.695588196025174,29.801428658621653,27.997894487882917,30.780000686645508,34.8550001780192,31.93000030517578,28.905832926432293,30.16333262125651,33.613333257039386,13.725000055631002,17.08200011253357,20.143235290751736,23.904999903270177,21.54289463946694,23.38000011444092,27.604166666666668,25.65000009536743,22.94874982039134,22.87999979654948,26.170333258310954,7.176666688919068,11.936000156402589,13.5908823854783,18.0085711479187,15.087894791050962,15.979999542236328,20.35333315531413,19.369999885559082,16.991666714350384,15.596666971842447,18.72733325958252,5.045375289248526,7.144889832123518,8.945719810004038,11.49645928040771,10.205807404567446,12.485724100303193,13.30739800752853,14.319609101837385,12.658790448247393,11.344400950717924,11.776188936123054,5.045375289248526,7.144889832123518,8.945719810004038,11.49645928040771,10.205807404567446,12.485724100303193,13.30739800752853,14.319609101837385,12.658790448247393,11.344400950717924,11.776188936123054,0,0,304.15447354013736,465.10490346584544,659.0152441526268,671.50096825293,751.3453562981011,837.2630109091256,989.1684962880944,1023.201699140248,1023.201699140248,0,0,0.8828235289629768,0.9973571402685983,0.9636052583393298,1,1,1,0.9946666638056437,1,0.06666666666666667,1,1,1,1,1,1,1,1,1,1,1,0.4450666693846385,0.6868000173568726,0.8828235289629768,0.9973571402685983,0.9636052583393298,1,1,1,0.9946666638056437,1,0.9732666714986166,1,1,1,1,0.9999999999999999,1,1,1,1,0.9999999999999999,1,2023-04-27T12:00:00Z,2023-05-12T12:00:00Z,2023-05-17T12:00:00Z,2023-06-20T12:00:00Z,2023-07-04T12:00:00Z,2023-07-23T12:00:00Z,2023-07-24T12:00:00Z,2023-07-30T12:00:00Z,2023-08-05T12:00:00Z,2023-08-17T12:00:00Z,2023-08-20T12:00:00Z,2023-05-11T12:00:00Z,2023-05-16T12:00:00Z,2023-06-19T12:00:00Z,2023-07-03T12:00:00Z,2023-07-22T12:00:00Z,2023-07-23T12:00:00Z,2023-07-29T12:00:00Z,2023-08-04T12:00:00Z,2023-08-16T12:00:00Z,2023-08-19T12:00:00Z,2023-09-03T12:00:00Z,117,132,137,171,185,204,205,211,217,229,232,14,4,33,13,18,0,5,5,11,2,14,131,136,170,184,203,204,210,216,228,231,246
453,kanawha_ia,42.9333,-93.7924,0.5,2023,13,2023,mid0,900.3771236350941,11,2023-04-27,2023-05-11,102,2023-08-21,2023-08-24,2023-09-07,Harvested at Maturity.,2.7860000312328337,7.961999946460128,1.1428571521703685,3.133125073858537,2.190000005262463,0.5099999904632568,0.6700000008568168,3.723333423336347,2.2274999734945595,0,0.5639999896287918,2.7860000312328337,7.961999946460128,1.1428571521703685,3.133125073858537,2.190000005262463,0.5099999904632568,0.6700000008568168,3.723333423336347,2.2274999734945595,0,0.5639999896287918,20.26066649754842,15.218000030517578,24.092571585518975,22.14812481403351,22.960526365982858,26.190000534057617,22.108333110809326,16.53500000635783,22.134999990463257,21.670000076293945,20.54400005340576,20.273333422342937,22.22800006866455,26.82257137298584,29.365000128746033,28.776315588700143,37.470001220703125,33.15333334604899,29.711666742960613,29.636666138966877,36.413333892822266,32.76399981180827,13.725000055631002,17.08200011253357,20.26528570992606,23.502187430858612,22.05578939538253,29.770000457763672,26.359166622161865,24.708333333333332,22.93583309650421,29.008333206176758,25.43599990208944,7.176666688919068,11.936000156402589,13.70800004686628,17.63937473297119,15.335263202064915,22.06999969482422,19.56499989827474,19.704999923706055,16.235000054041546,21.60333251953125,18.107999992370605,5.045375289248526,7.144889832123518,8.31837805112282,10.200977281775343,9.950506472853872,11.677648832937948,13.166255615097834,13.238340390164652,12.338867974367481,13.419769408655167,11.883031320761045,5.045375289248526,7.144889832123518,8.31837805112282,10.200977281775343,9.950506472853872,11.677648832937948,13.166255615097834,13.238340390164652,12.338867974367481,13.419769408655167,11.883031320761045,0,0,291.1432317892987,454.3588682977042,643.4184912819278,655.0961401148658,734.0936738054527,813.5237161464405,961.5901318388504,1001.8494400648158,1001.8494400648158,0,0,0.8861714281354632,0.9875624984502792,0.9721315735264828,1,1,0.9989166736602784,0.9952083269755045,0.9728333155314128,0.049666671752929686,1,1,1,1,1,1,1,1,1,1,1,0.4450666693846385,0.6868000173568726,0.8861714281354632,0.9875624984502792,0.9721315735264828,1,1,0.9989166736602784,0.9952083269755045,0.9728333155314128,0.9774000104268392,1,1,1,1,1,1,1,0.9999999999999999,1,1,1,2023-04-27T12:00:00Z,2023-05-12T12:00:00Z,2023-05-17T12:00:00Z,2023-06-21T12:00:00Z,2023-07-07T12:00:00Z,2023-07-26T12:00:00Z,2023-07-27T12:00:00Z,2023-08-02T12:00:00Z,2023-08-08T12:00:00Z,2023-08-20T12:00:00Z,2023-08-23T12:00:00Z,2023-05-11T12:00:00Z,2023-05-16T12:00:00Z,2023-06-20T12:00:00Z,2023-07-06T12:00:00Z,2023-07-25T12:00:00Z,2023-07-26T12:00:00Z,2023-08-01T12:00:00Z,2023-08-07T12:00:00Z,2023-08-19T12:00:00Z,2023-08-22T12:00:00Z,2023-09-06T12:00:00Z,117,132,137,172,188,207,208,214,220,232,235,14,4,34,15,18,0,5,5,11,2,14,131,136,171,187,206,207,213,219,231,234,249
454,kanawha_ia,42.9333,-93.7924,1.5,2023,13,2023,mid1,1103.5785736497155,11,2023-04-27,2023-05-11,115,2023-09-03,2023-09-07,2023-09-21,Harvested at Maturity.,2.7860000312328337,7.961999946460128,1.9502500319853424,2.4240909241647883,0.400000000470563,19.190000534057617,3.016666586200396,1.3014285934290715,0.6092307567596436,0.0925000011920929,0.6373333346098662,2.7860000312328337,7.961999946460128,1.9502500319853424,2.4240909241647883,0.400000000470563,19.190000534057617,3.016666586200396,1.3014285934290715,0.6092307567596436,0.0925000011920929,0.6373333346098662,20.26066649754842,15.218000030517578,23.77700009346008,22.07590913772583,22.669999875520404,5,22.961666742960613,21.039999961853027,21.53307687319242,21.30500030517578,15.463999938964843,20.273333422342937,22.22800006866455,27.243749976158142,28.27181798761541,32.02631599024723,21.850000381469727,30.37499936421712,28.764285223824636,33.012307533851036,36.5,26.090000025431316,13.725000055631002,17.08200011253357,20.74537500143051,22.123181646520443,25.353947413595098,19.9350004196167,23.99916648864746,21.943571158817836,25.916153724376972,27.962499856948853,19.266333293914794,7.176666688919068,11.936000156402589,14.247000026702882,15.97454530542547,18.681578836942975,18.020000457763672,17.6233336130778,15.122857093811035,18.81999991490291,19.424999713897705,12.442666562398275,5.045375289248526,7.144889832123518,7.636441391308157,8.495747285848417,11.56914398923718,9.182730882006435,12.967128279429666,11.297775151363373,12.931041556559158,12.867081925347449,8.624988504093489,5.045375289248526,7.144889832123518,7.636441391308157,8.495747285848417,11.56914398923718,9.182730882006435,12.967128279429666,11.297775151363373,12.931041556559158,12.867081925347449,8.624988504093489,0,0,305.4576556523262,492.36409594099126,712.1778317364978,721.3605626185042,799.1633322950822,878.247758354626,1046.351298589895,1097.8196262912843,1097.8196262912843,0,0,0.8994749987125397,0.9685681776566939,1,0.99350004196167,1,0.9917857033865792,0.9691538517291729,1,0.06536666870117187,1,1,1,1,1,1,1,1,1,1,1,0.4450666693846385,0.6868000173568726,0.8994749987125397,0.9685681776566939,1,0.99350004196167,1,0.9917857033865792,0.9691538517291729,1,0.8807999960581462,1,1,1,0.9999999999999999,0.9992426676868983,1,0.9970024289613243,0.9749064213701535,0.958483935141317,1,1,2023-04-27T12:00:00Z,2023-05-12T12:00:00Z,2023-05-17T12:00:00Z,2023-06-26T12:00:00Z,2023-07-18T12:00:00Z,2023-08-06T12:00:00Z,2023-08-07T12:00:00Z,2023-08-13T12:00:00Z,2023-08-20T12:00:00Z,2023-09-02T12:00:00Z,2023-09-06T12:00:00Z,2023-05-11T12:00:00Z,2023-05-16T12:00:00Z,2023-06-25T12:00:00Z,2023-07-17T12:00:00Z,2023-08-05T12:00:00Z,2023-08-06T12:00:00Z,2023-08-12T12:00:00Z,2023-08-19T12:00:00Z,2023-09-01T12:00:00Z,2023-09-05T12:00:00Z,2023-09-20T12:00:00Z,117,132,137,177,199,218,219,225,232,245,249,14,4,39,21,18,0,5,6,12,3,14,131,136,176,198,217,218,224,231,244,248,263
455,kanawha_ia,42.9333,-93.7924,2.5,2023,13,2023,mid2,1249.477084410919,11,2023-04-27,2023-05-11,127,2023-09-15,2023-09-21,2023-10-05,Harvested at Maturity.,2.7860000312328337,7.961999946460128,1.8737778118915027,1.8968000029027463,2.545714296223152,NA,0.019999999552965164,1.1314285482679094,0.19599999934434892,0.935000006419917,3.0306665749599535,2.7860000312328337,7.961999946460128,1.8737778118915027,1.8968000029027463,2.545714296223152,NA,0.019999999552965164,1.1314285482679094,0.19599999934434892,0.935000006419917,3.0306665749599535,20.26066649754842,15.218000030517578,23.56755566067166,22.932799949645997,20.32142852601551,NA,23.132857186453684,20.795714105878556,19.11666685740153,14.294999599456787,12.97466672261556,20.273333422342937,22.22800006866455,27.445111105177137,28.813999862670897,30.8733332497733,NA,33.0285712650844,32.59285681588309,29.668666712443034,26.114999771118164,27.430000178019206,13.725000055631002,17.08200011253357,21.027666653527152,22.32539991378784,24.72904754820324,NA,25.588571207863943,25.944285665239608,22.220333321889242,19.03666639328003,21.444333457946776,7.176666688919068,11.936000156402589,14.61022220187717,15.836799964904785,18.584761846633185,NA,18.148571150643484,19.29571451459612,14.771999931335449,11.958333015441895,15.45866673787435,5.045375289248526,7.144889832123518,6.577937661498689,7.709483098577569,11.138638521144628,NA,12.302747087246495,12.992651901585715,11.065891731600363,9.705640663809579,10.25892191942374,5.045375289248526,7.144889832123518,6.577937661498689,7.709483098577569,11.138638521144628,NA,12.302747087246495,12.992651901585715,11.065891731600363,9.705640663809579,10.25892191942374,0,0,296.0071947674411,488.74427223188013,722.6556811759175,NA,808.774910786643,899.723474097743,1065.711850071748,1123.9456940546056,1123.9456940546056,0,0,0.9106444433000352,0.9723399963378906,0.9969523793175107,NA,0.9883571352277484,0.9543571608407156,0.9377000045776367,0.8577499787012737,0.06666666666666667,1,1,1,1,1,NA,1,1,1,1,1,0.4450666693846385,0.6868000173568726,0.9106444433000352,0.9723399963378906,0.9969523793175107,NA,0.9883571352277484,0.9543571608407156,0.9377000045776367,0.8577499787012737,0.9425000063578288,1,1,1,0.9999999999999999,0.9876649151282572,NA,0.7108384150060412,0.7546991668300383,0.8653898957179698,1,1,2023-04-27T12:00:00Z,2023-05-12T12:00:00Z,2023-05-17T12:00:00Z,2023-07-01T12:00:00Z,2023-07-26T12:00:00Z,NA,2023-08-16T12:00:00Z,2023-08-23T12:00:00Z,2023-08-30T12:00:00Z,2023-09-14T12:00:00Z,2023-09-20T12:00:00Z,2023-05-11T12:00:00Z,2023-05-16T12:00:00Z,2023-06-30T12:00:00Z,2023-07-25T12:00:00Z,2023-08-15T12:00:00Z,NA,2023-08-22T12:00:00Z,2023-08-29T12:00:00Z,2023-09-13T12:00:00Z,2023-09-19T12:00:00Z,2023-10-04T12:00:00Z,117,132,137,182,207,NA,228,235,242,257,263,14,4,44,24,20,0,6,6,14,5,14,131,136,181,206,227,NA,234,241,256,262,277
456,ridgetown_ont,42.4527,-81.8803,-1.5,2017,14,2017,mid000,224.8895026787497,11,2017-04-12,2017-04-26,99,2017-08-03,2017-08-06,2017-08-20,Harvested at Maturity.,2.551000000257045,3.501875001937151,NA,2.613846179527732,3.7531818354671653,0,4.31999993590372,2.162857069766947,1.5576923013879702,4.523333435257276,2.15266665071249,2.551000000257045,3.501875001937151,NA,2.613846179527732,3.7531818354671653,0,4.31999993590372,2.162857069766947,1.5576923013879702,4.523333435257276,2.15266665071249,17.152500081062318,19.71624994277954,NA,22.71538466673631,22.93863599950617,29.260000228881836,20.39285741533552,23.487142426627024,20.956923264723557,18.929999669392902,19.446666717529297,15.693499994277953,14.81187492609024,NA,21.053461514986477,24.609999916770242,26.700000762939453,25.562857219151088,26.034285681588308,26.60384618318998,25.889999389648438,25.200666681925455,10.923000037670135,10.235624964348972,NA,16.57711538901696,20.476363702253863,21.579999923706055,21.991428715842112,21.988571575709752,22.334615303919865,22.5133326848348,21.042666657765707,6.152500081062317,5.659375002607703,NA,12.100769263047438,16.34272748773748,16.459999084472656,18.420000212533132,17.942857469831193,18.065384424649753,19.13666598002116,16.884666633605956,2.266252574085221,2.0876636878601045,NA,6.225106851713542,9.609993213914112,10.777073197534175,11.28611897313085,11.550124613823561,12.262464062523694,12.513332684834799,10.480666637420654,2.266252574085221,2.0876636878601045,NA,6.225106851713542,9.609993213914112,10.777073197534175,11.28611897313085,11.550124613823561,12.262464062523694,12.513332684834799,10.480666637420654,0,0,NA,161.8527781445521,373.2726288506626,384.0497020481968,463.0525348601128,543.9034071568776,703.3154399696856,740.85543802419,740.85543802419,0,0,NA,0.6299230777300321,0.9264318162744696,1,1,1,0.9871538345630352,0.9949999809265138,0.05620000203450522,1,1,NA,1,1,1,1,1,1,1,1,0.1704500049352646,0.14409374669194222,NA,0.6299230777300321,0.9264318162744696,1,1,1,0.9871538345630352,0.9949999809265138,0.9871999994913737,1,1,NA,1,1,1,1,1,1,1,1,2017-04-12T12:00:00Z,2017-05-02T12:00:00Z,NA,2017-05-18T12:00:00Z,2017-06-13T12:00:00Z,2017-07-05T12:00:00Z,2017-07-06T12:00:00Z,2017-07-13T12:00:00Z,2017-07-20T12:00:00Z,2017-08-02T12:00:00Z,2017-08-05T12:00:00Z,2017-05-01T12:00:00Z,2017-05-17T12:00:00Z,NA,2017-06-12T12:00:00Z,2017-07-04T12:00:00Z,2017-07-05T12:00:00Z,2017-07-12T12:00:00Z,2017-07-19T12:00:00Z,2017-08-01T12:00:00Z,2017-08-04T12:00:00Z,2017-08-19T12:00:00Z,102,122,NA,138,164,186,187,194,201,214,217,19,15,0,25,21,0,6,6,12,2,14,121,137,NA,163,185,186,193,200,213,216,231
457,ridgetown_ont,42.4527,-81.8803,-0.5,2017,14,2017,mid00,797.9706849915747,11,2017-04-12,2017-04-26,129,2017-09-02,2017-09-06,2017-09-20,Harvested at Maturity.,2.551000000257045,3.501875001937151,3.154883742419093,3.661999950061242,1.4205555461554065,NA,3.5200000246986747,1.8585714272090368,1.587333327035109,2.4275000505149364,2.2779999921719236,2.551000000257045,3.501875001937151,3.154883742419093,3.661999950061242,1.4205555461554065,NA,3.5200000246986747,1.8585714272090368,1.587333327035109,2.4275000505149364,2.2779999921719236,17.152500081062318,19.71624994277954,22.616511522337447,22.22199993133545,22.126111136542427,NA,20.231249809265137,20.434285845075333,17.41733322143555,15.78250002861023,17.132666651407877,15.693499994277953,14.81187492609024,22.35348830112191,25.646666717529296,26.480000072055393,NA,24.989999771118164,25.55285726274763,24.344666544596354,22.044999599456787,22.313333384195964,10.923000037670135,10.235624964348972,18.021976748178172,21.826333491007485,22.16305555237664,NA,20.917499780654907,21.326428617749894,20.423333263397215,17.983749866485596,18.07333335876465,6.152500081062317,5.659375002607703,13.690465195234433,18.006000264485678,17.84611103269789,NA,16.84499979019165,17.099999972752162,16.50199998219808,13.922500133514404,13.833333333333334,2.266252574085221,2.0876636878601045,7.039671383957546,10.47434572077508,11.595813951949278,NA,10.929106453043222,11.327295758598192,10.5175711412402,8.31188923624605,7.611976694025993,2.266252574085221,2.0876636878601045,7.039671383957546,10.47434572077508,11.595813951949278,NA,10.929106453043222,11.327295758598192,10.5175711412402,8.31188923624605,7.611976694025993,0,0,302.70586951017447,459.82105532180066,668.5457064568877,NA,755.9785580812335,835.2696283914208,993.033195510024,1026.280752455008,1026.280752455008,0,0,0.7395348826120066,0.9973000017801921,0.990722213851081,NA,0.9741249918937683,1,0.929199997584025,0.7696249961853028,0.04843333244323731,1,1,1,1,1,NA,1,1,1,1,1,0.1704500049352646,0.14409374669194222,0.7395348826120066,0.9973000017801921,0.990722213851081,NA,0.9741249918937683,1,0.929199997584025,0.7696249961853028,0.7738333384195963,1,1,1,1,1,NA,1,1,1,1,1,2017-04-12T12:00:00Z,2017-05-02T12:00:00Z,2017-05-18T12:00:00Z,2017-06-30T12:00:00Z,2017-07-15T12:00:00Z,NA,2017-08-02T12:00:00Z,2017-08-10T12:00:00Z,2017-08-17T12:00:00Z,2017-09-01T12:00:00Z,2017-09-05T12:00:00Z,2017-05-01T12:00:00Z,2017-05-17T12:00:00Z,2017-06-29T12:00:00Z,2017-07-14T12:00:00Z,2017-08-01T12:00:00Z,NA,2017-08-09T12:00:00Z,2017-08-16T12:00:00Z,2017-08-31T12:00:00Z,2017-09-04T12:00:00Z,2017-09-19T12:00:00Z,102,122,138,181,196,NA,214,222,229,244,248,19,15,42,14,17,0,7,6,14,3,14,121,137,180,195,213,NA,221,228,243,247,262
458,ridgetown_ont,42.4527,-81.8803,0.5,2017,14,2017,mid0,823.7090012596932,11,2017-04-12,2017-04-26,132,2017-09-05,2017-09-11,2017-09-25,Harvested at Maturity.,2.551000000257045,3.501875001937151,3.1375000233846633,3.361764650024912,1.4470588192343712,9.93000030517578,2.2987499879673123,2.2033333082993827,1.560000002849847,4.113333364327749,1.6959999690453211,2.551000000257045,3.501875001937151,3.1375000233846633,3.361764650024912,1.4470588192343712,9.93000030517578,2.2987499879673123,2.2033333082993827,1.560000002849847,4.113333364327749,1.6959999690453211,17.152500081062318,19.71624994277954,22.562272613698784,22.61529400769402,21.874117682961856,11.84000015258789,19.87750005722046,18.75,17.850624918937683,17.788333415985107,16.998666508992514,15.693499994277953,14.81187492609024,22.44477267698808,25.48647061516257,26.837058796602136,23.13999938964844,24.56124997138977,26.140000025431316,23.43749988079071,20.189999898274742,25.593333435058593,10.923000037670135,10.235624964348972,18.135000022974882,21.560882512260886,22.617058669819553,19.84999942779541,20.460000038146973,21.84416651725769,19.467187494039536,15.882499933242798,21.185333410898846,6.152500081062317,5.659375002607703,13.82522736896168,17.635294409359204,18.397058543036966,16.559999465942383,16.358750104904175,17.548333009084065,15.49687510728836,11.574999968210856,16.777333386739095,2.266252574085221,2.0876636878601045,6.569276556519613,9.543135535881843,11.5164950162401,9.59616844388797,10.434302711828332,11.845178181580703,9.637570346957446,7.085977477357785,10.770939995621045,2.266252574085221,2.0876636878601045,6.569276556519613,9.543135535881843,11.5164950162401,9.59616844388797,10.434302711828332,11.845178181580703,9.637570346957446,7.085977477357785,10.770939995621045,0,0,289.04816848686295,451.2814725968543,647.061887872936,656.6580563168241,740.1324780114506,811.2035471009349,965.404672652254,1007.9205375164006,1007.9205375164006,0,0,0.7454545443708247,0.9976176486295812,0.990176461724674,0.9849999427795412,0.9759999990463257,1,0.8760312467813491,0.5690833330154419,0.03873333295186361,1,1,1,1,1,1,1,1,1,1,1,0.1704500049352646,0.14409374669194222,0.7454545443708247,0.9976176486295812,0.990176461724674,0.9849999427795412,0.9759999990463257,1,0.8760312467813491,0.5690833330154419,0.9462000052134196,1,1,1,1,1,0.9999999999999998,1,1,1,0.9999999999999999,1,2017-04-12T12:00:00Z,2017-05-02T12:00:00Z,2017-05-18T12:00:00Z,2017-07-01T12:00:00Z,2017-07-18T12:00:00Z,2017-08-04T12:00:00Z,2017-08-05T12:00:00Z,2017-08-13T12:00:00Z,2017-08-19T12:00:00Z,2017-09-04T12:00:00Z,2017-09-10T12:00:00Z,2017-05-01T12:00:00Z,2017-05-17T12:00:00Z,2017-06-30T12:00:00Z,2017-07-17T12:00:00Z,2017-08-03T12:00:00Z,2017-08-04T12:00:00Z,2017-08-12T12:00:00Z,2017-08-18T12:00:00Z,2017-09-03T12:00:00Z,2017-09-09T12:00:00Z,2017-09-24T12:00:00Z,102,122,138,182,199,216,217,225,231,247,253,19,15,43,16,16,0,7,5,15,5,14,121,137,181,198,215,216,224,230,246,252,267
459,ridgetown_ont,42.4527,-81.8803,1.5,2017,14,2017,mid1,1164.0497161668998,11,2017-04-12,2017-04-26,149,2017-09-22,2017-09-25,2017-10-09,Harvested at Maturity.,2.551000000257045,3.501875001937151,3.010800020955503,3.0554999453946947,2.2345000114291906,0.9900000095367432,2.165714306490762,1.0929999656975269,2.5883333310484886,1.6199999749660492,1.2993333329757055,2.551000000257045,3.501875001937151,3.010800020955503,3.0554999453946947,2.2345000114291906,0.9900000095367432,2.165714306490762,1.0929999656975269,2.5883333310484886,1.6199999749660492,1.2993333329757055,17.152500081062318,19.71624994277954,22.953599872589113,20.83600001335144,21.018000030517577,24.239999771118164,17.150000027247838,17.304999828338623,16.94888883166843,18.239999771118164,14.481999937693278,15.693499994277953,14.81187492609024,22.84859996795654,25.834000015258788,25.750999927520752,27.200000762939453,26.10571425301688,22.189999771118163,22.78388892279731,29.25666681925456,23.454666519165038,10.923000037670135,10.235624964348972,18.505500030517577,22.133500051498412,21.420999908447264,21.535000324249268,22.144999980926514,18.367999887466432,18.539444473054672,24.15666675567627,19.352333227793377,6.152500081062317,5.659375002607703,14.162400093078613,18.433000087738037,17.09099988937378,15.869999885559082,18.184285708836146,14.546000003814697,14.295000023312038,19.05666669209798,15.249999936421712,2.266252574085221,2.0876636878601045,6.11144202000894,9.464240275951582,10.578998954999841,11.535000324249268,12.144999980926514,8.636886669450403,9.02038523669574,14.021366326880456,8.34132935699145,2.266252574085221,2.0876636878601045,6.11144202000894,9.464240275951582,10.578998954999841,11.535000324249268,12.144999980926514,8.636886669450403,9.02038523669574,14.021366326880456,8.34132935699145,0,0,305.572101000447,494.85690651947857,706.4368856194754,717.9718859437247,802.9868858102103,889.3557525047144,1051.7226867652375,1093.786785745879,1093.786785745879,0,0,0.7751899995803834,0.9929999947547913,0.988299994468689,1,0.988642862864903,0.825199990272522,0.802861115667555,1,0.06666666666666667,1,1,1,1,1,1,1,1,1,1,1,0.1704500049352646,0.14409374669194222,0.7751899995803834,0.9929999947547913,0.988299994468689,1,0.988642862864903,0.825199990272522,0.802861115667555,1,0.8046666558583577,1,1,1,1,1,0.9999999999999998,1,1,1,1,1,2017-04-12T12:00:00Z,2017-05-02T12:00:00Z,2017-05-18T12:00:00Z,2017-07-07T12:00:00Z,2017-07-27T12:00:00Z,2017-08-16T12:00:00Z,2017-08-17T12:00:00Z,2017-08-24T12:00:00Z,2017-09-03T12:00:00Z,2017-09-21T12:00:00Z,2017-09-24T12:00:00Z,2017-05-01T12:00:00Z,2017-05-17T12:00:00Z,2017-07-06T12:00:00Z,2017-07-26T12:00:00Z,2017-08-15T12:00:00Z,2017-08-16T12:00:00Z,2017-08-23T12:00:00Z,2017-09-02T12:00:00Z,2017-09-20T12:00:00Z,2017-09-23T12:00:00Z,2017-10-08T12:00:00Z,102,122,138,188,208,228,229,236,246,264,267,19,15,49,19,19,0,6,9,17,2,14,121,137,187,207,227,228,235,245,263,266,281
460,ridgetown_ont,42.4527,-81.8803,2.5,2017,14,2017,mid2,1347.0293250215964,11,2017-04-12,2017-04-26,158,2017-10-01,2017-10-08,2017-10-22,Harvested at Maturity.,2.551000000257045,3.501875001937151,3.11254546682943,2.0504545150324702,2.5577272877774453,0.550000011920929,1.772999995201826,2.4872727163813333,1.7528571113944054,1.3071428707667758,2.655333289752404,2.551000000257045,3.501875001937151,3.11254546682943,2.0504545150324702,2.5577272877774453,0.550000011920929,1.772999995201826,2.4872727163813333,1.7528571113944054,1.3071428707667758,2.655333289752404,17.152500081062318,19.71624994277954,22.84472718672319,21.396363605152477,19.09590907530351,21.110000610351563,16.498999786376952,18.53545448996804,15.339285714285714,14.551428318023682,10.243333260218302,15.693499994277953,14.81187492609024,23.061090885509145,26.47272725538774,25.19545451077548,22.5,22.711999702453614,21.226363615556195,26.381428582327707,21.38571412222726,20.198666954040526,10.923000037670135,10.235624964348972,18.784636402130126,22.382727254520763,21.141590877012774,18.19000005722046,18.730499839782716,16.944090929898348,22.10214284488133,17.069285529000418,16.197666756312053,6.152500081062317,5.659375002607703,14.50818191875111,18.292727253653787,17.087727243250068,13.880000114440918,14.748999977111817,12.6618182442405,17.822857107434952,12.752856935773577,12.196666558583578,2.266252574085221,2.0876636878601045,5.37118904251984,8.978653798614964,10.384192458116637,8.190000057220459,8.988478880723118,7.727697831597653,12.155532130089828,7.793166338775839,5.47539191788276,2.266252574085221,2.0876636878601045,5.37118904251984,8.978653798614964,10.384192458116637,8.190000057220459,8.988478880723118,7.727697831597653,12.155532130089828,7.793166338775839,5.47539191788276,0,0,295.41539733859133,492.9457809081206,721.3980149866868,729.5880150439073,819.4728038511385,904.4774799987124,1074.65492981997,1129.207094191401,1129.207094191401,0,0,0.795627272345803,0.9924090840599754,0.9768636356700551,0.8190000057220459,0.8499499893188477,0.6915909160267223,0.9437857116971697,0.7016428402491979,0.06666666666666667,1,1,1,1,1,1,1,1,1,1,1,0.1704500049352646,0.14409374669194222,0.795627272345803,0.9924090840599754,0.9768636356700551,0.8190000057220459,0.8499499893188477,0.6915909160267223,0.9437857116971697,0.7016428402491979,0.6056333367029826,1,1,1,1,1,1,1,1,1,0.9999999999999999,1,2017-04-12T12:00:00Z,2017-05-02T12:00:00Z,2017-05-18T12:00:00Z,2017-07-12T12:00:00Z,2017-08-03T12:00:00Z,2017-08-25T12:00:00Z,2017-08-26T12:00:00Z,2017-09-05T12:00:00Z,2017-09-16T12:00:00Z,2017-09-30T12:00:00Z,2017-10-07T12:00:00Z,2017-05-01T12:00:00Z,2017-05-17T12:00:00Z,2017-07-11T12:00:00Z,2017-08-02T12:00:00Z,2017-08-24T12:00:00Z,2017-08-25T12:00:00Z,2017-09-04T12:00:00Z,2017-09-15T12:00:00Z,2017-09-29T12:00:00Z,2017-10-06T12:00:00Z,2017-10-21T12:00:00Z,102,122,138,193,215,237,238,248,259,273,280,19,15,54,21,21,0,9,10,13,6,14,121,137,192,214,236,237,247,258,272,279,294
466,ridgetown_ont,42.4527,-81.8803,-1.5,2019,14,2019,mid000,215.060485173581,11,2019-04-22,2019-05-06,91,2019-08-05,2019-08-08,2019-08-22,Harvested at Maturity.,3.0253333458056053,2.1225000163540244,NA,3.188214288292719,2.4752631610945652,1.1299999952316284,3.9114286101290157,5.970000076293945,1.493846166592378,1.1799999823172886,3.0566667020320892,3.0253333458056053,2.1225000163540244,NA,3.188214288292719,2.4752631610945652,1.1299999952316284,3.9114286101290157,5.970000076293945,1.493846166592378,1.1799999823172886,3.0566667020320892,16.13999996185303,16.474375188350677,NA,19.668928486960276,24.708947307185124,23.239999771118164,24.12428569793701,20.60199966430664,24.185384603647087,18.500000317891438,21.525999959309896,13.851333236694336,15.750625133514404,NA,21.211428778512136,26.098421096801758,26.030000686645508,27.261428560529435,28.817999649047852,26.59076925424429,27.56666628519694,27.18000005086263,9.151333298285802,11.039687566459179,NA,16.206785883222306,21.46315787967883,20.575000286102295,22.662142753601074,25.370999908447267,22.3573076908405,23.763333002726238,23.376000086466473,4.451333359877268,6.3287499994039536,NA,11.202142987932477,16.827894662555895,15.119999885559082,18.062856946672714,21.92400016784668,18.12384612743671,19.959999720255535,19.572000122070314,1.4229962861633796,2.3401423475653864,NA,5.863176907944092,10.581145759090708,9.947557434731548,12.066846624578012,14.91449902398502,12.335583269679884,13.763333002726238,12.487333424886067,1.4229962861633796,2.3401423475653864,NA,5.863176907944092,10.581145759090708,9.947557434731548,12.066846624578012,14.91449902398502,12.335583269679884,13.763333002726238,12.487333424886067,0,0,NA,164.16895342243456,365.2107228451581,375.1582802798896,459.62620665193566,534.1987017718608,694.5612842776993,735.851283285878,735.851283285878,0,0,NA,0.6196607283183507,0.9315789498780903,1,1,1,1,1,0.06666666666666667,1,1,NA,0.9997057158713204,1,1,1,1,1,1,1,0.08843332767486572,0.16271875351667406,NA,0.6196607283183507,0.9315789498780903,1,1,1,1,1,1,1,1,NA,1,1,1,1,1,0.9999999999999999,0.9999999999999999,1,2019-04-22T12:00:00Z,2019-05-07T12:00:00Z,NA,2019-05-23T12:00:00Z,2019-06-20T12:00:00Z,2019-07-09T12:00:00Z,2019-07-10T12:00:00Z,2019-07-17T12:00:00Z,2019-07-22T12:00:00Z,2019-08-04T12:00:00Z,2019-08-07T12:00:00Z,2019-05-06T12:00:00Z,2019-05-22T12:00:00Z,NA,2019-06-19T12:00:00Z,2019-07-08T12:00:00Z,2019-07-09T12:00:00Z,2019-07-16T12:00:00Z,2019-07-21T12:00:00Z,2019-08-03T12:00:00Z,2019-08-06T12:00:00Z,2019-08-21T12:00:00Z,112,127,NA,143,171,190,191,198,203,216,219,14,15,0,27,18,0,6,4,12,2,14,126,142,NA,170,189,190,197,202,215,218,233
467,ridgetown_ont,42.4527,-81.8803,-0.5,2019,14,2019,mid00,774.2853047282401,11,2019-04-22,2019-05-06,117,2019-08-31,2019-09-04,2019-09-18,Harvested at Maturity.,3.0253333458056053,2.1225000163540244,2.9320930242971626,3.70642861989992,2.2568750139325857,0.14000000059604645,2.8150000224510827,1.6683333466450374,2.8953846347733188,4.754999900236726,4.547333378593127,3.0253333458056053,2.1225000163540244,2.9320930242971626,3.70642861989992,2.2568750139325857,0.14000000059604645,2.8150000224510827,1.6683333466450374,2.8953846347733188,4.754999900236726,4.547333378593127,16.13999996185303,16.474375188350677,21.5225580681202,23.49785702569144,23.45562493801117,21.510000228881836,21.50833336512248,20.640000025431316,20.62230763068566,17.19000005722046,15.234666633605958,13.851333236694336,15.750625133514404,22.75953501324321,27.462142944335938,27.08062493801117,28.049999237060547,26.42833360036214,27.16833337148031,25.814614956195538,23.96750020980835,23.623999786376952,9.151333298285802,11.039687566459179,17.848139629807584,22.997142791748047,23.054375022649765,23.674999237060547,22.46166674296061,23.30333344141642,21.994615224691536,20.02875018119812,19.567999903361002,4.451333359877268,6.3287499994039536,12.936744246371957,18.532142639160156,19.02812510728836,19.299999237060547,18.494999885559082,19.43833351135254,18.174615493187538,16.09000015258789,15.512000020345052,1.4229962861633796,2.3401423475653864,6.895853627467811,11.693205014052003,12.597122542187368,13.674999237060549,12.461666742960611,13.303333441416422,12.024240191147877,10.048547186940908,8.887666575113933,1.4229962861633796,2.3401423475653864,6.895853627467811,11.693205014052003,12.597122542187368,13.674999237060549,12.461666742960611,13.303333441416422,12.024240191147877,10.048547186940908,8.887666575113933,0,0,296.5217059811158,460.2265761778438,661.7805368528416,675.4555360899021,750.2255365476658,830.0455371961643,986.3606596810866,1026.5548484288502,1026.5548484288502,0,0,0.722104661409245,1,1,1,1,1,0.9793461506183331,0.9568750143051148,0.06666666666666667,1,1,0.9991163036464557,1,1,1,1,1,1,1,1,0.08843332767486572,0.16271875351667406,0.722104661409245,1,1,1,1,1,0.9793461506183331,0.9568750143051148,0.8928666623433431,1,1,1,1,1,1,0.9999999999999999,0.9999999999999999,1,1,1,2019-04-22T12:00:00Z,2019-05-07T12:00:00Z,2019-05-23T12:00:00Z,2019-07-05T12:00:00Z,2019-07-19T12:00:00Z,2019-08-04T12:00:00Z,2019-08-05T12:00:00Z,2019-08-11T12:00:00Z,2019-08-17T12:00:00Z,2019-08-30T12:00:00Z,2019-09-03T12:00:00Z,2019-05-06T12:00:00Z,2019-05-22T12:00:00Z,2019-07-04T12:00:00Z,2019-07-18T12:00:00Z,2019-08-03T12:00:00Z,2019-08-04T12:00:00Z,2019-08-10T12:00:00Z,2019-08-16T12:00:00Z,2019-08-29T12:00:00Z,2019-09-02T12:00:00Z,2019-09-17T12:00:00Z,112,127,143,186,200,216,217,223,229,242,246,14,15,42,13,15,0,5,5,12,3,14,126,142,185,199,215,216,222,228,241,245,260
468,ridgetown_ont,42.4527,-81.8803,0.5,2019,14,2019,mid0,804.5992145422988,11,2019-04-22,2019-05-06,120,2019-09-03,2019-09-07,2019-09-21,Harvested at Maturity.,3.0253333458056053,2.1225000163540244,2.9388636378148063,3.763571490666696,1.9158823533969767,3.049999952316284,2.4133333613475165,2.7800000309944153,2.8614285847704326,3.8324998915195465,4.169333379839857,3.0253333458056053,2.1225000163540244,2.9388636378148063,3.763571490666696,1.9158823533969767,3.049999952316284,2.4133333613475165,2.7800000309944153,2.8614285847704326,3.8324998915195465,4.169333379839857,16.13999996185303,16.474375188350677,21.615454489534553,23.002857003893173,23.56823528514189,11.449999809265137,22.896666526794434,20.233333269755047,19.86285720552717,17.737499713897705,15.583999951680502,13.851333236694336,15.750625133514404,22.932045589793812,27.377142906188965,27.10294106427361,26.079999923706055,26.380000432332356,27.454999923706055,24.99285684313093,23.892499923706055,23.84599978129069,9.151333298285802,11.039687566459179,18.03318190574646,23.037142821720668,22.953823510338278,23.394999504089355,22.319166978200276,23.726666609446205,21.127499886921473,19.0900000333786,19.977666568756103,4.451333359877268,6.3287499994039536,13.134318221699107,18.69714273725237,18.804705956402948,20.709999084472656,18.2583335240682,19.99833329518636,17.26214293071202,14.287500143051147,16.109333356221516,1.4229962861633796,2.3401423475653864,6.491186214698856,10.953829561700363,11.976138585403016,13.251140499671328,12.312304687817415,13.726666609446207,11.1606650717003,9.335402883709966,9.452666568756104,1.4229962861633796,2.3401423475653864,6.491186214698856,10.953829561700363,11.976138585403016,13.251140499671328,12.312304687817415,13.726666609446207,11.1606650717003,9.335402883709966,9.452666568756104,0,0,285.6121934467497,438.9658073105548,642.5601632624061,655.8113037620775,729.685131888982,812.0451315456593,968.2944425494634,1005.6360540843032,1005.6360540843032,0,0,0.7284204645590349,1,1,1,1,1,0.9685000010899135,0.8798750042915344,0.052500000000000005,1,1,0.9991290111615377,1,1,1,1,1,1,1,1,0.08843332767486572,0.16271875351667406,0.7284204645590349,1,1,1,1,1,0.9685000010899135,0.8798750042915344,0.9248999945322672,1,1,1,1,1,1,1,1,1,1,1,2019-04-22T12:00:00Z,2019-05-07T12:00:00Z,2019-05-23T12:00:00Z,2019-07-06T12:00:00Z,2019-07-20T12:00:00Z,2019-08-06T12:00:00Z,2019-08-07T12:00:00Z,2019-08-13T12:00:00Z,2019-08-19T12:00:00Z,2019-09-02T12:00:00Z,2019-09-06T12:00:00Z,2019-05-06T12:00:00Z,2019-05-22T12:00:00Z,2019-07-05T12:00:00Z,2019-07-19T12:00:00Z,2019-08-05T12:00:00Z,2019-08-06T12:00:00Z,2019-08-12T12:00:00Z,2019-08-18T12:00:00Z,2019-09-01T12:00:00Z,2019-09-05T12:00:00Z,2019-09-20T12:00:00Z,112,127,143,187,201,218,219,225,231,245,249,14,15,43,13,16,0,5,5,13,3,14,126,142,186,200,217,218,224,230,244,248,263
469,ridgetown_ont,42.4527,-81.8803,1.5,2019,14,2019,mid1,1110.5640283256644,11,2019-04-22,2019-05-06,135,2019-09-18,2019-09-22,2019-10-06,Harvested at Maturity.,3.0253333458056053,2.1225000163540244,3.017000004090369,3.133529451401795,1.987777791917324,1.2200000286102295,4.35833336909612,2.0612500046845526,4.767647078370347,0.4749999879859388,2.9866666893164315,3.0253333458056053,2.1225000163540244,3.017000004090369,3.133529451401795,1.987777791917324,1.2200000286102295,4.35833336909612,2.0612500046845526,4.767647078370347,0.4749999879859388,2.9866666893164315,16.13999996185303,16.474375188350677,21.873999929428102,23.007058704600613,22.18611118528578,19.959999084472656,20.839999834696453,20.511250138282776,15.062941102420583,19.367499828338623,12.648666667938233,13.851333236694336,15.750625133514404,23.459000129699707,27.097058801090018,27.01611116197374,26.15999984741211,27.553332964579266,24.40749955177307,23.624705707325656,24.260000228881836,22.60866667429606,9.151333298285802,11.039687566459179,18.584300079345702,23.177058808943805,22.84361113442315,22.15499973297119,23.957499901453655,20.357499837875366,19.614117566277,20.266250133514404,18.829999987284342,4.451333359877268,6.3287499994039536,13.7096000289917,19.257058816797592,18.67111110687256,18.149999618530273,20.361666838328045,16.30750012397766,15.603529425228343,16.272500038146973,15.051333300272624,1.4229962861633796,2.3401423475653864,6.1929007109976215,10.543026875467739,12.033453447464295,12.154999732971191,13.957499901453653,10.405640408366919,9.747100305400876,10.266250133514404,7.9209999720255535,1.4229962861633796,2.3401423475653864,6.1929007109976215,10.543026875467739,12.033453447464295,12.154999732971191,13.957499901453653,10.405640408366919,9.747100305400876,10.266250133514404,7.9209999720255535,0,0,309.6450355498811,488.8764924328327,705.4786544871899,717.6336542201611,801.3786536288831,884.6237768958183,1050.3244820876332,1091.3894826216908,1091.3894826216908,0,0,0.7610100088119507,1,1,1,1,0.9664374947547912,0.898147055682014,0.9880000114440918,0.06666666666666667,1,1,0.9992106392569324,1,1,1,1,1,1,1,1,0.08843332767486572,0.16271875351667406,0.7610100088119507,1,1,1,1,0.9664374947547912,0.898147055682014,0.9880000114440918,0.7971333249409994,1,1,1,1,1,1,1,1,1,1,1,2019-04-22T12:00:00Z,2019-05-07T12:00:00Z,2019-05-23T12:00:00Z,2019-07-12T12:00:00Z,2019-07-29T12:00:00Z,2019-08-16T12:00:00Z,2019-08-17T12:00:00Z,2019-08-23T12:00:00Z,2019-08-31T12:00:00Z,2019-09-17T12:00:00Z,2019-09-21T12:00:00Z,2019-05-06T12:00:00Z,2019-05-22T12:00:00Z,2019-07-11T12:00:00Z,2019-07-28T12:00:00Z,2019-08-15T12:00:00Z,2019-08-16T12:00:00Z,2019-08-22T12:00:00Z,2019-08-30T12:00:00Z,2019-09-16T12:00:00Z,2019-09-20T12:00:00Z,2019-10-05T12:00:00Z,112,127,143,193,210,228,229,235,243,260,264,14,15,49,16,17,0,5,7,16,3,14,126,142,192,209,227,228,234,242,259,263,278
470,ridgetown_ont,42.4527,-81.8803,2.5,2019,14,2019,mid2,1315.151343405976,11,2019-04-22,2019-05-06,145,2019-09-28,2019-10-04,2019-10-18,Harvested at Maturity.,3.0253333458056053,2.1225000163540244,3.041851859022346,2.498000027984381,2.9472222460640802,0.25999999046325684,2.3677777852863073,4.2944444591800375,3.416250013629906,2.3983333309491477,2.8966666760543984,3.0253333458056053,2.1225000163540244,3.041851859022346,2.498000027984381,2.9472222460640802,0.25999999046325684,2.3677777852863073,4.2944444591800375,3.416250013629906,2.3983333309491477,2.8966666760543984,16.13999996185303,16.474375188350677,22.1887036341208,22.65249991416931,20.996111075083416,22.360000610351563,18.951111157735188,16.355555534362793,15.94124984741211,10.318333466847738,11.025999895731609,13.851333236694336,15.750625133514404,23.689259387828685,27.26249990463257,27.049999978807236,24.15999984741211,24.05555534362793,23.056666480170357,24.631874918937683,22.888333320617676,17.23400001525879,9.151333298285802,11.039687566459179,18.820925995155616,23.28224995136261,23.24083336194356,19.170000076293945,20.241111013624405,18.704999923706055,20.8046875,18.93499994277954,13.569000005722046,4.451333359877268,6.3287499994039536,13.952592602482548,19.30199999809265,19.431666745079887,14.18000030517578,16.426666683620876,14.353333367241754,16.977500081062317,14.981666564941406,9.903999996185302,1.4229962861633796,2.3401423475653864,5.430830505973216,9.904192569334263,12.376356943762376,9.170000076293944,10.28788951332834,8.947390872832138,10.813345943715424,9.053958387600382,3.410139632997711,1.4229962861633796,2.3401423475653864,5.430830505973216,9.904192569334263,12.376356943762376,9.170000076293944,10.28788951332834,8.947390872832138,10.813345943715424,9.053958387600382,3.410139632997711,0,0,293.2648473225537,491.348698709239,714.1231236969617,723.2931237732556,815.8841293932106,896.4106472486999,1069.4241823481468,1123.7479326737491,1123.7479326737491,0,0,0.7787129711221766,1,1,0.9170000076293946,0.9602222230699328,0.8437222162882487,0.9612187445163727,0.8354166666666667,0.053499997456868495,1,1,0.9992563366456864,1,1,1,1,1,1,1,1,0.08843332767486572,0.16271875351667406,0.7787129711221766,1,1,0.9170000076293946,0.9602222230699328,0.8437222162882487,0.9612187445163727,0.8354166666666667,0.371966667175293,1,1,1,1,1,1,0.9999999999999999,1,1,1,1,2019-04-22T12:00:00Z,2019-05-07T12:00:00Z,2019-05-23T12:00:00Z,2019-07-16T12:00:00Z,2019-08-05T12:00:00Z,2019-08-23T12:00:00Z,2019-08-24T12:00:00Z,2019-09-02T12:00:00Z,2019-09-11T12:00:00Z,2019-09-27T12:00:00Z,2019-10-03T12:00:00Z,2019-05-06T12:00:00Z,2019-05-22T12:00:00Z,2019-07-15T12:00:00Z,2019-08-04T12:00:00Z,2019-08-22T12:00:00Z,2019-08-23T12:00:00Z,2019-09-01T12:00:00Z,2019-09-10T12:00:00Z,2019-09-26T12:00:00Z,2019-10-02T12:00:00Z,2019-10-17T12:00:00Z,112,127,143,197,217,235,236,245,254,270,276,14,15,53,19,17,0,8,8,15,5,14,126,142,196,216,234,235,244,253,269,275,290
