ID,Site,Latitude,Longitude,Year,Planting,Genetics,ID_Loc,Mat,Yield_Sim,MaxStage,StartDate,PlantingDate_Sim,DTM_Sim,MatDate_Sim,HarvestDate_Sim,EndDate,Result,Rain_1,Rain_2,Rain_3,Rain_4,Rain_5,Rain_6,Rain_7,Rain_8,Rain_9,Rain_10,Rain_11,AccRain_1,AccRain_2,AccRain_3,AccRain_4,AccRain_5,AccRain_6,AccRain_7,AccRain_8,AccRain_9,AccRain_10,AccRain_11,Radn_1,Radn_2,Radn_3,Radn_4,Radn_5,Radn_6,Radn_7,Radn_8,Radn_9,Radn_10,Radn_11,MaxT_1,MaxT_2,MaxT_3,MaxT_4,MaxT_5,MaxT_6,MaxT_7,MaxT_8,MaxT_9,MaxT_10,MaxT_11,MeanT_1,MeanT_2,MeanT_3,MeanT_4,MeanT_5,MeanT_6,MeanT_7,MeanT_8,MeanT_9,MeanT_10,MeanT_11,MinT_1,MinT_2,MinT_3,MinT_4,MinT_5,MinT_6,MinT_7,MinT_8,MinT_9,MinT_10,MinT_11,ThermalTime_1,ThermalTime_2,ThermalTime_3,ThermalTime_4,ThermalTime_5,ThermalTime_6,ThermalTime_7,ThermalTime_8,ThermalTime_9,ThermalTime_10,ThermalTime_11,AccTT_1,AccTT_2,AccTT_3,AccTT_4,AccTT_5,AccTT_6,AccTT_7,AccTT_8,AccTT_9,AccTT_10,AccTT_11,AccEmTT_1,AccEmTT_2,AccEmTT_3,AccEmTT_4,AccEmTT_5,AccEmTT_6,AccEmTT_7,AccEmTT_8,AccEmTT_9,AccEmTT_10,AccEmTT_11,FracGrowthRate_1,FracGrowthRate_2,FracGrowthRate_3,FracGrowthRate_4,FracGrowthRate_5,FracGrowthRate_6,FracGrowthRate_7,FracGrowthRate_8,FracGrowthRate_9,FracGrowthRate_10,FracGrowthRate_11,NutrientStress_1,NutrientStress_2,NutrientStress_3,NutrientStress_4,NutrientStress_5,NutrientStress_6,NutrientStress_7,NutrientStress_8,NutrientStress_9,NutrientStress_10,NutrientStress_11,TempStress_1,TempStress_2,TempStress_3,TempStress_4,TempStress_5,TempStress_6,TempStress_7,TempStress_8,TempStress_9,TempStress_10,TempStress_11,WaterStress_1,WaterStress_2,WaterStress_3,WaterStress_4,WaterStress_5,WaterStress_6,WaterStress_7,WaterStress_8,WaterStress_9,WaterStress_10,WaterStress_11,Period_Start_Date_1,Period_Start_Date_2,Period_Start_Date_3,Period_Start_Date_4,Period_Start_Date_5,Period_Start_Date_6,Period_Start_Date_7,Period_Start_Date_8,Period_Start_Date_9,Period_Start_Date_10,Period_Start_Date_11,Period_End_Date_1,Period_End_Date_2,Period_End_Date_3,Period_End_Date_4,Period_End_Date_5,Period_End_Date_6,Period_End_Date_7,Period_End_Date_8,Period_End_Date_9,Period_End_Date_10,Period_End_Date_11,Period_Start_DOY_1,Period_Start_DOY_2,Period_Start_DOY_3,Period_Start_DOY_4,Period_Start_DOY_5,Period_Start_DOY_6,Period_Start_DOY_7,Period_Start_DOY_8,Period_Start_DOY_9,Period_Start_DOY_10,Period_Start_DOY_11,Duration_1,Duration_2,Duration_3,Duration_4,Duration_5,Duration_6,Duration_7,Duration_8,Duration_9,Duration_10,Duration_11,Period_End_DOY_1,Period_End_DOY_2,Period_End_DOY_3,Period_End_DOY_4,Period_End_DOY_5,Period_End_DOY_6,Period_End_DOY_7,Period_End_DOY_8,Period_End_DOY_9,Period_End_DOY_10,Period_End_DOY_11
1,lafayette_in,40.399,-86.8592,2017,2017-05-28,1,1,early1,763.2111235002212,11,2017-05-14,2017-05-28,95,2017-08-31,2017-09-11,2017-09-25,Harvested at Maturity.,5.186666774749756,0.33250001072883606,5.6651723878136995,6.067647050408756,5.425000071525574,10.3149995803833,0.08571428912026542,0.6750000317891439,4.819166660308838,0.6663636294278231,2.038666653633118,5.186666774749756,0.33250001072883606,5.6651723878136995,6.067647050408756,5.425000071525574,10.3149995803833,0.08571428912026542,0.6750000317891439,4.819166660308838,0.6663636294278231,2.038666653633118,19.50315990447998,25.582999229431152,20.338944287135682,19.91655215095071,19.58810019493103,14.43383502960205,21.72013909476144,20.361550172170006,17.202683846155804,17.705288887023926,15.329100354512532,24.29066670735677,25.65750026702881,28.23482763356176,28.727058747235468,28.71250009536743,24.085000038146973,25.602857317243306,28.088333129882813,26.535833199818928,23.506363955411043,28.214666748046874,18.56733331680298,18.72250008583069,22.005000065112934,23.33911766725428,22.96187511086464,19.737499713897705,19.484999997275217,21.59999982515971,20.46624990304311,17.073636466806587,21.44433348973592,12.843999926249186,11.787499904632568,15.775172496664114,17.951176587273093,17.211250126361847,15.389999389648438,13.367142677307129,15.111666520436605,14.396666606267294,10.640908978202127,14.674000231424968,8.57107931163629,8.722500085830688,9.705670233307865,11.366049914902543,12.034267643680243,9.64369830713909,9.812313903179339,11.791648727355401,10.783890496057271,8.261499711448767,10.677049539684852,8.57107931163629,8.722500085830688,9.705670233307865,11.366049914902543,12.034267643680243,9.64369830713909,9.812313903179339,11.791648727355401,10.783890496057271,8.261499711448767,10.677049539684852,0,0,281.4644367659281,474.68728531927144,667.2355676181555,686.5229642324337,755.209161554689,825.9590539188214,955.3657398715086,1046.2422366974452,1046.2422366974452,0,0,0.9397241395095299,0.9999705903670367,0.9948437511920929,0.8177499771118164,0.9146428585052491,0.9556666692097981,0.9114166577657064,0.6914090958508579,0.028966668446858728,1,1,1,1,1,1,1,1,1,1,1,0.7757666619618734,0.8650000214576722,0.9397241395095299,0.9999705903670367,0.9948437511920929,0.8177499771118164,0.9146428585052491,0.9556666692097981,0.9114166577657064,0.6914090958508579,0.8776999982198079,1,1,1,0.9999999999999999,1,1,0.9999999999999999,0.9999999999999999,0.9999999999999999,0.9999999999999999,1,2017-05-14,2017-05-29,2017-06-02,2017-07-01,2017-07-18,2017-08-03,2017-08-05,2017-08-12,2017-08-18,2017-08-30,2017-09-10,2017-05-28,2017-06-01,2017-06-30,2017-07-17,2017-08-02,2017-08-04,2017-08-11,2017-08-17,2017-08-29,2017-09-09,2017-09-24,134,149,153,182,199,215,217,224,230,242,253,15,4,29,17,16,2,7,6,12,11,15,148,152,181,198,214,216,223,229,241,252,267
2,rosemount_mn,44.707,-93.101,2017,2017-05-28,1,2,early1,905.57891988670406,11,2017-05-14,2017-05-28,115,2017-09-20,2017-09-30,2017-10-14,Harvested at Maturity.,9.425333484013874,0.7400000095367432,3.025946003359717,6.63263160617728,4.903809519041152,0,7.268888884120518,0.5911111235618591,1.5250000059604645,2.7590000152587892,4.970666732390722,9.425333484013874,0.7400000095367432,3.025946003359717,6.63263160617728,4.903809519041152,0,7.268888884120518,0.5911111235618591,1.5250000059604645,2.7590000152587892,4.970666732390722,17.74012098312378,21.938987922668456,20.712067848927266,19.763151971917402,17.50430697486514,21.83051109313965,13.147521442837185,17.579389890034992,15.231853365898132,11.525926065444946,10.04327351252238,18.968666648864748,23.168000411987304,26.94216202400826,28.11000000803094,24.924285616193497,26.170000076293945,23.338889016045464,23.316666709052193,24.87166690826416,25.24900016784668,17.052666854858398,14.20966664950053,16.388000345230104,20.939594565211117,22.451578893159564,19.569761912027996,19.300000190734863,18.875555568271214,17.466111130184597,18.767916798591614,19.380000162124634,11.950333442290624,9.450666650136311,9.6080002784729,14.93702710641397,16.79315777828819,14.215238207862491,12.43000030517578,14.412222120496962,11.615555551317003,12.664166688919067,13.511000156402588,6.84800002972285,4.825350253074765,6.3368585767138,7.848062782952173,10.050726543082503,9.11706287929286,9.300000190734863,9.058296428183052,8.333641962935527,9.637154218013585,9.7691149734056,2.7592578050295264,4.825350253074765,6.3368585767138,7.848062782952173,10.050726543082503,9.11706287929286,9.300000190734863,9.058296428183052,8.333641962935527,9.637154218013585,9.7691149734056,2.7592578050295264,0,0,290.37832296923034,481.3421272877979,672.800447752948,682.1004479436829,763.6251157973303,838.6278934637502,954.2737440799132,1051.9648938139694,1051.9648938139694,0,0,0.924067565557119,0.9823947379463598,0.8969285737900508,0.9300000190734864,0.8536666658189562,0.7395555602179633,0.7722916682561238,0.786800012588501,0.018033334414164225,1,1,1,1,1,1,1,1,1,1,1,0.4466666682561239,0.6196000146865845,0.924067565557119,0.9823947379463598,0.8969285737900508,0.9300000190734864,0.8536666658189562,0.7395555602179633,0.7722916682561238,0.786800012588501,0.2439666748046875,1,1,1,1,0.9999999999999999,1,1,1,1,0.9999999999999999,1,2017-05-14,2017-05-29,2017-06-03,2017-07-10,2017-07-29,2017-08-19,2017-08-20,2017-08-29,2017-09-07,2017-09-19,2017-09-29,2017-05-28,2017-06-02,2017-07-09,2017-07-28,2017-08-18,2017-08-19,2017-08-28,2017-09-06,2017-09-18,2017-09-28,2017-10-13,134,149,154,191,210,231,232,241,250,262,272,15,5,37,19,21,1,9,9,12,10,15,148,153,190,209,230,231,240,249,261,271,286
3,morris_mn,45.3552,-95.5436,2017,2017-05-27,1,3,early1,898.5620450336984,11,2017-05-13,2017-05-27,120,2017-09-24,2017-10-08,2017-10-22,Harvested at Maturity.,5.288000094890594,0.14166667064030966,2.466842118062471,1.0214999854564666,7.369130349677542,0,4.982500195503235,0.37888889842563206,3.03461538369839,7.99428557072367,1.237333393096924,5.288000094890594,0.14166667064030966,2.466842118062471,1.0214999854564666,7.369130349677542,0,4.982500195503235,0.37888889842563206,3.03461538369839,7.99428557072367,1.237333393096924,18.585653082529703,22.722949822743733,21.6427163324858,20.045178413391113,17.28601704473081,22.328588485717773,16.382243633270264,18.088016827901203,13.444905060988205,9.966675043106079,11.168740240732829,19.449999872843424,23.201666990915935,27.322631685357344,28.624999904632567,24.830869508826215,25.06999969482422,24.516249656677246,23.559999889797634,25.746153611403244,19.052857194628036,18.823333295186362,13.778333290417988,15.913333495457968,20.54342111788298,22.32449996471405,18.950434684753418,16.710000038146973,18.712499856948853,16.58722217877706,19.287692143366886,13.56178570645196,10.947333319981894,8.106666707992554,8.625,13.764210550408615,16.024000024795534,13.069999860680621,8.350000381469727,12.908750057220459,9.614444467756483,12.829230675330528,8.070714218275887,3.0713333447774254,4.6093255843695005,5.857250187931458,7.424155540586291,9.886590352884312,8.604867118023785,6.830526954770088,9.110189911233633,8.22056234959993,9.843817132626588,6.33950411393206,2.8047126891784617,4.6093255843695005,5.857250187931458,7.424155540586291,9.886590352884312,8.604867118023785,6.830526954770088,9.110189911233633,8.22056234959993,9.843817132626588,6.33950411393206,2.8047126891784617,0,0,282.1179105422791,479.8497175999654,677.7616613145125,684.5921882692826,757.4737075591516,831.4587687055512,959.4283914296968,1048.1814490247457,1048.1814490247457,0,0,0.9006184239136545,0.9798749995231628,0.8572391261225162,0.6710000038146973,0.865999984741211,0.6416666640175713,0.8166923082791842,0.3624285663877215,0.029433334668477376,1,1,1,1,1,1,1,1,1,1,1,0.41373333056767786,0.559166669845581,0.9006184239136545,0.9798749995231628,0.8572391261225162,0.6710000038146973,0.865999984741211,0.6416666640175713,0.8166923082791842,0.3624285663877215,0.18273333410422007,1,1,1,1,1,1,1,1,1,0.9999999999999999,1,2017-05-13,2017-05-28,2017-06-03,2017-07-11,2017-07-31,2017-08-23,2017-08-24,2017-09-01,2017-09-10,2017-09-23,2017-10-07,2017-05-27,2017-06-02,2017-07-10,2017-07-30,2017-08-22,2017-08-23,2017-08-31,2017-09-09,2017-09-22,2017-10-06,2017-10-21,133,148,154,192,212,235,236,244,253,266,280,15,6,38,20,23,1,8,9,13,14,15,147,153,191,211,234,235,243,252,265,279,294
4,pontiac_il,40.82216667,-88.62016667,2017,2017-05-28,2,4,early2,975.8100522433796,11,2017-05-14,2017-05-28,110,2017-09-15,2017-09-22,2017-10-06,Harvested at Maturity.,3.480666661262512,0,3.3465517307149955,5.091739188069883,1.568823540911955,8.600000381469727,0.24285714966910227,3.3257144008363997,0.9984999656677246,3.9485713413783485,0.5919999917348225,3.480666661262512,0,3.3465517307149955,5.091739188069883,1.568823540911955,8.600000381469727,0.24285714966910227,3.3257144008363997,0.9984999656677246,3.9485713413783485,0.5919999917348225,19.420468521118163,25.133507251739502,21.316017644158727,19.23853525908097,20.596791547887467,17.53900718688965,20.071886607578822,17.797658375331334,18.499714040756224,15.537437983921595,12.915760898590088,24.08866653442383,25.65000009536743,29.144827678285797,30.256956432176672,27.192941104664524,28.93000030517578,27.89857155936105,27.468571254185267,24.62849998474121,29.329999651227677,28.041333770751955,18.058666642506918,18.5349999666214,22.538793119890936,24.040869546973187,21.06676483154297,21.24500036239624,21.577142919812886,21.574999945504324,17.514249992370605,22.01499993460519,21.142666975657146,12.028666750590007,11.419999837875366,15.932758561496078,17.824782661769703,14.940588558421416,13.5600004196167,15.255714280264717,15.681428636823382,10.4,14.700000217982701,14.244000180562336,8.096342291066248,8.534999966621399,8.720249700423722,10.626238355163014,9.974563420853682,11.025770075539135,11.69804724022128,11.77754370723452,8.710088279509396,11.959662648183107,9.510955118132433,8.096342291066248,8.534999966621399,8.720249700423722,10.626238355163014,9.974563420853682,11.025770075539135,11.69804724022128,11.77754370723452,8.710088279509396,11.959662648183107,9.510955118132433,0,0,252.88724131228795,497.2907234810371,666.8583016355498,677.884071711089,759.7704023926378,842.2132083432795,1016.4149739334672,1100.132612470749,1100.132612470749,0,0,0.951120688997466,1,0.9653235351338106,1,0.977571439743042,0.9494285583496094,0.7432249999046326,0.9941428593226842,0.06666666666666667,1,1,1,1,1,1,1,1,1,1,1,0.7310333379109701,0.8534999966621399,0.951120688997466,1,0.9653235351338106,1,0.977571439743042,0.9494285583496094,0.7432249999046326,0.9941428593226842,0.85506667137146,1,1,1,1,1,0.9999999999999998,0.9999999999999999,0.9999999999999999,0.9999999999999999,0.9999999999999999,1,2017-05-14,2017-05-29,2017-06-02,2017-07-01,2017-07-24,2017-08-10,2017-08-11,2017-08-18,2017-08-25,2017-09-14,2017-09-21,2017-05-28,2017-06-01,2017-06-30,2017-07-23,2017-08-09,2017-08-10,2017-08-17,2017-08-24,2017-09-13,2017-09-20,2017-10-05,134,149,153,182,205,222,223,230,237,257,264,15,4,29,23,17,1,7,7,20,7,15,148,152,181,204,221,222,229,236,256,263,278
5,urbana_il,40.05325,-88.23485,2017,2017-05-27,2,5,early2,957.9249946250528,11,2017-05-13,2017-05-27,103,2017-09-07,2017-09-16,2017-09-30,Harvested at Maturity.,4.53733328183492,0.033333333830038704,1.4171428850718908,2.7043478372304337,2.4486666957537335,0,0.054999999701976776,0.2716666609048843,2.38411758927738,0.2288888825310601,1.3773333231608074,4.53733328183492,0.033333333830038704,1.4171428850718908,2.7043478372304337,2.4486666957537335,0,0.054999999701976776,0.2716666609048843,2.38411758927738,0.2288888825310601,1.3773333231608074,19.69778887430827,23.471718470255535,22.53637821333749,20.192955804907758,19.008795992533365,23.52945327758789,21.267399191856384,19.891074180603027,18.886002652785358,17.26329167683919,14.758611234029134,24.61266670227051,26.470000584920246,29.13964285169329,30.148260945859164,28.84800008138021,24.799999237060547,26.461250066757202,29.520000139872234,26.738235361435834,23.933333502875435,30.78466682434082,18.70866667429606,20.485000133514404,22.58035717691694,24.182391270347264,23.19099998474121,18.114999771118164,20.1856250166893,23.34166661898295,20.072647038628073,16.978889014985825,23.513000138600667,12.804666646321614,14.499999682108562,16.02107150214059,18.216521594835363,17.533999888102212,11.43000030517578,13.909999966621399,17.16333309809367,13.407058715820313,10.024444527096218,16.241333452860513,8.723697899178267,10.485000133514404,8.995560821869796,10.829415464594105,11.429055419834533,7.701377625880033,10.24864872829386,13.327824045292537,10.432800260646202,8.380514334881967,11.555832604566415,8.723697899178267,10.485000133514404,8.995560821869796,10.829415464594105,11.429055419834533,7.701377625880033,10.24864872829386,13.327824045292537,10.432800260646202,8.380514334881967,11.555832604566415,0,0,251.87570301235428,500.9522586980188,672.388089995537,680.089467621417,762.0786574477678,842.045601719523,1019.4032061505084,1094.8278351644462,1094.8278351644462,0,0,0.9528035742895944,1,0.9840666643778483,0.8114999771118164,0.9646250009536743,1,0.903529411203721,0.6891666756735908,0.06666666666666667,1,1,1,1,1,1,1,1,1,1,1,0.7880333296457926,0.9740000089009603,0.9528035742895944,1,0.9840666643778483,0.8114999771118164,0.9646250009536743,1,0.903529411203721,0.6891666756735908,0.9524666659037272,1,1,1,0.9999999999999999,1,0.9999999999999998,1,1,0.9999999999999999,1,1,2017-05-13,2017-05-28,2017-05-31,2017-06-28,2017-07-21,2017-08-05,2017-08-06,2017-08-14,2017-08-20,2017-09-06,2017-09-15,2017-05-27,2017-05-30,2017-06-27,2017-07-20,2017-08-04,2017-08-05,2017-08-13,2017-08-19,2017-09-05,2017-09-14,2017-09-29,133,148,151,179,202,217,218,226,232,249,258,15,3,28,23,15,1,8,6,17,9,15,147,150,178,201,216,217,225,231,248,257,272
6,lafayette_in,40.399,-86.8592,2017,2017-05-28,2,1,early2,896.1791527202433,11,2017-05-14,2017-05-28,111,2017-09-16,2017-09-22,2017-10-06,Harvested at Maturity.,5.186666774749756,0.33250001072883606,5.6651723878136995,8.135909134691412,1.6942104854081805,NA,0.5785714558192662,6.805714266640799,0.9019047589529128,4.8599999745686855,1.2146666685740153,5.186666774749756,0.33250001072883606,5.6651723878136995,8.135909134691412,1.6942104854081805,NA,0.5785714558192662,6.805714266640799,0.9019047589529128,4.8599999745686855,1.2146666685740153,19.50315990447998,25.582999229431152,20.338944287135682,19.56262558156794,20.123019218444824,NA,20.3362580708095,16.862273897443497,17.544480142139253,13.959447224934896,13.248980108896891,24.29066670735677,25.65750026702881,28.23482763356176,29.113181807778098,26.710526416176243,NA,27.955714089529856,27.558571406773158,23.744285765148344,29.464999834696453,27.565333557128906,18.56733331680298,18.72250008583069,22.005000065112934,23.663409189744428,20.94078944858752,NA,21.593571254185267,21.733571325029647,17.282142877578735,22.951666752497353,20.777666743596395,12.843999926249186,11.787499904632568,15.775172496664114,18.21363657171076,15.171052480998792,NA,15.23142841884068,15.908571243286133,10.819999990009126,16.43833367029826,13.989999930063883,8.57107931163629,8.722500085830688,8.662135361681083,10.66937000677453,9.930169928403751,NA,11.750280515453904,11.85424715681672,8.401537382958475,12.756897414157788,9.407436928946176,8.57107931163629,8.722500085830688,8.662135361681083,10.66937000677453,9.930169928403751,NA,11.750280515453904,11.85424715681672,8.401537382958475,12.756897414157788,9.407436928946176,0,0,251.20192548875144,485.9280656377911,674.6012942774627,NA,756.85325788564,839.832987983357,1016.265273025485,1092.8066575104317,1092.8066575104317,0,0,0.9397241395095299,0.9999772743745283,0.9450263148859928,NA,0.9620000021798271,0.9530714171273368,0.7160238095692226,1,0.06666666666666667,1,1,1,1,1,NA,1,1,1,1,1,0.7757666619618734,0.8650000214576722,0.9397241395095299,0.9999772743745283,0.9450263148859928,NA,0.9620000021798271,0.9530714171273368,0.7160238095692226,1,0.8546999947230022,1,1,1,1,1,NA,0.9999999999999999,1,1,1,1,2017-05-14,2017-05-29,2017-06-02,2017-07-01,2017-07-23,NA,2017-08-11,2017-08-18,2017-08-25,2017-09-15,2017-09-21,2017-05-28,2017-06-01,2017-06-30,2017-07-22,2017-08-10,NA,2017-08-17,2017-08-24,2017-09-14,2017-09-20,2017-10-05,134,149,153,182,204,NA,223,230,237,258,264,15,4,29,22,19,0,7,7,21,6,15,148,152,181,203,222,NA,229,236,257,263,278
7,eastlansing_mi,42.6296,-84.4375,2017,2017-05-29,2,6,early2,945.6691828744416,11,2017-05-15,2017-05-29,122,2017-09-28,2017-10-08,2017-10-22,Harvested at Maturity.,2.8593332767486572,0.33199999332427976,2.508787893887722,1.5255555444293551,3.150588224915897,0,1.1250000238418578,0.8690908930518411,0.9175000116229057,2.9730000853538514,8.786000156402588,2.8593332767486572,0.33199999332427976,2.508787893887722,1.5255555444293551,3.150588224915897,0,1.1250000238418578,0.8690908930518411,0.9175000116229057,2.9730000853538514,8.786000156402588,20.14681574503581,25.95842742919922,21.065640940810695,21.261418095341433,17.16310397316428,22.3388729095459,16.827875328063964,18.34463041478937,15.145617485046387,11.907392263412476,8.407907565434774,22.755333455403647,24.389999771118163,27.32333333564527,27.93296312402796,26.247058756211224,29.290000915527344,23.80900001525879,21.688181790438566,28.813125252723694,22.108000183105467,20.426000022888182,16.814000113805136,16.73299984931946,21.08499999479814,21.872037092844646,20.287352870492374,21.11500024795532,17.762999963760375,14.648181828585537,21.186250060796738,15.017000079154968,14.811333258946735,10.872666772206625,9.075999927520751,14.84666665395101,15.811111061661332,14.327646984773525,12.9399995803833,11.716999912261963,7.608181866732511,13.559374868869781,7.925999975204468,9.196666495005289,7.021808710532388,6.823056003452539,7.4441718265705354,9.277202006977909,9.889501380852348,11.115000247955322,8.78059160325706,7.166722473976016,11.06796987597905,7.3712299476000664,4.5257256331396105,7.021808710532388,6.823056003452539,7.4441718265705354,9.277202006977909,9.889501380852348,11.115000247955322,8.78059160325706,7.166722473976016,11.06796987597905,7.3712299476000664,4.5257256331396105,0,0,245.65767027682764,496.1421244652311,664.263647939721,675.3786481876763,763.1845642202468,842.0185114339829,1019.1060294496478,1092.8183289256483,1092.8183289256483,0,0,0.9063333352406819,0.9896111135129575,0.9405882302452536,1,0.7328499984741211,0.458863639831543,0.8879687428474426,0.5017000079154968,0.06666666666666667,1,1,1,1,1,1,1,1,1,1,1,0.6495666774113974,0.6732999849319459,0.9063333352406819,0.9896111135129575,0.9405882302452536,1,0.7328499984741211,0.458863639831543,0.8879687428474426,0.5017000079154968,0.4842666610081991,1,1,1,0.9999999999999999,1,1,0.9999999999999999,0.9999999999999999,0.9999999999999999,1,1,2017-05-15,2017-05-30,2017-06-04,2017-07-07,2017-08-03,2017-08-20,2017-08-21,2017-08-31,2017-09-11,2017-09-27,2017-10-07,2017-05-29,2017-06-03,2017-07-06,2017-08-02,2017-08-19,2017-08-20,2017-08-30,2017-09-10,2017-09-26,2017-10-06,2017-10-21,135,150,155,188,215,232,233,243,254,270,280,15,5,33,27,17,1,10,11,16,10,15,149,154,187,214,231,232,242,253,269,279,294
8,lamberton_mn,44.24095,-95.3115,2017,2017-05-28,2,7,early2,1007.2348076107326,11,2017-05-14,2017-05-28,129,2017-10-04,2017-10-18,2017-11-01,Harvested at Maturity.,7.45733331044515,0.6139999866485596,2.1022222108311124,3.249999972490164,6.727618961107163,16.729999542236328,0.38624998927116394,0.09444444709353977,6.965238275982085,1.8842857054301672,0.17399999300638835,7.45733331044515,0.6139999866485596,2.1022222108311124,3.249999972490164,6.727618961107163,16.729999542236328,0.38624998927116394,0.09444444709353977,6.965238275982085,1.8842857054301672,0.17399999300638835,16.816918722788493,23.136318588256835,21.947060743967693,18.919199246626633,17.50991644178118,10.98036003112793,16.584452748298645,18.17947377098931,12.117444356282553,10.18091983454568,8.560217452049256,19.00066680908203,24.165999603271484,27.804999987284344,28.588846133305477,24.19285692487444,23.81999969482422,24.90000009536743,23.958888795640732,23.821428571428573,16.037142821720668,13.975333426396052,14.060666743914286,16.801999711990355,21.350277807977463,22.58942303290734,18.749761808486213,19.75,19.626249969005585,17.341110971238876,17.694523822693597,10.314285721097674,7.9860000570615135,9.120666678746542,9.437999820709228,14.895555628670586,16.5899999325092,13.306666692097982,15.68000030517578,14.352499842643738,10.723333146837023,11.567619073958625,4.591428620474679,1.9966666877269745,4.79826726213336,6.553132882660627,7.075030909749686,9.279859791949423,8.379412106518314,9.75,9.728778892832995,8.65061725585229,8.80359439155942,5.5358923081913165,2.039457028042674,4.79826726213336,6.553132882660627,7.075030909749686,9.279859791949423,8.379412106518314,9.75,9.728778892832995,8.65061725585229,8.80359439155942,5.5358923081913165,2.039457028042674,0,0,254.7011127509887,495.9774673416738,671.9451215785583,681.6951215785583,759.5253527212222,837.3809080238929,1022.2563902466408,1099.758882561319,1099.758882561319,0,0,0.9224305550257365,0.9744423114336453,0.869380944115775,0.975,0.9355000019073486,0.6940555413564047,0.6729761952445621,0.13475000177110943,0.025133334795633955,1,1,1,1,1,1,1,1,1,1,1,0.4336333457628886,0.6138999891281128,0.9224305550257365,0.9744423114336453,0.869380944115775,0.975,0.9355000019073486,0.6940555413564047,0.6729761952445621,0.13475000177110943,0.17906666437784832,1,1,1,1,0.9999999999999999,1,1,1,1,1,1,2017-05-14,2017-05-29,2017-06-03,2017-07-09,2017-08-04,2017-08-25,2017-08-26,2017-09-03,2017-09-12,2017-10-03,2017-10-17,2017-05-28,2017-06-02,2017-07-08,2017-08-03,2017-08-24,2017-08-25,2017-09-02,2017-09-11,2017-10-02,2017-10-16,2017-10-31,134,149,154,190,216,237,238,246,255,276,290,15,5,36,26,21,1,8,9,21,14,15,148,153,189,215,236,237,245,254,275,289,304
9,waseca_mn,44.07345,-93.53225,2017,2017-05-28,2,8,early2,1013.4261193661138,11,2017-05-14,2017-05-28,129,2017-10-04,2017-10-18,2017-11-01,Harvested at Maturity.,6.785999929904938,0.4620000123977661,3.147499978542328,6.092692329333379,4.571904806863694,2.859999895095825,0.7099999950991737,0.3930000066757202,4.0294736498280574,4.631428582327707,1.7700000246365866,6.785999929904938,0.4620000123977661,3.147499978542328,6.092692329333379,4.571904806863694,2.859999895095825,0.7099999950991737,0.3930000066757202,4.0294736498280574,4.631428582327707,1.7700000246365866,17.669754219055175,24.337592697143556,20.92905961142646,18.589242770121647,17.193640845162527,11.24619960784912,17.11259502834744,17.799995708465577,11.469119084508796,9.524903893470764,7.691874591509501,19.660666720072427,23.858000564575196,27.427777661217583,27.989615440368652,24.119523457118444,22.15999984741211,23.84777768452962,24.185999870300293,23.730526372006064,15.88214295251029,12.953333202997843,14.638333336512247,16.613000249862672,21.150277694066364,22.46365389457116,18.665952160244895,18.09000015258789,18.317777739630806,17.2589998960495,18.047105312347412,10.922857212168829,7.64733326236407,9.615999952952066,9.367999935150147,14.872777726915148,16.937692348773663,13.212380863371349,14.020000457763672,12.787777794731987,10.331999921798706,12.36368425268876,5.963571471827371,2.341333321730296,5.276340324562788,6.62158483507514,7.0066640664507425,9.42097013966077,8.311796316773247,8.09000015258789,8.73777098621991,8.653284932300746,9.103039010035522,5.564945092456948,1.8013472824672858,5.276340324562788,6.62158483507514,7.0066640664507425,9.42097013966077,8.311796316773247,8.09000015258789,8.73777098621991,8.653284932300746,9.103039010035522,5.564945092456948,1.8013472824672858,0,0,252.23990639222683,497.18513002340694,671.7328526756452,679.8228528282331,758.4627917042122,844.9956410272197,1017.9533822178944,1095.862613512292,1095.862613512292,0,0,0.9161111103163825,0.9826923113602858,0.854595218385969,0.8090000152587891,0.8317777739630806,0.686399986743927,0.6785789514842786,0.17007143369742805,0.01673333168029785,1,1,1,1,1,1,1,1,1,1,1,0.47376667022705077,0.6147000265121461,0.9161111103163825,0.9826923113602858,0.854595218385969,0.8090000152587891,0.8317777739630806,0.686399986743927,0.6785789514842786,0.17007143369742805,0.1509999918937683,1,1,1,1,1,1,1,1,1,1,1,2017-05-14,2017-05-29,2017-06-03,2017-07-09,2017-08-04,2017-08-25,2017-08-26,2017-09-04,2017-09-14,2017-10-03,2017-10-17,2017-05-28,2017-06-02,2017-07-08,2017-08-03,2017-08-24,2017-08-25,2017-09-03,2017-09-13,2017-10-02,2017-10-16,2017-10-31,134,149,154,190,216,237,238,247,257,276,290,15,5,36,26,21,1,9,10,19,14,15,148,153,189,215,236,237,246,256,275,289,304
10,shelly_mn,47.4264,-96.8317,2019,2019-05-21,0,9,early0,807.2052274724299,11,2019-05-07,2019-05-21,119,2019-09-17,2019-09-26,2019-10-10,Harvested at Maturity.,2.005999978383382,3.6612499356269836,2.1915384263564377,5.075555579529868,2.849545416506854,1.7400000095367432,7.173749923706055,2.196666677792867,4.548333247502645,6.673333466053009,4.801333343982697,2.005999978383382,3.6612499356269836,2.1915384263564377,5.075555579529868,2.849545416506854,1.7400000095367432,7.173749923706055,2.196666677792867,4.548333247502645,6.673333466053009,4.801333343982697,23.8204070409139,19.96604549884796,20.975299981924202,19.77956109576755,18.18590155514804,19.0020751953125,17.308514535427094,14.815565427144369,12.370629827181498,12.989059554206001,8.494945605595907,17.773333231608074,19.111250042915344,26.123077001327125,28.314444541931152,26.09818189794367,26.31999969482422,24.600000143051147,21.045555750528973,19.359166701634724,26.072222179836697,13.214666843414307,10.324666595458984,13.005625054240227,19.4112820992103,22.24250011973911,20.01931823383678,20.054999828338623,18.175000071525574,15.745000097486708,14.399583379427591,19.884444448682995,9.219333426157634,2.8759999593098957,6.900000065565109,12.699487197093475,16.170555697547066,13.940454569729892,13.789999961853027,11.75,10.444444444444445,9.440000057220459,13.696666717529297,5.22400000890096,2.6626751040608685,3.6833192170994358,7.051568981424881,9.952819862134042,9.497808899016803,10.054999828338625,8.918360192242265,7.101130170286364,6.4163833832715955,10.469942443883419,1.0632124773778517,2.6626751040608685,3.6833192170994358,7.051568981424881,9.952819862134042,9.497808899016803,10.054999828338625,8.918360192242265,7.101130170286364,6.4163833832715955,10.469942443883419,1.0632124773778517,0,0,275.0111902755704,454.1619477939832,663.113743572353,673.1687434006916,744.5156249386298,808.425796471207,885.4223970704662,979.651879065417,979.651879065417,0,0,0.8349359011038756,0.9845277812745836,0.8892500032078137,1,0.8156875133514404,0.5745000097486708,0.43995833794275924,0.8527777936723497,0.020433333714803062,1,1,1,1,1,1,1,1,1,1,1,0.14526666124661763,0.3084375038743019,0.8349359011038756,0.9845277812745836,0.8892500032078137,1,0.8156875133514404,0.5745000097486708,0.43995833794275924,0.8527777936723497,0.06523333708445232,1,1,1,1,1,1,1,0.9999999999999999,0.9999999999999999,0.9999999999999999,1,2019-05-07,2019-05-22,2019-05-30,2019-07-08,2019-07-26,2019-08-17,2019-08-18,2019-08-26,2019-09-04,2019-09-16,2019-09-25,2019-05-21,2019-05-29,2019-07-07,2019-07-25,2019-08-16,2019-08-17,2019-08-25,2019-09-03,2019-09-15,2019-09-24,2019-10-09,127,142,150,189,207,229,230,238,247,259,268,15,8,39,18,22,1,8,9,12,9,15,141,149,188,206,228,229,237,246,258,267,282
11,wanatah_in,41.4444,-86.9437,2019,2019-06-04,1,10,early1,730.5285686756358,11,2019-05-21,2019-06-04,95,2019-09-07,2019-09-15,2019-09-29,Harvested at Maturity.,5.66600005030632,0,3.4218749403953552,2.113750010728836,1.1587500348687172,0,5.516666769981384,1.771666665871938,1.6676922944875865,0.9825000315904617,10.42333317597707,5.66600005030632,0,3.4218749403953552,2.113750010728836,1.1587500348687172,0,5.516666769981384,1.771666665871938,1.6676922944875865,0.9825000315904617,10.42333317597707,19.838744799296062,24.077903747558594,19.644644767045975,19.276369094848633,21.470211505889893,21.500274658203125,13.939577738444012,15.785791873931885,16.890019270089958,15.315529227256775,13.065018622080485,24.23800017038981,27.273332595825195,26.86843764781952,29.83750009536743,28.368749976158142,28.6299991607666,27.173333485921223,27.68999989827474,25.143077263465294,26.894999980926514,25.88933334350586,18.16499999364217,20.90333302815755,21.593281388282776,24.354062497615814,22.21499988436699,22.15999937057495,22.46250009536743,22.58833320935567,19.52346163529616,21.205624997615814,20.30900001525879,12.091999816894532,14.533333460489908,16.318125128746033,18.870624899864197,16.061249792575836,15.6899995803833,17.75166670481364,17.486666520436604,13.903846007127028,15.516250014305115,14.728666687011719,8.265156175811688,10.903333028157551,9.172099953316309,11.772937749137565,11.75166746004333,12.15999937057495,12.462686555943888,12.621736768378813,9.768198331452334,11.1207372513026,9.651000022888184,8.265156175811688,10.903333028157551,9.172099953316309,11.772937749137565,11.75166746004333,12.15999937057495,12.462686555943888,12.621736768378813,9.768198331452334,11.1207372513026,9.651000022888184,0,0,293.5071985061219,481.87420249232304,669.9008818530164,682.0608812235913,756.8370005592546,832.5674211695275,959.5539994784078,1048.5198974888283,1048.5198974888283,0,0,0.908109375834465,0.988968750834465,0.9950312495231628,1,1,0.9790833393732706,0.9054615497589111,0.9011249959468842,0.06579999923706055,1,1,1,1,1,1,1,1,1,1,1,0.7880333296457926,0.9958333174387614,0.908109375834465,0.988968750834465,0.9950312495231628,1,1,0.9790833393732706,0.9054615497589111,0.9011249959468842,0.9267333285013835,1,1,1,1,1,0.9999999999999998,1,1,1,1,1,2019-05-21,2019-06-05,2019-06-08,2019-07-10,2019-07-26,2019-08-11,2019-08-12,2019-08-18,2019-08-24,2019-09-06,2019-09-14,2019-06-04,2019-06-07,2019-07-09,2019-07-25,2019-08-10,2019-08-11,2019-08-17,2019-08-23,2019-09-05,2019-09-13,2019-09-28,141,156,159,191,207,223,224,230,236,249,257,15,3,32,16,16,1,6,6,13,8,15,155,158,190,206,222,223,229,235,248,256,271
12,lafayette_in,40.399,-86.8592,2019,2019-05-28,1,1,early1,763.7835392066195,11,2019-05-14,2019-05-28,91,2019-08-27,2019-09-05,2019-09-19,Harvested at Maturity.,6.5860000650087995,6.416666428248088,3.5456249807029963,2.1193333148956297,2.2623528873219207,NA,0,1.9483332633972168,2.7200000047683717,7.283333036634657,0.5560000101725261,6.5860000650087995,6.416666428248088,3.5456249807029963,2.1193333148956297,2.2623528873219207,NA,0,1.9483332633972168,2.7200000047683717,7.283333036634657,0.5560000101725261,19.37279879252116,18.08707110087077,20.623768627643585,20.74868367513021,20.66625752168543,NA,22.25727303822835,18.28657817840576,15.763534355163575,15.50307888454861,16.535707219441733,24.54133364359538,25.869999567667644,26.924374878406525,31.19533322652181,29.161176793715534,NA,30.244999885559082,28.401666323343914,28.080000114440917,26.026666429307724,27.400666681925454,18.570000187555948,20.524999618530273,21.39999996125698,25.244666576385498,23.170000188490924,NA,23.109166542689007,22.507499853769936,22.45150008201599,20.56722206539578,21.302666664123535,12.59866673151652,15.179999669392904,15.875625044107437,19.293999926249185,17.178823583266315,NA,15.97333319981893,16.613333384195965,16.823000049591066,15.107777701483833,15.204666646321614,8.771553940664928,10.524999618530273,9.222360293887977,12.387193283421563,11.766876964160826,NA,12.920134012585592,12.536797397476436,12.46462129081428,10.633961434139145,10.438019986599286,8.771553940664928,10.524999618530273,9.222360293887977,12.387193283421563,11.766876964160826,NA,12.920134012585592,12.536797397476436,12.46462129081428,10.633961434139145,10.438019986599286,0,0,295.11552940441527,480.92342865573875,680.9603370464728,NA,758.4811411219863,833.7019255068449,958.3481384149878,1054.0537913222402,1054.0537913222402,0,0,0.9277812480926514,1,0.9936176440295051,NA,1,1,0.9793000030517578,0.9807222207387288,0.06666666666666667,1,1,1,1,1,NA,1,1,1,1,1,0.7704666757583618,0.9996666590372721,0.9277812480926514,1,0.9936176440295051,NA,1,1,0.9793000030517578,0.9807222207387288,0.9423666699727377,1,1,1,1,0.9999999999999999,NA,1,1,1,0.9999999999999999,1,2019-05-14,2019-05-29,2019-06-01,2019-07-03,2019-07-18,NA,2019-08-04,2019-08-10,2019-08-16,2019-08-26,2019-09-04,2019-05-28,2019-05-31,2019-07-02,2019-07-17,2019-08-03,NA,2019-08-09,2019-08-15,2019-08-25,2019-09-03,2019-09-18,134,149,152,184,199,NA,216,222,228,238,247,15,3,32,15,17,0,6,6,10,9,15,148,151,183,198,215,NA,221,227,237,246,261
13,eastlansing_mi,42.6296,-84.4375,2019,2019-05-30,1,6,early1,819.1486405339163,11,2019-05-16,2019-05-30,106,2019-09-13,2019-09-22,2019-10-06,Harvested at Maturity.,3.5239999612172443,8.029999732971191,4.6663888692855835,2.9047058610355156,0.4376470621894388,1.0199999809265137,1.8833333452542622,0.7549999952316284,4.834285753113883,0.9388888676961263,6.00933324098587,3.5239999612172443,8.029999732971191,4.6663888692855835,2.9047058610355156,0.4376470621894388,1.0199999809265137,1.8833333452542622,0.7549999952316284,4.834285753113883,0.9388888676961263,6.00933324098587,19.39135653177897,22.260393714904787,20.15860978762309,20.060740302590762,20.53226156795726,19.184526443481445,16.393372058868408,17.792466640472412,14.629773616790771,13.52923451529609,10.667040475209554,21.445999908447266,22.61599998474121,26.171944273842705,29.050588046803195,28.384705711813535,27.399999618530273,28.016666730244953,24.87875008583069,23.91357135772705,25.3255558013916,21.780666732788085,15.642999958992004,15.985999965667725,20.466944416364033,23.006470427793616,22.03735284244313,21.6899995803833,22.40333326657613,18.930625081062317,18.265714236668178,19.802222357855904,16.93533336321513,9.840000009536743,9.355999946594238,14.761944558885363,16.962352808784036,15.689999973072725,15.979999542236328,16.78999980290731,12.982500076293945,12.617857115609306,14.278888914320204,12.089999993642172,5.932729759678046,6.293544760479927,8.10916321294855,10.790068678436807,11.58257043675652,11.689999580383304,12.414145477177701,9.549924273627996,8.89300601927851,9.946395015009244,6.274102940766811,5.932729759678046,6.293544760479927,8.10916321294855,10.790068678436807,11.58257043675652,11.689999580383304,12.414145477177701,9.549924273627996,8.89300601927851,9.946395015009244,6.274102940766811,0,0,291.92987566614767,475.36104319957343,672.2647406244341,683.9547402048174,758.4396130678837,834.8390072569076,959.3410915268066,1048.85864666189,1048.85864666189,0,0,0.8749027715788947,0.9828823510338278,0.9858529427472282,1,0.9950000047683716,0.8305000066757202,0.7760714292526245,0.9389444510142009,0.06666666666666667,1,1,1,1,1,1,1,1,1,1,1,0.5676999934514364,0.5985999965667725,0.8749027715788947,0.9828823510338278,0.9858529427472282,1,0.9950000047683716,0.8305000066757202,0.7760714292526245,0.9389444510142009,0.6394000005722046,1,1,1,0.9999999999999999,0.9999999999999999,1,0.9999999999999999,1,1,1,1,2019-05-16,2019-05-31,2019-06-05,2019-07-11,2019-07-28,2019-08-14,2019-08-15,2019-08-21,2019-08-29,2019-09-12,2019-09-21,2019-05-30,2019-06-04,2019-07-10,2019-07-27,2019-08-13,2019-08-14,2019-08-20,2019-08-28,2019-09-11,2019-09-20,2019-10-05,136,151,156,192,209,226,227,233,241,255,264,15,5,36,17,17,1,6,8,14,9,15,150,155,191,208,225,226,232,240,254,263,278
14,danvers_mn,45.2803,-95.7591,2019,2019-05-27,1,11,early1,886.9418094721681,11,2019-05-13,2019-05-27,114,2019-09-18,2019-09-27,2019-10-11,Harvested at Maturity.,6.577999901771546,2.432499885559082,4.174210500560308,1.3349999785423279,4.5725000441074375,NA,3.298749923706055,1.8144444624582927,7.312000020345052,1.4922222561306422,4.867333237330119,6.577999901771546,2.432499885559082,4.174210500560308,1.3349999785423279,4.5725000441074375,NA,3.298749923706055,1.8144444624582927,7.312000020345052,1.4922222561306422,4.867333237330119,18.356077671051025,25.28734588623047,19.621246011633623,20.68129364649455,18.26269679069519,NA,19.66113305091858,15.130239486694336,13.539099915822348,13.65533839331733,9.011732196807861,18.63266674677531,26.59250020980835,26.744473758496735,29.396666632758247,26.491500186920167,NA,25.91249990463257,22.453333324856228,22.979999923706053,26.662222332424587,16.33199987411499,12.89566674232483,18.211250066757202,20.670789467661006,23.490000036027695,20.96250002384186,NA,19.27999997138977,17.55888885921902,17.409999942779542,20.528333346048992,11.35466663837433,7.158666737874349,9.829999923706055,14.597105176825272,17.583333439297146,15.43349986076355,NA,12.647500038146973,12.664444393581814,11.839999961853028,14.394444359673393,6.377333402633667,3.770494779221018,8.265368232241272,7.59409360937323,10.299853225721018,10.233530687669425,NA,9.728672155103087,8.131136409489976,8.277948268892368,10.945730267296897,2.447771692069173,3.770494779221018,8.265368232241272,7.59409360937323,10.299853225721018,10.233530687669425,NA,9.728672155103087,8.131136409489976,8.277948268892368,10.945730267296897,2.447771692069173,0,0,288.5755571561827,473.97291521916105,678.6435289725493,NA,756.4729062133741,829.6531338987838,953.8223579321694,1052.3339303378416,1052.3339303378416,0,0,0.9006578947368421,0.9954166677263048,0.9476500058174133,NA,0.8925000071525574,0.750222216712104,0.7179333273569743,0.866500006781684,0.0209000031153361,1,1,1,1,1,NA,1,1,1,1,1,0.32286667664845786,0.7667500019073487,0.9006578947368421,0.9954166677263048,0.9476500058174133,NA,0.8925000071525574,0.750222216712104,0.7179333273569743,0.866500006781684,0.2169999996821086,1,1,1,1,0.9999999999999999,NA,1,1,1,1,1,2019-05-13,2019-05-28,2019-06-01,2019-07-09,2019-07-27,NA,2019-08-16,2019-08-24,2019-09-02,2019-09-17,2019-09-26,2019-05-27,2019-05-31,2019-07-08,2019-07-26,2019-08-15,NA,2019-08-23,2019-09-01,2019-09-16,2019-09-25,2019-10-10,133,148,152,190,208,NA,228,236,245,260,269,15,4,38,18,20,0,8,9,15,9,15,147,151,189,207,227,NA,235,244,259,268,283
15,morris_mn,45.3552,-95.5436,2019,2019-05-31,1,3,early1,914.8481481691884,11,2019-05-17,2019-05-31,113,2019-09-21,2019-10-04,2019-10-18,Harvested at Maturity.,6.6906667391459145,1.0325000286102295,4.145945996851535,2.705789484475788,4.198947322996039,0,2.0599999957614474,3.0822221305635242,9.353846137340252,1.8361538648605347,3.2846665898958842,6.6906667391459145,1.0325000286102295,4.145945996851535,2.705789484475788,4.198947322996039,0,2.0599999957614474,3.0822221305635242,9.353846137340252,1.8361538648605347,3.2846665898958842,18.391512378056845,23.516624927520752,19.043292277568096,20.50872310839201,18.49572623403449,22.794218063354492,16.489708370632595,16.615397241380478,11.9989804487962,11.547781467437744,8.25390199025472,18.95600004196167,26.447500228881836,26.48837811238057,28.662105359529193,26.638947336297285,27.899999618530273,23.50777816772461,23.285555521647137,23.566154039823093,20.661538637601414,11.745999995867411,13.188666713237764,19.02875006198883,20.72378360902941,22.782894812132184,20.91000007328234,19.549999713897705,18.14611127641466,17.363888872994316,18.272307726053093,15.131538482812735,7.417666673536102,7.421333384513855,11.609999895095825,14.959189105678249,16.903684264735173,15.181052810267397,11.199999809265137,12.784444385104708,11.4422222243415,12.97846141228309,9.601538328024057,3.0893333512047927,4.05906349054873,9.068346369850635,7.646667398152458,10.012088735995091,10.415080295007874,9.549999713897703,8.642729067996475,8.248420672631926,9.015006943600453,7.70112763859538,1.4105927974017463,4.05906349054873,9.068346369850635,7.646667398152458,10.012088735995091,10.415080295007874,9.549999713897703,8.642729067996475,8.248420672631926,9.015006943600453,7.70112763859538,1.4105927974017463,0,0,282.9266937316409,473.15637971554753,671.042905320697,680.5929050345947,758.3774666465629,832.6132527002503,949.808342967056,1049.9230022687962,1049.9230022687962,0,0,0.9046081091906574,0.972921055241635,0.9518157933887682,0.9549999713897706,0.8015555699666341,0.7363888872994317,0.7323461605952336,0.4863461567805364,0,1,1,1,1,1,1,1,1,1,1,1,0.346333335240682,0.8402499914169312,0.9046081091906574,0.972921055241635,0.9518157933887682,0.9549999713897706,0.8015555699666341,0.7363888872994317,0.7323461605952336,0.4863461567805364,0.1003666655222575,1,1,1,0.9999999999999999,0.9999999999999999,1,0.9999999999999999,0.9999999999999999,0.9999999999999999,1,1,2019-05-17,2019-06-01,2019-06-05,2019-07-12,2019-07-31,2019-08-19,2019-08-20,2019-08-29,2019-09-07,2019-09-20,2019-10-03,2019-05-31,2019-06-04,2019-07-11,2019-07-30,2019-08-18,2019-08-19,2019-08-28,2019-09-06,2019-09-19,2019-10-02,2019-10-17,137,152,156,193,212,231,232,241,250,263,276,15,4,37,19,19,1,9,9,13,13,15,151,155,192,211,230,231,240,249,262,275,290
16,rosemount_mn,44.707,-93.101,2019,2019-05-27,1,2,early1,870.2045934473398,11,2019-05-13,2019-05-27,113,2019-09-17,2019-09-25,2019-10-09,Harvested at Maturity.,8.482000176111857,0.39600000381469724,4.659999950512035,4.454999923706055,1.4642105228022526,NA,6.397499918937683,3.357777701483833,7.700666491190592,1.438749998807907,5.31133337020874,8.482000176111857,0.39600000381469724,4.659999950512035,4.454999923706055,1.4642105228022526,NA,6.397499918937683,3.357777701483833,7.700666491190592,1.438749998807907,5.31133337020874,17.484232743581135,25.48692054748535,19.962422499785553,19.674057324727375,19.035935703076813,NA,17.337308287620544,15.802769872877333,12.626471328735352,12.27521163225174,9.555707677205403,18.241333325703938,24.352000045776368,25.831621685543574,28.357777807447647,26.79842095626028,NA,25.36875009536743,22.467777887980144,22.017999839782714,26.733750104904175,17.752666600545247,13.067999974886575,17.446000003814696,20.517973049266917,23.14833336406284,21.52026309465107,NA,19.67062497138977,17.71666669845581,17.499999968210858,21.52062499523163,13.175666666030883,7.894666624069214,10.539999961853027,15.20432441299026,17.938888920678032,16.242105233041865,NA,13.97249984741211,12.965555508931478,12.982000096638998,16.307499885559082,8.59866673151652,3.8792369283028445,7.551237709653377,7.698581704742663,10.33146545221748,10.81274623436839,NA,9.840419481830299,8.165452560089694,8.026421302003861,11.649825773760677,3.114922973441084,3.8792369283028445,7.551237709653377,7.698581704742663,10.33146545221748,10.81274623436839,NA,9.840419481830299,8.165452560089694,8.026421302003861,11.649825773760677,3.114922973441084,0,0,284.84752307547853,470.8139012153931,676.2560796683925,NA,754.9794355230349,828.4685085638422,948.8648280939,1042.0634342839855,1042.0634342839855,0,0,0.9058378387141872,0.9993611123826769,0.9745526288685046,NA,0.9416875004768371,0.7716666698455811,0.745666659673055,0.9320000052452088,0.06093333562215169,1,1,1,1,1,NA,1,1,1,1,1,0.34273333072662354,0.7042000007629395,0.9058378387141872,0.9993611123826769,0.9745526288685046,NA,0.9416875004768371,0.7716666698455811,0.745666659673055,0.9320000052452088,0.3434999990463257,1,1,1,1,0.9999999999999999,NA,1,1,0.9999999999999999,1,1,2019-05-13,2019-05-28,2019-06-02,2019-07-09,2019-07-27,NA,2019-08-15,2019-08-23,2019-09-01,2019-09-16,2019-09-24,2019-05-27,2019-06-01,2019-07-08,2019-07-26,2019-08-14,NA,2019-08-22,2019-08-31,2019-09-15,2019-09-23,2019-10-08,133,148,153,190,208,NA,227,235,244,259,267,15,5,37,18,19,0,8,9,15,8,15,147,152,189,207,226,NA,234,243,258,266,281
17,pontiac_il,40.82216667,-88.62016667,2019,2019-06-08,2,4,early2,795.5393743945785,11,2019-05-25,2019-06-08,101,2019-09-17,2019-09-23,2019-10-07,Harvested at Maturity.,4.4800000031789144,0,5.818214288779668,0.3304545405236157,0.7273333390553792,NA,6.18666676680247,3.1374999284744263,3.616470589357264,3.3866666158040366,10.03666656812032,4.4800000031789144,0,5.818214288779668,0.3304545405236157,0.7273333390553792,NA,6.18666676680247,3.1374999284744263,3.616470589357264,3.3866666158040366,10.03666656812032,20.93266092936198,22.123849232991535,19.500000102179392,20.89054640856656,19.86305955251058,NA,13.243758996327717,17.532077431678772,14.997191709630629,14.169810136159262,10.940156555175781,26.84866689046224,26.51666641235352,27.967857224600657,30.129545558582652,28.75799980163574,NA,28.28166675567627,26.076249837875366,26.29941188587862,28.368333498636883,24.39466667175293,21.042000102996827,20.91166655222575,22.48035725525447,24.39840917153792,22.438333225250243,NA,23.34416675567627,20.17437493801117,20.576470683602725,22.235833406448364,19.1899999777476,15.235333315531413,15.306666692097982,16.99285728590829,18.667272784493186,16.118666648864746,NA,18.40666675567627,14.272500038146973,14.853529481326833,16.103333314259846,13.98533328374227,11.042000102996827,10.911666552225748,8.799086697744327,11.367409603173126,11.924665110167526,NA,13.337381085848808,10.383296375602484,10.70749517368499,12.235833406448364,8.42209259454012,11.042000102996827,10.911666552225748,8.799086697744327,11.367409603173126,11.924665110167526,NA,13.337381085848808,10.383296375602484,10.70749517368499,12.235833406448364,8.42209259454012,0,0,246.37442753684115,496.45743880665,675.3274154591627,NA,755.3517019742555,838.4180729790754,1020.4454909317202,1093.8604913704105,1093.8604913704105,0,0,0.9473035727228437,1,0.9980666637420654,NA,1,0.9546249985694886,0.9284411879146801,1,0.06666666666666667,1,1,1,1,1,NA,1,1,1,1,1,0.974366668065389,0.978166659673055,0.9473035727228437,1,0.9980666637420654,NA,1,0.9546249985694886,0.9284411879146801,1,0.8123000033696492,1,1,1,0.9999999999999999,0.9999999999999999,NA,0.9999999999999999,0.9999999999999999,1,0.9999999999999999,1,2019-05-25,2019-06-09,2019-06-12,2019-07-10,2019-08-01,NA,2019-08-16,2019-08-22,2019-08-30,2019-09-16,2019-09-22,2019-06-08,2019-06-11,2019-07-09,2019-07-31,2019-08-15,NA,2019-08-21,2019-08-29,2019-09-15,2019-09-21,2019-10-06,145,160,163,191,213,NA,228,234,242,259,265,15,3,28,22,15,0,6,8,17,6,15,159,162,190,212,227,NA,233,241,258,264,279
18,urbana_il,40.05325,-88.23485,2019,2019-06-01,2,5,early2,804.4470922132099,11,2019-05-18,2019-06-01,99,2019-09-08,2019-09-14,2019-09-28,Harvested at Maturity.,5.366666598121325,0,3.6153571669544493,2.973181789571589,0.8959999998410543,NA,1.0557142666407995,5.163333237171173,1.6562500186264515,1.0100000103314717,1.6486666361490885,5.366666598121325,0,3.6153571669544493,2.973181789571589,0.8959999998410543,NA,1.0557142666407995,5.163333237171173,1.6562500186264515,1.0100000103314717,1.6486666361490885,19.32257760365804,24.703421274820965,20.396665232522146,19.50643353028731,21.572813097635905,NA,17.475451605660574,14.734657446543377,17.099697411060333,16.296964327494305,15.19210007985433,26.036000124613444,26.22333335876465,27.76107140949794,30.72045438939875,29.23999989827474,NA,28.118571417672293,28.71333344777425,26.069375157356262,28.708333333333332,28.191333262125653,20.628000100453693,19.734999974568687,22.305000032697404,25.12340898947282,22.769999980926514,NA,22.634285722460064,23.78583351771037,20.55875012278557,22.80499990781148,21.580666542053223,15.220000076293946,13.24666659037272,16.848928655896867,19.526363589546897,16.30000006357829,NA,17.150000027247838,18.858333587646484,15.048125088214874,16.90166648228963,14.969999821980794,10.660907076676686,9.734999974568685,8.894534968941157,11.51060159038507,11.688181077654924,NA,12.596187308702635,13.75748691515128,10.675085100356863,12.57378349818786,10.708032399485907,10.660907076676686,9.734999974568685,8.894534968941157,11.51060159038507,11.688181077654924,NA,12.596187308702635,13.75748691515128,10.675085100356863,12.57378349818786,10.708032399485907,0,0,249.0469791303524,502.2802141188239,677.6029302836478,NA,765.7762414445662,848.3211629354738,1019.1225245411836,1094.5652255303107,1094.5652255303107,0,0,0.9554464272090367,1,1,NA,1,1,0.9696562558412553,0.9609999895095825,0.06666666666666667,1,1,1,1,1,NA,1,1,1,1,1,0.891366662979126,0.9233333269755046,0.9554464272090367,1,1,NA,1,1,0.9696562558412553,0.9609999895095825,0.971933323542277,1,1,1,1,1,NA,1,0.9999999999999998,1,1,1,2019-05-18,2019-06-02,2019-06-05,2019-07-03,2019-07-25,NA,2019-08-09,2019-08-16,2019-08-22,2019-09-07,2019-09-13,2019-06-01,2019-06-04,2019-07-02,2019-07-24,2019-08-08,NA,2019-08-15,2019-08-21,2019-09-06,2019-09-12,2019-09-27,138,153,156,184,206,NA,221,228,234,250,256,15,3,28,22,15,0,7,6,16,6,15,152,155,183,205,220,NA,227,233,249,255,270
19,wanatah_in,41.4444,-86.9437,2019,2019-06-04,2,10,early2,863.4991261337914,11,2019-05-21,2019-06-04,106,2019-09-18,2019-09-25,2019-10-09,Harvested at Maturity.,5.66600005030632,0,3.4225805805575464,2.365652208742888,1.7413333654403687,3.819999933242798,2.5233333706855774,2.159999966621399,1.990588251282187,0.7142857313156128,10.024666500091552,5.66600005030632,0,3.4225805805575464,2.365652208742888,1.7413333654403687,3.819999933242798,2.5233333706855774,2.159999966621399,1.990588251282187,0.7142857313156128,10.024666500091552,19.838744799296062,24.077903747558594,19.640339974434145,19.35664475482443,20.210668818155924,16.387901306152344,14.743508179982504,17.435384035110474,15.240059235516718,13.783374173300606,11.278483136494955,24.23800017038981,27.273332595825195,26.75677434859737,29.308695751687754,28.339333216349285,27.860000610351563,28.05999978383382,25.46000027656555,25.911176569321576,27.578571592058456,22.972000122070313,18.16499999364217,20.90333302815755,21.54983885057511,23.816521727520488,22.28199987411499,21.105000495910645,23.108333110809326,19.686875104904175,20.345588263343362,21.929285798754012,17.832333358128867,12.091999816894532,14.533333460489908,16.342903352552845,18.32434770335322,16.224666531880697,14.350000381469728,18.156666437784832,13.913749933242798,14.779999957365147,16.28000000544957,12.692666594187418,8.265156175811688,10.903333028157551,8.080497590608474,10.654685537579283,11.679899323109902,11.105000495910645,13.108333110809326,9.891703706111013,10.426712254536504,11.938941777652502,7.296084392324289,8.265156175811688,10.903333028157551,8.080497590608474,10.654685537579283,11.679899323109902,11.105000495910645,13.108333110809326,9.891703706111013,10.426712254536504,11.938941777652502,7.296084392324289,0,0,250.4954253088627,495.55319267318635,670.751682519835,681.8566830157456,760.5066816806016,839.6403113294896,1016.89441965661,1100.4670121001775,1100.4670121001775,0,0,0.9051451621517058,0.9888695654661759,1,1,1,0.9290625154972076,0.9062352937810562,0.9887857096535819,0.05816666920979818,1,1,1,1,1,1,1,1,1,1,1,0.7880333296457926,0.9958333174387614,0.9051451621517058,0.9888695654661759,1,1,1,0.9290625154972076,0.9062352937810562,0.9887857096535819,0.7054333353042603,1,1,1,1,0.9999999999999999,1,0.9999999999999999,1,1,0.9999999999999999,1,2019-05-21,2019-06-05,2019-06-08,2019-07-09,2019-08-01,2019-08-16,2019-08-17,2019-08-23,2019-08-31,2019-09-17,2019-09-24,2019-06-04,2019-06-07,2019-07-08,2019-07-31,2019-08-15,2019-08-16,2019-08-22,2019-08-30,2019-09-16,2019-09-23,2019-10-08,141,156,159,190,213,228,229,235,243,260,267,15,3,31,23,15,1,6,8,17,7,15,155,158,189,212,227,228,234,242,259,266,281
20,lafayette_in,40.399,-86.8592,2019,2019-05-28,2,1,early2,907.5491078904878,11,2019-05-14,2019-05-28,104,2019-09-09,2019-09-15,2019-09-29,Harvested at Maturity.,6.5860000650087995,6.416666428248088,3.5767741760899945,2.4827272566882046,1.2139999389648437,0,1.6699999400547572,3.481666684150696,4.227058663087733,0,2.0586666742960613,6.5860000650087995,6.416666428248088,3.5767741760899945,2.4827272566882046,1.2139999389648437,0,1.6699999400547572,3.481666684150696,4.227058663087733,0,2.0586666742960613,19.37279879252116,18.08707110087077,20.722454132572295,19.837915247136895,22.211859258015952,22.488197326660156,18.75486237662179,15.029911359151205,16.381994191338034,16.345932642618816,14.720138549804688,24.54133364359538,25.869999567667644,26.71870957651446,31.15863643993031,28.886000061035155,31.479999542236328,28.369999749319895,29.455000241597492,25.635294072768268,29.291666666666668,27.30399996439616,18.570000187555948,20.524999618530273,21.221935441417077,25.44204551523382,22.182999992370604,24.074999809265137,22.37642846788679,23.795000076293945,20.043235301971436,23.326666514078777,20.763666693369547,12.59866673151652,15.179999669392904,15.725161306319698,19.725454590537332,15.479999923706055,16.670000076293945,16.382857186453684,18.1349999109904,14.451176531174603,17.361666361490887,14.223333422342936,8.771553940664928,10.524999618530273,8.144222822255582,11.304974672613255,10.989061202322395,13.20836980205237,12.335816041953969,13.672701595938205,10.2563099970772,12.908460870567957,10.083367439951102,8.771553940664928,10.524999618530273,8.144222822255582,11.304974672613255,10.989061202322395,13.20836980205237,12.335816041953969,13.672701595938205,10.2563099970772,12.908460870567957,10.083367439951102,0,0,252.47090748992304,501.1803502874147,666.0162683222503,679.2246381243027,765.5753504179805,847.6115599936098,1021.9688299439222,1099.4195951673298,1099.4195951673298,0,0,0.9254516109343498,0.9987272717735984,0.9946333312988281,1,1,1,0.9402941226959228,0.9616666634877523,0.06666666666666667,1,1,1,1,1,1,1,1,1,1,1,0.7704666757583618,0.9996666590372721,0.9254516109343498,0.9987272717735984,0.9946333312988281,1,1,1,0.9402941226959228,0.9616666634877523,0.9515333398183187,1,1,1,0.9999999999999999,1,1,0.9999999999999999,1,1,0.9999999999999999,1,2019-05-14,2019-05-29,2019-06-01,2019-07-02,2019-07-24,2019-08-08,2019-08-09,2019-08-16,2019-08-22,2019-09-08,2019-09-14,2019-05-28,2019-05-31,2019-07-01,2019-07-23,2019-08-07,2019-08-08,2019-08-15,2019-08-21,2019-09-07,2019-09-13,2019-09-28,134,149,152,183,205,220,221,228,234,251,257,15,3,31,22,15,1,7,6,17,6,15,148,151,182,204,219,220,227,233,250,256,271
21,eastlansing_mi,42.6296,-84.4375,2019,2019-05-30,2,6,early2,948.2939129741584,11,2019-05-16,2019-05-30,118,2019-09-25,2019-10-06,2019-10-20,Harvested at Maturity.,3.5239999612172443,8.029999732971191,4.799714265550886,2.1307999897003174,0.8826666593551635,0,1.0837500095367432,2.4570000171661377,3.7523529529571533,6.995454419742932,1.4940000136693317,3.5239999612172443,8.029999732971191,4.799714265550886,2.1307999897003174,0.8826666593551635,0,1.0837500095367432,2.4570000171661377,3.7523529529571533,6.995454419742932,1.4940000136693317,19.39135653177897,22.260393714904787,19.993202672685896,20.36537006378174,19.59992682139079,17.470808029174805,17.41835916042328,15.510586261749268,12.858629254733815,10.504697582938455,11.519046465555826,21.445999908447266,22.61599998474121,26.002856963021415,28.953999862670898,28.07466646830241,29.280000686645508,25.631250143051147,23.43299980163574,25.442941329058478,20.96909098191695,16.054666646321614,15.642999958992004,15.985999965667725,20.359571388789586,22.80219985961914,21.868999926249185,23.789999961853027,19.615625083446503,17.799499893188475,19.977058915530932,16.261818192221902,10.16699997211496,9.840000009536743,9.355999946594238,14.716285814557757,16.650399856567383,15.663333384195964,18.299999237060547,13.600000023841858,12.16599998474121,14.511176502003389,11.554545402526855,4.279333297908306,5.932729759678046,6.293544760479927,7.045011066659974,9.905247993889933,11.382649124319611,13.789999961853027,10.21675240727514,8.494514154103994,10.169698398570103,7.594537683437629,2.0151629713246133,5.932729759678046,6.293544760479927,7.045011066659974,9.905247993889933,11.382649124319611,13.789999961853027,10.21675240727514,8.494514154103994,10.169698398570103,7.594537683437629,2.0151629713246133,0,0,246.57538733309912,494.2065871803474,664.9463240451415,678.7363240069946,760.4703432651957,845.4154848062356,1018.3003575819272,1101.8402720997417,1101.8402720997417,0,0,0.8713285650525775,0.9820999984741211,0.9924000040690104,1,0.8465000092983246,0.7703499937057495,0.9028823572046617,0.6095909118652344,0.0013666677474975587,1,1,1,1,1,1,1,1,1,1,1,0.5676999934514364,0.5985999965667725,0.8713285650525775,0.9820999984741211,0.9924000040690104,1,0.8465000092983246,0.7703499937057495,0.9028823572046617,0.6095909118652344,0.13389999389648438,1,1,1,1,0.9999999999999999,0.9999999999999998,1,0.9999999999999999,1,1,1,2019-05-16,2019-05-31,2019-06-05,2019-07-10,2019-08-04,2019-08-19,2019-08-20,2019-08-28,2019-09-07,2019-09-24,2019-10-05,2019-05-30,2019-06-04,2019-07-09,2019-08-03,2019-08-18,2019-08-19,2019-08-27,2019-09-06,2019-09-23,2019-10-04,2019-10-19,136,151,156,191,216,231,232,240,250,267,278,15,5,35,25,15,1,8,10,17,11,15,150,155,190,215,230,231,239,249,266,277,292
22,phillips_ne,40.8473,-98.177,2019,2019-05-19,2,12,early2,880.0908682284091,11,2019-05-05,2019-05-19,110,2019-09-06,2019-09-12,2019-09-26,Harvested at Maturity.,3.579333265622457,17.96750035881996,3.5027272845759536,6.152272766286677,2.3100000381469727,37.08000183105469,10.993333339691162,4.188571521214077,9.740000121295452,1.5183332761128743,1.487999979654948,3.579333265622457,17.96750035881996,3.5027272845759536,6.152272766286677,2.3100000381469727,37.08000183105469,10.993333339691162,4.188571521214077,9.740000121295452,1.5183332761128743,1.487999979654948,18.758621184031167,17.40019178390503,20.821770957022004,18.902337941256437,19.98662103017171,15.8613862991333,15.819228649139404,18.63464518955776,15.526645570993423,14.709844748179117,15.78939463297526,20.56666660308838,19.103750109672546,26.678787809429746,30.95272731781006,28.514666748046874,29.979999542236328,29.75166670481364,27.612857273646764,25.961875081062317,27.148333231608074,28.94466667175293,14.277666619420051,13.973125010728836,20.583939350012578,25.33977280963551,22.98266665140788,24.024999618530273,24.49833345413208,21.909285749707905,20.897499978542328,21.9399999777476,22.433333301544188,7.988666635751724,8.842499911785126,14.489090890595406,19.72681830146096,17.45066655476888,18.06999969482422,19.24500020345052,16.205714225769043,15.833124876022339,16.731666723887127,15.92199993133545,5.2060626457936445,4.794413965724781,7.474011338880244,11.016871437974658,11.418783775313372,13.25359794101121,14.0867860216364,11.915298807942868,10.879372353865579,11.683482264230648,11.218116552596888,5.2060626457936445,4.794413965724781,7.474011338880244,11.016871437974658,11.418783775313372,13.25359794101121,14.0867860216364,11.915298807942868,10.879372353865579,11.683482264230648,11.218116552596888,0,0,246.642374183048,489.0135458184905,660.295302448191,673.5489003892022,758.0696165190207,841.4767081746207,1015.54666583647,1085.647559421854,1085.647559421854,0,0,0.8853484775080825,1,0.9939999993642171,1,1,0.9855000087193081,0.9516874969005585,0.9762499968210856,0.06666666666666667,1,1,1,1,1,1,1,1,1,1,1,0.42060000101725264,0.44849999845027927,0.8853484775080825,1,0.9939999993642171,1,1,0.9855000087193081,0.9516874969005585,0.9762499968210856,0.9624333349863688,1,1,1,1,1,1,1,1,1,0.9999999999999999,1,2019-05-05,2019-05-20,2019-05-28,2019-06-30,2019-07-22,2019-08-06,2019-08-07,2019-08-13,2019-08-20,2019-09-05,2019-09-11,2019-05-19,2019-05-27,2019-06-29,2019-07-21,2019-08-05,2019-08-06,2019-08-12,2019-08-19,2019-09-04,2019-09-10,2019-09-25,125,140,148,181,203,218,219,225,232,248,254,15,8,33,22,15,1,6,7,16,6,15,139,147,180,202,217,218,224,231,247,253,268
23,wooster_oh,40.7565,-81.9004,2019,2019-05-23,2,13,early2,852.1390501807368,11,2019-05-09,2019-05-23,110,2019-09-10,2019-09-17,2019-10-01,Harvested at Maturity.,3.721333305040995,4.563333352406819,5.776764701394474,8.541304277337117,2.1506249755620956,NA,3.973750114440918,4.538000106811523,1.1605263007314581,2.6842857769557407,2.5673333207766214,3.721333305040995,4.563333352406819,5.776764701394474,8.541304277337117,2.1506249755620956,NA,3.973750114440918,4.538000106811523,1.1605263007314581,2.6842857769557407,2.5673333207766214,18.75390078226725,19.494322141011555,19.273118075202493,19.614985258682914,20.84461945295334,NA,19.013355612754822,17.12565498352051,16.86760832134046,16.128458159310476,14.944045639038086,21.25399964650472,26.773333231608074,25.346176371854895,30.131739243217137,28.179999947547913,NA,27.296249866485596,29.543999862670898,24.725263093647204,28.515714372907365,27.021333567301433,15.310666465759278,20.46833340326945,19.936911653069888,24.550652275914732,22.210937440395355,NA,21.551249980926514,23.78799991607666,19.24184206912392,21.823571409497944,20.18000014623006,9.367333285013835,14.163333574930826,14.527646934284883,18.969565308612324,16.241874933242798,NA,15.806250095367432,18.03199996948242,13.758421044600638,15.131428446088519,13.33866672515869,5.851109361507694,10.46833340326945,7.277469689701977,10.980868788879626,10.951654725884017,NA,11.465379586617347,13.60419432926178,9.591352592497124,11.749644808185952,9.411097422997951,5.851109361507694,10.46833340326945,7.277469689701977,10.980868788879626,10.951654725884017,NA,11.465379586617347,13.60419432926178,9.591352592497124,11.749644808185952,9.411097422997951,0,0,247.43396944986725,499.99395159409875,675.2204272082431,NA,766.9434639011819,834.9644355474908,1017.2001348049364,1099.447648462238,1099.447648462238,0,0,0.8750588234733133,1,0.9909687489271164,NA,0.997124993801117,1,0.8861578916248523,0.9627142906188965,0.06666666666666667,1,1,1,1,1,NA,1,1,1,1,1,0.5143999878565471,0.937666670481364,0.8750588234733133,1,0.9909687489271164,NA,0.997124993801117,1,0.8861578916248523,0.9627142906188965,0.9214000066121419,1,1,1,1,0.9999999999999999,NA,0.9999999999999999,1,0.9999999999999999,0.9999999999999999,1,2019-05-09,2019-05-24,2019-05-27,2019-06-30,2019-07-23,NA,2019-08-08,2019-08-16,2019-08-21,2019-09-09,2019-09-16,2019-05-23,2019-05-26,2019-06-29,2019-07-22,2019-08-07,NA,2019-08-15,2019-08-20,2019-09-08,2019-09-15,2019-09-30,129,144,147,181,204,NA,220,228,233,252,259,15,3,34,23,16,0,8,5,19,7,15,143,146,180,203,219,NA,227,232,251,258,273
24,arthur_il,39.70646667,-88.47023333,2019,2019-06-05,3,14,early3,958.2210230091227,11,2019-05-22,2019-06-05,105,2019-09-18,2019-09-23,2019-10-07,Harvested at Maturity.,3.762666702270508,0,6.9776666005452475,0.4499999940395355,3.3062500655651093,0,6.074999988079071,2.237777736451891,1.6517646803575403,0,1.9899999618530273,3.762666702270508,0,6.9776666005452475,0.4499999940395355,3.3062500655651093,0,6.074999988079071,2.237777736451891,1.6517646803575403,0,1.9899999618530273,20.73992500305176,22.279040336608887,19.184749825795492,21.452976322174074,20.37889450788498,15.05360984802246,15.598328113555908,16.527658886379665,17.017059943255255,15.989619827270507,12.630933634440103,28.227333323160806,30.30500030517578,28.329333623250324,30.69699983596802,29.52625024318695,29.5,28.985000133514404,26.46777809990777,28.129411697387695,30.207999420166015,26.99266662597656,22.293666712443034,24.570000171661377,23.1041668732961,25.00200002193451,23.389062583446503,25.354999542236328,24.01562511920929,21.260555585225422,22.180588217342603,23.60399971008301,20.989000034332275,16.36000010172526,18.835000038146973,17.87900012334188,19.307000207901,17.251874923706055,21.209999084472656,19.046250104904175,16.053333070543076,16.231764737297507,17,14.985333442687988,12.228547258156937,14.494282300627233,8.216806234745459,10.39035592507077,11.674825292953047,14.74964239142108,13.815680498802521,11.303206712124744,12.041985759894287,13.448918359239102,9.816645655132533,12.228547258156937,14.494282300627233,8.216806234745459,10.39035592507077,11.674825292953047,14.74964239142108,13.815680498802521,11.303206712124744,12.041985759894287,13.448918359239102,9.816645655132533,0,0,246.50418704236375,454.31130554377927,641.1085102310277,655.8581526224488,766.3835966128689,868.1124570219916,1072.8262149401944,1140.0708067363898,1140.0708067363898,0,0,0.9690500052769979,1,1,1,1,0.988444455464681,0.9757941189934226,1,0.06666666666666667,1,1,1,1,1,1,1,1,1,1,1,0.9855333360036215,1,0.9690500052769979,1,1,1,1,0.988444455464681,0.9757941189934226,1,0.8780333201090496,1,1,1,1,1,1,1,1,1,1,1,2019-05-22,2019-06-06,2019-06-08,2019-07-08,2019-07-28,2019-08-13,2019-08-14,2019-08-22,2019-08-31,2019-09-17,2019-09-22,2019-06-05,2019-06-07,2019-07-07,2019-07-27,2019-08-12,2019-08-13,2019-08-21,2019-08-30,2019-09-16,2019-09-21,2019-10-06,142,157,159,189,209,225,226,234,243,260,265,15,2,30,20,16,1,8,9,17,5,15,156,158,188,208,224,225,233,242,259,264,279
25,urbana_il,40.05325,-88.23485,2019,2019-06-01,3,5,early3,1011.770716906842,11,2019-05-18,2019-06-01,111,2019-09-20,2019-09-24,2019-10-08,Harvested at Maturity.,5.366666598121325,0,4.241612901610713,1.67380952835083,1.225294109653024,0,3.87249992787838,2.322000032663345,0.7133333351877,3.787499904632568,2.4226667046546937,5.366666598121325,0,4.241612901610713,1.67380952835083,1.225294109653024,0,3.87249992787838,2.322000032663345,0.7133333351877,3.787499904632568,2.4226667046546937,19.32257760365804,24.703421274820965,19.990878966546827,20.48593975248791,20.246105081894818,14.385289192199709,15.7606760263443,16.98369789123535,16.72662713792589,13.560349941253662,13.128992017110189,26.036000124613444,26.22333335876465,28.130645136679373,30.375237964448473,29.057058670941522,28.469999313354492,28.56250023841858,26.035000228881835,27.941666815016006,29.647499561309814,26.086666361490884,20.628000100453693,19.734999974568687,22.669193575459143,24.609285627092635,22.81852938147152,24.519999504089355,23.498125195503235,20.644000196456908,21.798333353466457,23.71999967098236,19.775333134333295,15.220000076293946,13.24666659037272,17.20774201423891,18.843333289736794,16.580000092001523,20.56999969482422,18.43375015258789,15.253000164031983,15.65499989191691,17.792499780654907,13.4639999071757,10.660907076676686,9.734999974568685,7.880421775913715,10.006669735783893,11.07849879747943,13.87227865928298,13.358964669492131,10.760185020914077,11.790052151088915,13.61762171264887,9.070233338865837,10.660907076676686,9.734999974568685,7.880421775913715,10.006669735783893,11.07849879747943,13.87227865928298,13.358964669492131,10.760185020914077,11.790052151088915,13.61762171264887,9.070233338865837,0,0,244.29307505332517,454.43313950478694,642.7676190619375,656.63989772122045,763.5116150771574,871.1134652862982,1083.3344040058987,1137.8048908564942,1137.8048908564942,0,0,0.9597580632855816,1,1,1,1,0.9741500091552735,0.9743888854980469,1,0.06513333320617676,1,1,1,1,1,1,1,1,1,1,1,0.891366662979126,0.9233333269755046,0.9597580632855816,1,1,1,1,0.9741500091552735,0.9743888854980469,1,0.8300999816258748,1,1,1,1,0.9999999999999999,1,0.9999999999999999,1,0.9999999999999999,1,1,2019-05-18,2019-06-02,2019-06-05,2019-07-06,2019-07-27,2019-08-13,2019-08-14,2019-08-22,2019-09-01,2019-09-19,2019-09-23,2019-06-01,2019-06-04,2019-07-05,2019-07-26,2019-08-12,2019-08-13,2019-08-21,2019-08-31,2019-09-18,2019-09-22,2019-10-07,138,153,156,187,208,225,226,234,244,262,266,15,3,31,21,17,1,8,10,18,4,15,152,155,186,207,224,225,233,243,261,265,280
26,romney_in,40.2364,-86.8889,2019,2019-06-09,3,15,early3,999.2992829390432,11,2019-05-26,2019-06-09,111,2019-09-28,2019-10-03,2019-10-17,Harvested at Maturity.,4.3406666596730545,0.20999999046325685,3.41749997649874,2.926363603635268,1.7633333762486776,0,7.169999969005585,2.108181747523221,1.115294147940243,3.168000030517578,0.8146666685740153,4.3406666596730545,0.20999999046325685,3.41749997649874,2.926363603635268,1.7633333762486776,0,7.169999969005585,2.108181747523221,1.115294147940243,3.168000030517578,0.8146666685740153,19.53989232381185,23.346224212646487,20.776920046125138,20.244889996268533,19.403122647603354,18.709321975708008,15.662802982330323,16.629547465931285,15.379833614124971,12.474847030639648,12.451291465759278,26.686000061035156,23.649999618530273,28.957500185285294,29.50863638791171,29.048666508992515,30.90999984741211,26.65699996948242,25.066363941539418,28.219412074369544,29.30399971008301,20.5706667582194,21.098000113169352,17.580999755859374,23.394285815102712,23.6186363697052,22.73499994277954,24.809999465942383,21.222999858856202,19.598636497150768,21.890882464016187,22.70599994659424,13.832000081737837,15.510000165303548,11.511999893188475,17.83107144492013,17.72863635149869,16.42133337656657,18.709999084472656,15.788999748229982,14.130909052762119,15.562352853662828,16.108000183105467,7.0933334052562715,11.098000113169352,7.6357174251794815,8.339783314496742,9.969615914609669,11.818781812218097,14.605770781731604,11.369932844959498,9.821090146561103,11.928424371034959,12.552097963100671,3.998032507515376,11.098000113169352,7.6357174251794815,8.339783314496742,9.969615914609669,11.818781812218097,14.605770781731604,11.369932844959498,9.821090146561103,11.928424371034959,12.552097963100671,3.998032507515376,0,0,233.5139328059088,452.84548292732154,630.1272101105933,644.7329808923249,758.4323093419199,866.4643009540921,1069.2475152616869,1132.00800507719,1132.00800507719,0,0,0.9769821456500463,0.9931136348030783,1,1,0.969549994468689,0.9114545475352894,0.964735294790829,0.9751999950408936,0.06666666666666667,1,1,1,1,1,1,1,1,1,1,1,0.9699333413441976,0.7541999816894531,0.9769821456500463,0.9931136348030783,1,1,0.969549994468689,0.9114545475352894,0.964735294790829,0.9751999950408936,0.389333340326945,1,1,1,1,0.9999999999999999,0.9999999999999998,1,1,1,1,1,2019-05-26,2019-06-10,2019-06-15,2019-07-13,2019-08-04,2019-08-19,2019-08-20,2019-08-30,2019-09-10,2019-09-27,2019-10-02,2019-06-09,2019-06-14,2019-07-12,2019-08-03,2019-08-18,2019-08-19,2019-08-29,2019-09-09,2019-09-26,2019-10-01,2019-10-16,146,161,166,194,216,231,232,242,253,270,275,15,5,28,22,15,1,10,11,17,5,15,160,165,193,215,230,231,241,252,269,274,289
27,wanatah_in,41.4444,-86.9437,2019,2019-06-04,3,10,early3,1016.927979471972,11,2019-05-21,2019-06-04,119,2019-10-01,2019-10-08,2019-10-22,Harvested at Maturity.,5.66600005030632,0,3.2205881791956283,2.217826117639956,2.507500045001507,1.8700000047683716,2.03699996471405,0.5200000134381381,9.24631567377793,1.1157142775399345,1.9659999847412108,5.66600005030632,0,3.2205881791956283,2.217826117639956,2.507500045001507,1.8700000047683716,2.03699996471405,0.5200000134381381,9.24631567377793,1.1157142775399345,1.9659999847412108,19.838744799296062,24.077903747558594,19.752322225009692,19.810755190641984,18.200847685337067,13.608142852783203,16.949739265441895,16.443175402554598,12.690038957093892,10.567961011614118,11.80967747370402,24.23800017038981,27.273332595825195,27.092059023240033,28.981739127117656,28.398124933242798,26.770000457763672,25.970000076293946,24.69454574584961,26.315263145848323,23.297143118722097,17.28133347829183,18.16499999364217,20.90333302815755,21.796470726237576,23.365652146546736,22.665937393903732,23.039999961853027,20.311999988555907,19.235454646023836,20.858421024523285,18.516428674970353,10.935000083222986,12.091999816894532,14.533333460489908,16.500882429235123,17.74956516597582,16.933749854564667,19.309999465942383,14.65399990081787,13.776363546198064,15.401578903198242,13.73571423121861,4.588666688154141,8.265156175811688,10.903333028157551,7.007645326405501,9.435538756245318,11.609615908780995,13.039999961853026,10.475862869521379,9.463371026135576,10.944916008314962,9.478300516489574,2.412152405744442,8.265156175811688,10.903333028157551,7.007645326405501,9.435538756245318,11.609615908780995,13.039999961853026,10.475862869521379,9.463371026135576,10.944916008314962,9.478300516489574,2.412152405744442,0,0,238.25994109778708,455.27733249142955,641.0311870319255,654.0711869937785,758.8298156889922,862.9268969764836,1070.8803011344676,1137.2284047498947,1137.2284047498947,0,0,0.9135147066677318,0.9888695654661759,1,1,0.9432500123977662,0.8565454569729892,0.9346052571346886,0.6849285806928362,0.033533334732055664,1,1,1,1,1,1,1,1,1,1,1,0.7880333296457926,0.9958333174387614,0.9135147066677318,0.9888695654661759,1,1,0.9432500123977662,0.8565454569729892,0.9346052571346886,0.6849285806928362,0.20360000610351564,1,1,1,1,1,1,0.9999999999999999,1,0.9999999999999999,1,1,2019-05-21,2019-06-05,2019-06-08,2019-07-12,2019-08-04,2019-08-20,2019-08-21,2019-08-31,2019-09-11,2019-09-30,2019-10-07,2019-06-04,2019-06-07,2019-07-11,2019-08-03,2019-08-19,2019-08-20,2019-08-30,2019-09-10,2019-09-29,2019-10-06,2019-10-21,141,156,159,193,216,232,233,243,254,273,280,15,3,34,23,16,1,10,11,19,7,15,155,158,192,215,231,232,242,253,272,279,294
28,lafayette_in,40.399,-86.8592,2019,2019-05-28,3,1,early3,1060.050413328174,11,2019-05-14,2019-05-28,116,2019-09-21,2019-09-26,2019-10-10,Harvested at Maturity.,6.5860000650087995,6.416666428248088,3.337058805367526,2.365454532883384,1.7588234508738798,0,2.611250013113022,5.006999826431274,1.5857894295140316,1.9879999160766602,1.5620000123977662,6.5860000650087995,6.416666428248088,3.337058805367526,2.365454532883384,1.7588234508738798,0,2.611250013113022,5.006999826431274,1.5857894295140316,1.9879999160766602,1.5620000123977662,19.37279879252116,18.08707110087077,20.676400240729837,20.472078930247914,21.11136672076057,14.088802337646484,16.199302911758423,16.54001235961914,16.214904182835628,13.740925216674805,12.936380577087402,24.54133364359538,25.869999567667644,27.2044116749483,30.499090974981137,29.127058814553653,28.020000457763672,29.34375,25.871999740600586,27.404736870213558,27.940000152587892,25.178666559855145,18.570000187555948,20.524999618530273,21.68617645431967,24.57772729613564,22.532058771918802,24.09000015258789,23.581875026226044,20.355499935150146,21.27605260045905,21.741000080108645,18.76833330790202,12.59866673151652,15.179999669392904,16.167941233691046,18.65636361729015,15.937058729283951,20.15999984741211,17.820000052452087,14.839000129699707,15.147368330704538,15.542000007629394,12.358000055948894,8.771553940664928,10.524999618530273,7.231372481212688,9.634020745168396,10.720932887612152,13.38784066555326,13.339391952356857,10.50206566403091,11.29435710455587,11.915782934414148,8.270792182101012,8.771553940664928,10.524999618530273,7.231372481212688,9.634020745168396,10.720932887612152,13.38784066555326,13.339391952356857,10.50206566403091,11.29435710455587,11.915782934414148,8.270792182101012,0,0,245.86666436123144,457.81512075493623,640.0709798443426,653.4588205098959,760.1739561287508,865.19461276906,1079.7873977556212,1139.3663124276918,1139.3663124276918,0,0,0.9320294099695542,0.9950681794773448,1,1,1,0.9640500020980836,0.9533947392513877,0.9584000110626221,0.05703333218892415,1,1,1,1,1,1,1,1,1,1,1,0.7704666757583618,0.9996666590372721,0.9320294099695542,0.9950681794773448,1,1,1,0.9640500020980836,0.9533947392513877,0.9584000110626221,0.7476666641235352,1,1,1,1,1,1,0.9999999999999999,1,1,1,1,2019-05-14,2019-05-29,2019-06-01,2019-07-05,2019-07-27,2019-08-13,2019-08-14,2019-08-22,2019-09-01,2019-09-20,2019-09-25,2019-05-28,2019-05-31,2019-07-04,2019-07-26,2019-08-12,2019-08-13,2019-08-21,2019-08-31,2019-09-19,2019-09-24,2019-10-09,134,149,152,186,208,225,226,234,244,263,268,15,3,34,22,17,1,8,10,19,5,15,148,151,185,207,224,225,233,243,262,267,282
29,albany_mo,40.2384,-94.3433,2019,2019-06-08,3,16,early3,888.5704796599211,11,2019-05-25,2019-06-08,104,2019-09-20,2019-09-25,2019-10-09,Harvested at Maturity.,11.101333379745483,1.1725000143051147,5.338214248418808,3.8690475963410877,2.727142878941127,22.020000457763672,4.42249995470047,6.837999832630158,1.7275000214576721,10.947999668121337,11.181333255767822,11.101333379745483,1.1725000143051147,5.338214248418808,3.8690475963410877,2.727142878941127,22.020000457763672,4.42249995470047,6.837999832630158,1.7275000214576721,10.947999668121337,11.181333255767822,20.9015598932902,21.803569793701172,19.56390130519867,20.3093352999006,18.803412233080184,13.582944869995115,15.898973405361176,15.810722875595093,16.27777871489525,10.062520170211792,11.724898465474446,27.074000040690105,25.22499942779541,29.517142908913748,30.700952439081103,29.907857213701522,24.579999923706055,29.09375023841858,25.492000007629393,29.766249775886536,26.852000045776368,23.25799992879232,21.296666685740153,19.22374975681305,24.11035713127681,24.87404761995588,24.586071491241455,19.960000038146973,23.867499887943268,20.41899995803833,23.776249796152115,22.600999927520753,17.449666627248128,15.519333330790202,13.222500085830688,18.703571353639877,19.04714280083066,19.26428576878139,15.34000015258789,18.641249537467957,15.345999908447265,17.786249816417694,18.34999980926514,11.641333325703938,11.180407933522861,9.22374975681305,8.619892409735376,10.125834386794281,12.943110955831985,9.696604542136292,13.612462515094474,10.398685252204537,13.200804878570885,12.562252892951966,6.945710216299494,11.180407933522861,9.22374975681305,8.619892409735376,10.125834386794281,12.943110955831985,9.696604542136292,13.612462515094474,10.398685252204537,13.200804878570885,12.562252892951966,6.945710216299494,0,0,241.3569874725905,453.99950959527047,635.2030629769182,644.8996675190544,753.7993676398103,857.7862201618557,1068.99909821899,1131.81036268375,1131.81036268375,0,0,0.9807857155799866,0.9910714331127348,1,0.9960000038146972,1,0.9605999946594238,0.9996875017881394,0.9794999980926514,0.06666666666666667,1,1,1,1,1,1,1,1,1,1,1,0.9498666604359945,0.9124999761581422,0.9807857155799866,0.9910714331127348,1,0.9960000038146972,1,0.9605999946594238,0.9996875017881394,0.9794999980926514,0.6583999983469645,1,1,1,0.9999999999999999,0.9999999999999999,1,1,1,1,0.9999999999999999,1,2019-05-25,2019-06-09,2019-06-13,2019-07-11,2019-08-01,2019-08-15,2019-08-16,2019-08-24,2019-09-03,2019-09-19,2019-09-24,2019-06-08,2019-06-12,2019-07-10,2019-07-31,2019-08-14,2019-08-15,2019-08-23,2019-09-02,2019-09-18,2019-09-23,2019-10-08,145,160,164,192,213,227,228,236,246,262,267,15,4,28,21,14,1,8,10,16,5,15,159,163,191,212,226,227,235,245,261,266,281
30,columbia_mo,38.8894,-92.2081,2019,2019-06-05,3,17,early3,893.1512402821088,11,2019-05-22,2019-06-05,100,2019-09-13,2019-09-17,2019-10-01,Harvested at Maturity.,3.754666699965795,0,5.12357143844877,1.3800000071525573,1.3213333447774251,0,6.988571439470563,6.738749772310257,6.847058801090016,0,3.0206666787465415,3.754666699965795,0,5.12357143844877,1.3800000071525573,1.3213333447774251,0,6.988571439470563,6.738749772310257,6.847058801090016,0,3.0206666787465415,20.13730583190918,20.691579818725586,19.459701946803502,20.84837908744812,20.426890500386556,21.0039119720459,17.41448143550328,14.35269021987915,15.654298361609964,16.639485359191895,13.25394336382548,28.208666610717774,29.005000114440918,28.280714307512557,31.02150011062622,30.300666681925456,32.689998626708984,30.18142863682338,29.19125008583069,28.116470336914063,29.940000534057617,29.420666631062826,22.420000012715658,24.019999980926514,23.281964250973292,25.67625002861023,24.470333290100097,26.32499885559082,25.105714389256068,24.585000038146973,22.90735284019919,23.9099999666214,23.943666617075603,16.63133341471354,19.03499984741211,18.28321419443403,20.33099994659424,18.63999989827474,19.959999084472656,20.030000141688756,19.978749990463257,17.698235343484317,17.87999939918518,18.466666603088377,12.322645343662103,14.019999980926514,8.6194836662903,10.861436743934256,12.375906957281112,14.035894521492615,14.182176442554,13.928094351629912,12.641767271298521,13.311578672634063,12.24583337645054,12.322645343662103,14.019999980926514,8.6194836662903,10.861436743934256,12.375906957281112,14.035894521492615,14.182176442554,13.928094351629912,12.641767271298521,13.311578672634063,12.24583337645054,0,0,241.34554265612843,458.5742775348136,644.2128818940304,658.248776415523,757.524011513401,868.9487663264404,1083.8588099385152,1137.1051246290515,1137.1051246290515,0,0,0.9739107148987907,1,1,1,1,1,0.9922352959127987,1,0.06666666666666667,1,1,1,1,1,1,1,1,1,1,1,0.9988666693369548,1,0.9739107148987907,1,1,1,1,1,0.9922352959127987,1,0.9870333290100097,1,1,1,1,0.9999999999999999,0.9999999999999996,0.9999999999999999,1,0.9999999999999999,1,1,2019-05-22,2019-06-06,2019-06-08,2019-07-06,2019-07-26,2019-08-10,2019-08-11,2019-08-18,2019-08-26,2019-09-12,2019-09-16,2019-06-05,2019-06-07,2019-07-05,2019-07-25,2019-08-09,2019-08-10,2019-08-17,2019-08-25,2019-09-11,2019-09-15,2019-09-30,142,157,159,187,207,222,223,230,238,255,259,15,2,28,20,15,1,7,8,17,4,15,156,158,186,206,221,222,229,237,254,258,273
31,phillips_ne,40.8473,-98.177,2019,2019-05-19,3,12,early3,1040.597468646474,11,2019-05-05,2019-05-19,122,2019-09-18,2019-09-22,2019-10-06,Harvested at Maturity.,3.579333265622457,17.96750035881996,3.436666680706872,5.531304380168086,7.324375152587891,20.5,3.665000081062317,13.996363813226873,1.1488235066918766,0,2.200666642189026,3.579333265622457,17.96750035881996,3.436666680706872,5.531304380168086,7.324375152587891,20.5,3.665000081062317,13.996363813226873,1.1488235066918766,0,2.200666642189026,18.758621184031167,17.40019178390503,20.659084293577408,19.55790254344111,18.049165904521942,12.222442626953123,18.677572011947632,14.27909231185913,16.590282945071948,14.646504402160645,13.261324501037597,20.56666660308838,19.103750109672546,27.17583327823215,30.0021738798722,29.380625128746033,29.25,27.892500162124634,25.33909104087136,28.06470579259536,30.410000324249268,22.827999877929688,14.277666619420051,13.973125010728836,21.11694441901313,24.319782630256984,23.95625004172325,24.989999771118164,22.251250088214874,20.608181823383678,22.082058766308954,24.826250076293945,16.75833330154419,7.988666635751724,8.842499911785126,15.058055559794107,18.63739138064177,18.53187495470047,20.729999542236328,16.610000014305115,15.877272605895996,16.099411740022546,19.242499828338623,10.688666725158692,5.2060626457936445,4.794413965724781,6.646431253170787,9.315945392652107,11.646286883930127,13.82444850107697,11.874639861399343,10.620819378750433,11.931199012221308,14.438815153241157,5.993809431676071,5.2060626457936445,4.794413965724781,6.646431253170787,9.315945392652107,11.646286883930127,13.82444850107697,11.874639861399343,10.620819378750433,11.931199012221308,14.438815153241157,5.993809431676071,0,0,239.2715251141483,453.5382691451469,639.8788592880289,653.7033077891059,748.7004266803007,865.5294398465554,1068.3598230543178,1126.1150836672823,1126.1150836672823,0,0,0.8949027710490757,0.9960869561070982,1,1,0.9873125076293945,0.9493181792172519,0.9713823514826158,1,0.06666666666666667,1,1,1,1,1,1,1,1,1,1,1,0.42060000101725264,0.44849999845027927,0.8949027710490757,0.9960869561070982,1,1,0.9873125076293945,0.9493181792172519,0.9713823514826158,1,0.6019000005722046,1,1,1,0.9999999999999999,1,1,0.9999999999999999,1,1,1,1,2019-05-05,2019-05-20,2019-05-28,2019-07-03,2019-07-26,2019-08-11,2019-08-12,2019-08-20,2019-08-31,2019-09-17,2019-09-21,2019-05-19,2019-05-27,2019-07-02,2019-07-25,2019-08-10,2019-08-11,2019-08-19,2019-08-30,2019-09-16,2019-09-20,2019-10-05,125,140,148,184,207,223,224,232,243,260,264,15,8,36,23,16,1,8,11,17,4,15,139,147,183,206,222,223,231,242,259,263,278
32,wooster_oh,40.7565,-81.9004,2019,2019-05-23,3,13,early3,1049.760351933373,11,2019-05-09,2019-05-23,123,2019-09-23,2019-09-29,2019-10-13,Harvested at Maturity.,3.721333305040995,4.563333352406819,5.619473658109966,8.276363600384105,2.0083333121405706,27.290000915527344,2.836250066757202,2.004545428536155,0.9395000219345093,0.25333334008852637,3.8953333059946695,3.721333305040995,4.563333352406819,5.619473658109966,8.276363600384105,2.0083333121405706,27.290000915527344,2.836250066757202,2.004545428536155,0.9395000219345093,0.25333334008852637,3.8953333059946695,18.75390078226725,19.494322141011555,19.625087537263568,19.19778737154874,20.817986329396565,10.13073444366455,17.3480304479599,16.176699378273703,17.078465366363524,15.677614688873291,11.492263762156169,21.25399964650472,26.773333231608074,25.84394736039011,29.47363636710427,28.419999864366318,24.920000076293945,29.078749895095825,24.402727300470527,26.892000007629395,26.62166690826416,23.827333196004233,15.310666465759278,20.46833340326945,20.321315715187474,24.039318236437712,22.324999941719902,21.49499988555908,23.584375023841858,19.131363608620383,20.353749990463257,19.235833485921223,17.404999891916912,9.367333285013835,14.163333574930826,14.798684069984837,18.60500010577115,16.230000019073486,18.06999969482422,18.09000015258789,13.859999916770242,13.815499973297118,11.850000063578287,10.98266658782959,5.851109361507694,10.46833340326945,6.453074704481399,9.464486041669565,10.448441027807172,10.85936823431381,13.284242465288859,9.411820167119936,10.574877221023142,10.165885426825284,7.03060728114903,5.851109361507694,10.46833340326945,6.453074704481399,9.464486041669565,10.448441027807172,10.85936823431381,13.284242465288859,9.411820167119936,10.574877221023142,10.165885426825284,7.03060728114903,0,0,245.2168387702932,453.43553168702374,641.5074701875528,652.3668384218666,758.6407781441776,862.170799982497,1073.6683444029595,1134.6636569639113,1134.6636569639113,0,0,0.8882105262655962,0.9934318174015392,0.9987222194671631,1,1,0.8949545426802202,0.9291750025749207,0.8281666755676269,0.06666666666666667,1,1,1,1,1,1,1,1,1,1,1,0.5143999878565471,0.937666670481364,0.8882105262655962,0.9934318174015392,0.9987222194671631,1,1,0.8949545426802202,0.9291750025749207,0.8281666755676269,0.6298999881744385,1,1,1,0.9999999999999999,0.9999999999999999,1,1,0.9999999999999999,1,0.9999999999999999,1,2019-05-09,2019-05-24,2019-05-27,2019-07-04,2019-07-26,2019-08-13,2019-08-14,2019-08-22,2019-09-02,2019-09-22,2019-09-28,2019-05-23,2019-05-26,2019-07-03,2019-07-25,2019-08-12,2019-08-13,2019-08-21,2019-09-01,2019-09-21,2019-09-27,2019-10-12,129,144,147,185,207,225,226,234,245,265,271,15,3,38,22,18,1,8,11,20,6,15,143,146,184,206,224,225,233,244,264,270,285
33,flora_il,38.702763,-88.518259,2019,2019-06-11,4,18,early4,1176.2370751572664,11,2019-05-28,2019-06-11,116,2019-10-05,2019-10-10,2019-10-24,Harvested at Maturity.,3.01933340827624,7.992500260472298,7.664838751717921,0.292857153075082,3.5777777168485856,1.4900000095367432,0.3700000047683716,0.4610000133514404,0.9294736761795847,2.5600000381469727,6.766666666666667,3.01933340827624,7.992500260472298,7.664838751717921,0.292857153075082,3.5777777168485856,1.4900000095367432,0.3700000047683716,0.4610000133514404,0.9294736761795847,2.5600000381469727,6.766666666666667,20.56357898712158,21.74897861480713,18.36718060893397,21.138346944536483,17.496263133154976,18.955089569091797,16.96387062072754,17.899616527557374,14.690637513210898,12.661645603179933,11.98756160736084,28.41800003051758,25.259999752044678,30.64677398435531,30.794762021019345,29.99722237057156,26.81999969482422,28.68000011444092,30.172999763488768,30.757368388928864,22.867999649047853,19.65133310953776,22.61366662979126,18.30999994277954,25.33258056640625,24.876666682107107,24.43777781062656,21.105000019073486,23.08450002670288,23.26249990463257,23.829210507242305,16.288999938964846,12.299333175023397,16.80933322906494,11.360000133514404,20.01838714845719,18.958571343194873,18.87833325068156,15.390000343322754,17.488999938964845,16.352000045776368,16.901052625555742,9.710000228881835,4.947333240509034,12.550348163685799,8.32160891545564,8.413116893742293,10.281741614643556,13.083896853627106,11.105000019073486,13.064425262365937,12.530321471698285,13.032718509803633,7.741429388446808,3.308738296451221,12.550348163685799,8.32160891545564,8.413116893742293,10.281741614643556,13.083896853627106,11.105000019073486,13.064425262365937,12.530321471698285,13.032718509803633,7.741429388446808,3.308738296451221,0,0,260.8066237060112,476.7231976135259,712.2333409788138,723.3383409978873,853.9825936215466,979.2858083385296,1226.9074600247986,1265.6146069670326,1265.6146069670326,0,0,1,1,1,1,1,0.9947500038146972,0.9936578976480585,0.6288999938964844,0.037633330027262366,1,1,1,1,1,1,1,1,1,1,1,0.9897999986012777,0.8283750057220459,1,1,1,1,1,0.9947500038146972,0.9936578976480585,0.6288999938964844,0.25466665148735046,1,1,1,1,0.9999999999999999,1,1,1,0.9999999999999999,0.9999999999999999,1,2019-05-28,2019-06-12,2019-06-16,2019-07-17,2019-08-07,2019-08-25,2019-08-26,2019-09-05,2019-09-15,2019-10-04,2019-10-09,2019-06-11,2019-06-15,2019-07-16,2019-08-06,2019-08-24,2019-08-25,2019-09-04,2019-09-14,2019-10-03,2019-10-08,2019-10-23,148,163,167,198,219,237,238,248,258,277,282,15,4,31,21,18,1,10,10,19,5,15,162,166,197,218,236,237,247,257,276,281,296
34,urbana_il,40.05325,-88.23485,2019,2019-06-01,4,5,early4,1411.06751600989,11,2019-05-18,2019-06-01,136,2019-10-15,2019-10-22,2019-11-05,Harvested at Maturity.,5.366666598121325,0,3.779487186517471,1.1769565058791118,2.608095211642129,0,1.5838461839235745,0.5199999941719903,2.9491999983787536,0.9528571282114301,7.21799996693929,5.366666598121325,0,3.779487186517471,1.1769565058791118,2.608095211642129,0,1.5838461839235745,0.5199999941719903,2.9491999983787536,0.9528571282114301,7.21799996693929,19.32257760365804,24.703421274820965,20.3123412499061,20.607548257578973,16.905327479044598,17.03022575378418,16.745107357318584,16.623257425096302,13.15262596130371,11.745695795331683,7.591193087895711,26.036000124613444,26.22333335876465,28.633589720114685,29.768695499586023,28.13428579057966,27.530000686645508,25.82076908991887,29.86222267150879,25.26839973449707,17.24857153211321,12.142666784922282,20.628000100453693,19.734999974568687,23.061538488436966,23.830217299254045,22.697142941611155,22.445000648498535,20.19538453909067,23.294444613986546,18.69519982814789,10.379285778318133,7.469333386421204,15.220000076293946,13.24666659037272,17.48948725675925,17.891739098922066,17.26000009264265,17.360000610351563,14.56999998826247,16.726666556464302,12.121999921798706,3.510000024523054,2.7959999879201254,10.660907076676686,9.734999974568685,6.777045171165577,9.081033976498363,11.505637290931094,12.445000648498535,10.336906331404816,13.13428095351855,9.980875667033434,5.5265460059791804,0.7078315337449312,10.660907076676686,9.734999974568685,6.777045171165577,9.081033976498363,11.505637290931094,12.445000648498535,10.336906331404816,13.13428095351855,9.980875667033434,5.5265460059791804,0.7078315337449312,0,0,264.3047616754575,473.1685431349198,714.7869262444726,727.2319268929712,861.6117092012338,979.8202377829008,1229.3421294587367,1268.027951500591,1268.027951500591,0,0,0.968012819534693,1,0.9926428613208589,1,0.9565384571368878,1,0.7321799883842468,0.09350000619888306,0.03059999783833822,1,1,1,1,1,1,1,1,1,1,1,0.891366662979126,0.9233333269755046,0.968012819534693,1,0.9926428613208589,1,0.9565384571368878,1,0.7321799883842468,0.09350000619888306,0.04643333594004313,1,1,1,0.9999999999999999,0.9999999999999999,1,1,0.9999999999999999,1,0.9999999999999999,1,2019-05-18,2019-06-02,2019-06-05,2019-07-14,2019-08-06,2019-08-27,2019-08-28,2019-09-10,2019-09-19,2019-10-14,2019-10-21,2019-06-01,2019-06-04,2019-07-13,2019-08-05,2019-08-26,2019-08-27,2019-09-09,2019-09-18,2019-10-13,2019-10-20,2019-11-04,138,153,156,195,218,239,240,253,262,287,294,15,3,39,23,21,1,13,9,25,7,15,152,155,194,217,238,239,252,261,286,293,308
35,romney_in,40.2364,-86.8889,2019,2019-06-09,4,15,early4,1331.0101396070943,11,2019-05-26,2019-06-09,145,2019-11-01,2019-11-09,2019-11-23,Harvested at Maturity.,4.3406666596730545,0.20999999046325685,3.2813888721995883,2.2078260546145234,5.267142835117522,1.8899999856948853,0.5858333508173624,1.0845454822887073,3.133235307300792,0.7524999976158142,0.7913333535194397,4.3406666596730545,0.20999999046325685,3.2813888721995883,2.2078260546145234,5.267142835117522,1.8899999856948853,0.5858333508173624,1.0845454822887073,3.133235307300792,0.7524999976158142,0.7913333535194397,19.53989232381185,23.346224212646487,20.267797655529446,21.148321649302606,16.009087199256534,18.993682861328125,16.790528853734333,15.01679567857222,10.916800197433023,8.133010774850845,7.606074635187785,26.686000061035156,23.649999618530273,29.626111295488144,28.55695641559103,27.130476179577055,28.329999923706055,27.15500036875407,27.399091200395063,19.762941192178165,9.012500047683716,4.951999950408935,21.098000113169352,17.580999755859374,24.108333441946243,22.139782532401707,21.728571369534446,21.764999866485596,21.15541684627533,21.036363688382234,13.585588275947991,3.9250000274041668,-0.11400002638498954,15.510000165303548,11.511999893188475,18.59055558840434,15.72260864921238,16.32666655949184,15.199999809265137,15.15583332379659,14.673636176369406,7.408235359717818,-1.1624999928753823,-5.180000003178915,11.098000113169352,7.6357174251794815,7.39351138429038,8.984612386259387,11.246288438060402,11.7649998664856,11.213639170842866,11.25017790020921,7.272193930943146,5,0.07593343326821926,11.098000113169352,7.6357174251794815,7.39351138429038,8.984612386259387,11.246288438060402,11.7649998664856,11.213639170842866,11.25017790020921,7.272193930943146,5,0.07593343326821926,0,0,266.16640983445376,472.8124947184196,708.984551917688,720.7495517841736,855.313221834288,979.0651787365892,1226.3197723886562,1266.3197723886562,1266.3197723886562,0,0,0.9820972243944804,0.9934130419855532,0.9808095205397833,1,0.9270416696866354,0.945500001040372,0.350808827140752,0,0,1,1,1,1,1,1,1,1,1,1,1,0.9699333413441976,0.7541999816894531,0.9820972243944804,0.9934130419855532,0.9808095205397833,1,0.9270416696866354,0.945500001040372,0.350808827140752,0,0,1,1,1,0.9999999999999999,0.9999999999999999,1,1,0.9999999999999999,1,1,1,2019-05-26,2019-06-10,2019-06-15,2019-07-21,2019-08-13,2019-09-03,2019-09-04,2019-09-16,2019-09-27,2019-10-31,2019-11-08,2019-06-09,2019-06-14,2019-07-20,2019-08-12,2019-09-02,2019-09-03,2019-09-15,2019-09-26,2019-10-30,2019-11-07,2019-11-22,146,161,166,202,225,246,247,259,270,304,312,15,5,36,23,21,1,12,11,34,8,15,160,165,201,224,245,246,258,269,303,311,326
36,lafayette_in,40.399,-86.8592,2019,2019-05-28,4,1,early4,1541.1015711114326,11,2019-05-14,2019-05-28,145,2019-10-20,2019-10-27,2019-11-10,Harvested at Maturity.,6.5860000650087995,6.416666428248088,3.062558125617892,2.2617390777753745,3.9357141880762008,0,1.676153769859901,0.8340000152587891,1.5114285605294364,2.5357142857142856,4.747333335876465,6.5860000650087995,6.416666428248088,3.062558125617892,2.2617390777753745,3.9357141880762008,0,1.676153769859901,0.8340000152587891,1.5114285605294364,2.5357142857142856,4.747333335876465,19.37279879252116,18.08707110087077,21.028823364612666,20.292128604391348,17.340411140805198,16.593835830688477,16.72389426598182,16.148083114624022,12.654917887278966,9.113094738551549,7.817244784037272,24.54133364359538,25.869999567667644,27.994883603827898,29.734348048334535,28.322857084728422,26.524999618530273,25.831538420457107,29.293999862670898,22.862857137407577,16.909999983651296,10.078666599591573,18.570000187555948,20.524999618530273,22.278139491413913,23.721521833668586,22.47261903399513,21.31249976158142,19.981923029972958,22.636999893188477,16.395892866887152,11.167857144560132,5.012333309650422,12.59866673151652,15.179999669392904,16.561395378999933,17.708695619002633,16.622380983261834,16.09999990463257,14.132307639488808,15.979999923706055,9.92892859636673,5.425714305468968,-0.0539999802907308,8.771553940664928,10.524999618530273,6.255570114022443,8.788912042209693,11.204652986902396,11.312499761581421,10.149181929114231,12.478546731753946,8.772786346069447,5.656002895291895,0.37263951933309436,8.771553940664928,10.524999618530273,6.255570114022443,8.788912042209693,11.204652986902396,11.312499761581421,10.149181929114231,12.478546731753946,8.772786346069447,5.656002895291895,0.37263951933309436,0,0,268.989514902965,471.134491873788,706.4322045987382,729.057204121901,860.996569200386,985.7820365179256,1231.42005420787,1271.012074474913,1271.012074474913,0,0,0.9462558125340661,0.9952826064565907,0.9896904786427816,0.9677500009536744,0.9258461548731878,1,0.5781785696744919,0.13749999744551522,0.008066668510437013,1,1,1,1,1,1,1,1,1,1,1,0.7704666757583618,0.9996666590372721,0.9462558125340661,0.9952826064565907,0.9896904786427816,0.9677500009536744,0.9258461548731878,1,0.5781785696744919,0.13749999744551522,0.018700000445048014,1,1,1,0.9999999999999999,0.9999999999999999,0.9999999999999999,1,1,1,0.9999999999999999,1,2019-05-14,2019-05-29,2019-06-01,2019-07-14,2019-08-06,2019-08-27,2019-08-29,2019-09-11,2019-09-21,2019-10-19,2019-10-26,2019-05-28,2019-05-31,2019-07-13,2019-08-05,2019-08-26,2019-08-28,2019-09-10,2019-09-20,2019-10-18,2019-10-25,2019-11-09,134,149,152,195,218,239,241,254,264,292,299,15,3,43,23,21,2,13,10,28,7,15,148,151,194,217,238,240,253,263,291,298,313
37,albany_mo,40.2384,-94.3433,2019,2019-06-08,4,16,early4,1250.468573801567,11,2019-05-25,2019-06-08,134,2019-10-20,2019-10-28,2019-11-11,Harvested at Maturity.,11.101333379745483,1.1725000143051147,4.1519444154368506,3.8690475963410877,6.710999965667725,28.13999938964844,2.2836364074186846,0.4577777650621202,8.002666576703389,2.088750034570694,0.49799999396006267,11.101333379745483,1.1725000143051147,4.1519444154368506,3.8690475963410877,6.710999965667725,28.13999938964844,2.2836364074186846,0.4577777650621202,8.002666576703389,2.088750034570694,0.49799999396006267,20.9015598932902,21.803569793701172,20.443464557329815,19.078675542558944,15.572993183135987,17.231430053710938,17.732738061384723,15.165682951609293,11.436227250099181,8.985330760478973,8.570994631449382,27.074000040690105,25.22499942779541,30.247222317589653,29.59476189386277,27.853500080108642,32.2400016784668,27.509090770374645,30.679999669392902,21.752666616439818,14.338749945163727,8.883333285649618,21.296666685740153,19.22374975681305,24.57319446404775,24.13119041352045,23.055999970436098,23.060000896453857,21.59227262843739,24.897221936119927,15.89049996336301,9.1393749602139,3.3706666640316447,15.519333330790202,13.222500085830688,18.899166610505844,18.66761893317813,18.25849986076355,13.880000114440918,15.675454486500133,19.11444420284695,10.028333310286204,3.9399999752640724,-2.141999957586328,11.180407933522861,9.22374975681305,7.372333960306784,9.69413639790681,11.924253681446281,12.204134207808968,11.45488670440262,14.09180710849232,8.384401768887068,5.262840978968889,0.3163375186971071,11.180407933522861,9.22374975681305,7.372333960306784,9.69413639790681,11.924253681446281,12.204134207808968,11.45488670440262,14.09180710849232,8.384401768887068,5.262840978968889,0.3163375186971071,0,0,265.4040225710442,468.9808869270873,707.4659605560131,719.670094763822,845.6738485122509,972.5001124886818,1224.0321655552934,1266.1348933870445,1266.1348933870445,0,0,0.9850555565622118,0.9910714331127348,0.9894250011444092,1,0.983045447956432,0.9994444476233588,0.5323500003417333,0.07962499260902405,0,1,1,1,1,1,1,1,1,1,1,1,0.9498666604359945,0.9124999761581422,0.9850555565622118,0.9910714331127348,0.9894250011444092,1,0.983045447956432,0.9994444476233588,0.5323500003417333,0.07962499260902405,0,1,1,1,1,1,1,1,1,0.9999999999999999,1,1,2019-05-25,2019-06-09,2019-06-13,2019-07-19,2019-08-09,2019-08-29,2019-08-30,2019-09-10,2019-09-19,2019-10-19,2019-10-27,2019-06-08,2019-06-12,2019-07-18,2019-08-08,2019-08-28,2019-08-29,2019-09-09,2019-09-18,2019-10-18,2019-10-26,2019-11-10,145,160,164,200,221,241,242,253,262,292,300,15,4,36,21,20,1,11,9,30,8,15,159,163,199,220,240,241,252,261,291,299,314
38,columbia_mo,38.8894,-92.2081,2019,2019-06-05,4,17,early4,1178.335045710836,11,2019-05-22,2019-06-05,118,2019-10-01,2019-10-05,2019-10-19,Harvested at Maturity.,3.754666699965795,0,4.098857150759016,2.15545455975966,3.1222222248713174,3.1700000762939453,10.720908858559348,4.658888922797309,2.5172222322887845,0.08250000327825546,3.1560000916322073,3.754666699965795,0,4.098857150759016,2.15545455975966,3.1222222248713174,3.1700000762939453,10.720908858559348,4.658888922797309,2.5172222322887845,0.08250000327825546,3.1560000916322073,20.13730583190918,20.691579818725586,19.944810594831193,20.126330982555043,18.65818707148234,9.033220291137695,14.241956320675937,16.63363446129693,14.049592004881966,11.927504301071167,13.225740114847818,28.208666610717774,29.005000114440918,28.855714307512557,30.47590923309326,31.049444304572212,27.020000457763672,26.078181873668324,29.897777345445423,29.442222277323406,28.86250066757202,19.062666575113933,22.420000012715658,24.019999980926514,23.80999994277954,24.960000124844637,25.546388732062447,23.850000381469727,21.525000052018598,24.19055536058214,23.826944404178196,23.955000281333923,12.363999923070272,16.63133341471354,19.03499984741211,18.764285578046525,19.444091016596015,20.04333315955268,20.68000030517578,16.971818230368875,18.483333375718857,18.211666531032986,19.047499895095825,5.665333271026611,12.322645343662103,14.019999980926514,7.565310091071288,9.884031282764102,13.188291890613902,13.840666608206943,11.47776037022634,13.746631119293637,13.120643970356715,13.537934014882147,3.378462230501473,12.322645343662103,14.019999980926514,7.565310091071288,9.884031282764102,13.188291890613902,13.840666608206943,11.47776037022634,13.746631119293637,13.120643970356715,13.537934014882147,3.378462230501473,0,0,264.7858531874951,482.2345414083054,719.6237954393555,733.4644620475624,859.7198261200522,983.4395061936948,1219.6110976601158,1273.7628337196445,1273.7628337196445,0,0,0.9791285719190325,1,1,1,0.9880000027743253,1,0.9891944408416748,0.928000009059906,0.03020000139872233,1,1,1,1,1,1,1,1,1,1,1,0.9988666693369548,1,0.9791285719190325,1,1,1,0.9880000027743253,1,0.9891944408416748,0.928000009059906,0.2887666630744934,1,1,1,0.9999999999999999,0.9999999999999999,0.9999999999999998,0.9999999999999999,0.9999999999999999,1,1,1,2019-05-22,2019-06-06,2019-06-08,2019-07-13,2019-08-04,2019-08-22,2019-08-23,2019-09-03,2019-09-12,2019-09-30,2019-10-04,2019-06-05,2019-06-07,2019-07-12,2019-08-03,2019-08-21,2019-08-22,2019-09-02,2019-09-11,2019-09-29,2019-10-03,2019-10-18,142,157,159,194,216,234,235,246,255,273,277,15,2,35,22,18,1,11,9,18,4,15,156,158,193,215,233,234,245,254,272,276,291
39,portagevilleclay_mo,36.3987,-88.6051,2019,2019-05-17,4,19,early4,1270.363200146115,11,2019-05-03,2019-05-17,115,2019-09-09,2019-09-12,2019-09-26,Harvested at Maturity.,2.785333267847697,7.576666355133057,3.145666672786077,6.238095249448504,4.687727212905884,0,0.7619999885559082,1.1688888867696128,3.3617647395414463,0,0.49399998982747395,2.785333267847697,7.576666355133057,3.145666672786077,6.238095249448504,4.687727212905884,0,0.7619999885559082,1.1688888867696128,3.3617647395414463,0,0.49399998982747395,16.828679911295573,18.05164623260498,19.480501000086466,18.541286377679736,18.752486142245207,23.80007553100586,19.887918281555176,19.250587463378906,17.11723226659438,18.380530039469402,16.340546290079754,23.348666763305665,28.913333257039387,29.24966672261556,31.715237935384113,30.329091158780184,30.940000534057617,31.359000396728515,33.567777421739365,30.554706012501438,31.579999923706055,32.82800013224284,18.201333411534627,23.143333276112873,23.791166702906292,26.26690469469343,25.274545604532413,24.300000190734863,25.782500171661376,27.09333324432373,24.373235365923712,24.453333218892418,25.54133342107137,13.05400005976359,17.37333329518636,18.332666683197022,20.818571454002743,20.220000050284646,17.65999984741211,20.20599994659424,20.618889066908096,18.19176471934599,17.326666514078774,18.2546667098999,8.240011726037064,13.111086853714784,8.836089923704204,9.658953953892606,10.859734511914212,11.709093581013423,13.257043907964698,14.243024039524181,13.906004852143807,13.378486534627278,12.559571828420161,8.240011726037064,13.111086853714784,8.836089923704204,9.658953953892606,10.859734511914212,11.709093581013423,13.257043907964698,14.243024039524181,13.906004852143807,13.378486534627278,12.559571828420161,0,0,265.08269771112606,467.9207307428708,706.8348900049835,718.543983585997,851.1144226656439,979.3016390213616,1215.7037215078064,1255.8391811116885,1255.8391811116885,0,0,0.9895833365122477,1,1,1,1,1,1,1,0.06666666666666667,1,1,1,1,1,1,1,1,1,1,1,0.754300004641215,1,0.9895833365122477,1,1,1,1,1,1,1,1,1,1,1,1,1,0.9999999999999998,1,1,1,1,1,2019-05-03,2019-05-18,2019-05-21,2019-06-20,2019-07-11,2019-08-02,2019-08-03,2019-08-13,2019-08-22,2019-09-08,2019-09-11,2019-05-17,2019-05-20,2019-06-19,2019-07-10,2019-08-01,2019-08-02,2019-08-12,2019-08-21,2019-09-07,2019-09-10,2019-09-25,123,138,141,171,192,214,215,225,234,251,254,15,3,30,21,22,1,10,9,17,3,15,137,140,170,191,213,214,224,233,250,253,268
40,portagevilleloam_mo,36.39516667,-89.6102,2019,2019-05-15,4,20,early4,1230.538985475695,11,2019-05-01,2019-05-15,114,2019-09-06,2019-09-09,2019-09-23,Harvested at Maturity.,5.4759999990463255,0,5.44833344022433,5.6345454454422,7.26818188753995,0,1.8429999828338623,0,5.3517647350535675,0,0,5.4759999990463255,0,5.44833344022433,5.6345454454422,7.26818188753995,0,1.8429999828338623,0,5.3517647350535675,0,0,15.138185437520345,25.048545837402344,20.020119762420656,18.521626949310303,18.047663775357332,21.97391700744629,19.44453868865967,20.038025379180908,16.937669473535873,18.598904291788735,17.159935569763185,22.369333267211914,30.68000030517578,29.416666539510093,31.519545468417082,30.80909078771418,30.40999984741211,31.032000160217287,32.916250705718994,30.99294090270996,31.220000584920246,33.34133326212565,18.04066670735677,23.514999866485596,23.876333236694336,26.34159092469649,25.945909023284912,24.875,25.673000144958497,27.146875381469727,25.251764634076288,24.741666793823242,26.31999994913737,13.712000147501628,16.34999942779541,18.335999933878583,21.1636363809759,21.08272725885565,19.34000015258789,20.314000129699707,21.37750005722046,19.51058836544261,18.263333002726238,19.29866663614909,8.05523604193131,13.38617688550353,9.029200763574295,9.683618580799957,10.869711102194682,12.072807461563782,13.025716877000102,14.448629978067945,14.362722261276982,14.13049398510456,13.241364287017982,8.05523604193131,13.38617688550353,9.029200763574295,9.683618580799957,10.869711102194682,12.072807461563782,13.025716877000102,14.448629978067945,14.362722261276982,14.13049398510456,13.241364287017982,0,0,270.8760229072288,483.9156316848278,723.049275933111,735.1220833946747,865.3792521646759,980.9682919892192,1225.134570430928,1267.5260523862416,1267.5260523862416,0,0,0.9976666657129923,1,1,1,1,1,1,1,0.06666666666666667,1,1,1,1,1,1,1,1,1,1,1,0.7615666739145914,1,0.9976666657129923,1,1,1,1,1,1,1,1,1,1,0.9999999999999999,1,0.9999999999999999,1,0.9999999999999999,0.9999999999999999,1,1,1,2019-05-01,2019-05-16,2019-05-18,2019-06-17,2019-07-09,2019-07-31,2019-08-01,2019-08-11,2019-08-19,2019-09-05,2019-09-08,2019-05-15,2019-05-17,2019-06-16,2019-07-08,2019-07-30,2019-07-31,2019-08-10,2019-08-18,2019-09-04,2019-09-07,2019-09-22,121,136,138,168,190,212,213,223,231,248,251,15,2,30,22,22,1,10,8,17,3,15,135,137,167,189,211,212,222,230,247,250,265
41,crookston_mn,47.805,-96.61426667,2018,2018-05-24,0,21,early0,873.3438933638424,11,2018-05-10,2018-05-24,105,2018-09-06,2018-09-16,2018-09-30,Harvested at Maturity.,1.0039999961853028,0.8499999841054281,4.630909049149715,2.003809534368061,0.37227270819924096,0,4.465000152587891,1.3528571810041154,1.831000065803528,1.8929999589920046,2.9933333873748778,1.0039999961853028,0.8499999841054281,4.630909049149715,2.003809534368061,0.37227270819924096,0,4.465000152587891,1.3528571810041154,1.831000065803528,1.8929999589920046,2.9933333873748778,22.51918888092041,21.313199361165363,20.033212141557172,20.56837694985526,21.64162878556685,20.73254776000977,19.147870540618896,15.451606750488281,14.098362159729005,13.976850318908692,11.391689332326253,23.472666613260905,31.486665725708008,27.038484977953363,28.000952311924525,27.566363681446422,34.650001525878906,28.244999885559082,25.814285823277064,23.611000061035156,24.00099983215332,15.748666636149089,15.201999990145366,23.32499965031942,20.627727378498424,21.728809424809047,20.20886370268735,26.13000106811523,20.111666560173035,19.193571499415807,17.247000050544738,17.08999991416931,10.330333316326142,6.931333367029826,15.163333574930826,14.216969779043486,15.456666537693568,12.851363723928278,17.610000610351563,11.978333234786987,12.572857175554548,10.883000040054322,10.178999996185302,4.911999996503194,6.2170688581433895,12.475059321459135,7.912586039149105,9.074462536115966,9.245353170820467,13.111286970376968,10.809180653814972,9.704509885672161,8.370696202350556,8.409643868792058,1.9222052696290612,6.2170688581433895,12.475059321459135,7.912586039149105,9.074462536115966,9.245353170820467,13.111286970376968,10.809180653814972,9.704509885672161,8.370696202350556,8.409643868792058,1.9222052696290612,0,0,261.11533929192046,451.6790525503558,655.0768223084059,668.1881092787829,733.0431932016728,800.9747624013778,884.6817244248833,968.778163112804,968.778163112804,0,0,0.9212272745190245,0.9766666616712297,0.902045459097082,1,0.9138333280881246,0.9002143042428153,0.7169000029563904,0.6947999906539918,0.053933334350585935,1,1,1,1,1,1,1,1,1,1,1,0.5127333354949951,1,0.9212272745190245,0.9766666616712297,0.902045459097082,1,0.9138333280881246,0.9002143042428153,0.7169000029563904,0.6947999906539918,0.1659666617711385,1,1,1,1,1,1,0.9999999999999999,0.9999999999999999,1,0.9999999999999999,1,2018-05-10,2018-05-25,2018-05-28,2018-06-30,2018-07-21,2018-08-12,2018-08-13,2018-08-19,2018-08-26,2018-09-05,2018-09-15,2018-05-24,2018-05-27,2018-06-29,2018-07-20,2018-08-11,2018-08-12,2018-08-18,2018-08-25,2018-09-04,2018-09-14,2018-09-29,130,145,148,181,202,224,225,231,238,248,258,15,3,33,21,22,1,6,7,10,10,15,144,147,180,201,223,224,230,237,247,257,272
42,shelly_mn,47.4264,-96.8317,2018,2018-05-25,0,9,early0,814.8449095838814,11,2018-05-11,2018-05-25,103,2018-09-05,2018-09-15,2018-09-29,Harvested at Maturity.,0.5726666529973348,1.9233333269755046,3.219374990090728,1.8714999854564667,0.7682608754738517,NA,0,7.964285509926932,3.189999967813492,1.212999951839447,3.706000037988027,0.5726666529973348,1.9233333269755046,3.219374990090728,1.8714999854564667,0.7682608754738517,NA,0,7.964285509926932,3.189999967813492,1.212999951839447,3.706000037988027,23.2352544148763,19.986854553222656,19.84406527876854,21.196468782424926,21.61314408675484,NA,20.114409923553467,14.769550255366735,14.12363986968994,15.153715801239013,11.624421374003092,25.196666717529297,30.773333231608074,27.234374821186066,28.332999897003173,27.535217451012652,NA,29.078333218892414,25.695714133126394,23.682999992370604,24.788999938964842,17.421999740600587,16.74133335351944,23.220000108083088,20.853593662381172,22.00074999332428,20.32913043188012,NA,21.138333320617676,19.04357133592878,17.448000073432922,17.768999934196472,11.837666524449984,8.285999989509582,15.666666984558105,14.472812503576279,15.668500089645386,13.12304341274759,NA,13.198333422342937,12.391428538731166,11.213000154495239,10.7489999294281,6.253333308299383,7.20534854064385,12.667255305381616,8.154380334661509,9.33816901920563,9.392295852167937,NA,11.342495313517253,9.556173040853228,8.484863095897436,8.839199033973218,2.7647362040009105,7.20534854064385,12.667255305381616,8.154380334661509,9.33816901920563,9.392295852167937,NA,11.342495313517253,9.556173040853228,8.484863095897436,8.839199033973218,2.7647362040009105,0,0,260.94017070916823,447.70355109328096,663.7263556931435,NA,731.781327574247,798.6745388602196,883.5231698191941,971.915160158926,971.915160158926,0,0,0.9368906289339066,0.9827750015258789,0.9171304319215857,NA,0.9245000044504802,0.8888571398598808,0.7315500044822694,0.7555499911308289,0.04503333409627279,1,1,1,1,1,NA,1,1,1,1,1,0.60503333568573,1,0.9368906289339066,0.9827750015258789,0.9171304319215857,NA,0.9245000044504802,0.8888571398598808,0.7315500044822694,0.7555499911308289,0.2372666597366333,1,1,1,1,1,NA,1,1,1,0.9999999999999999,1,2018-05-11,2018-05-26,2018-05-29,2018-06-30,2018-07-20,NA,2018-08-12,2018-08-18,2018-08-25,2018-09-04,2018-09-14,2018-05-25,2018-05-28,2018-06-29,2018-07-19,2018-08-11,NA,2018-08-17,2018-08-24,2018-09-03,2018-09-13,2018-09-28,131,146,149,181,201,NA,224,230,237,247,257,15,3,32,20,23,0,6,7,10,10,15,145,148,180,200,223,NA,229,236,246,256,271
43,wanatah_in,41.4444,-86.9437,2018,2018-05-26,1,10,early1,744.2893761969998,11,2018-05-12,2018-05-26,93,2018-08-27,2018-09-03,2018-09-17,Harvested at Maturity.,3.51333335240682,0,3.5154837946737967,2.1876470972509945,2.1284210179981433,NA,9.538333455721537,0,5.384545575488698,1.8928571598870414,2.961333401997884,3.51333335240682,0,3.5154837946737967,2.1876470972509945,2.1284210179981433,NA,9.538333455721537,0,5.384545575488698,1.8928571598870414,2.961333401997884,19.346208572387695,24.64130401611328,18.721355515141642,21.790616203756894,19.44242909080104,NA,16.64079777399699,20.400843811035156,15.511578213084828,15.471557072230748,14.622389793395996,23.804666582743327,35.18499946594238,27.1219355675482,30.49647039525649,27.081052880538138,NA,30.53333282470703,29.524000549316405,26.605454531582918,29.555714470999582,26.775333404541016,17.67566665013631,27.072499752044678,21.85999999507781,24.41882343853221,21.772105367560137,NA,24.69499969482422,23.64200038909912,21.767272559079256,23.877857208251953,21.3943333307902,11.546666717529297,18.960000038146973,16.598064422607422,18.341176481807935,16.463157854582136,NA,18.856666564941406,17.760000228881836,16.929090586575594,18.199999945504324,16.01333325703939,7.642740523427725,13.346090122312308,9.287673173441577,11.341002737197933,10.707908297674305,NA,13.91947073272986,13.634052283918857,11.835799442019246,13.241294224100454,9.919228769232433,7.642740523427725,13.346090122312308,9.287673173441577,11.341002737197933,10.707908297674305,NA,13.91947073272986,13.634052283918857,11.835799442019246,13.241294224100454,9.919228769232433,0,0,287.91786837668894,480.7149149090537,684.1651725648655,NA,767.6819969612446,835.852258380839,966.0460522430508,1058.7351118117538,1058.7351118117538,0,0,0.9635161307550246,0.9976764735053567,0.9862368433099045,NA,1,1,0.9748636419122869,0.9756428514208112,0.06666666666666667,1,1,1,1,1,NA,1,1,1,1,1,0.7023999977111817,1,0.9635161307550246,0.9976764735053567,0.9862368433099045,NA,1,1,0.9748636419122869,0.9756428514208112,0.8986666742960612,1,1,1,1,1,NA,1,1,0.9999999999999999,1,1,2018-05-12,2018-05-27,2018-05-29,2018-06-29,2018-07-16,NA,2018-08-04,2018-08-10,2018-08-15,2018-08-26,2018-09-02,2018-05-26,2018-05-28,2018-06-28,2018-07-15,2018-08-03,NA,2018-08-09,2018-08-14,2018-08-25,2018-09-01,2018-09-16,132,147,149,180,197,NA,216,222,227,238,245,15,2,31,17,19,0,6,5,11,7,15,146,148,179,196,215,NA,221,226,237,244,259
44,lafayette_in,40.399,-86.8592,2018,2018-05-28,1,1,early1,777.9773950495995,11,2018-05-14,2018-05-28,88,2018-08-24,2018-08-31,2018-09-14,Harvested at Maturity.,2.7806666612625124,18.190000534057617,5.94250008889607,3.4176470111398136,1.661666711171468,9.579999923706056,6.038000202178955,0.446666677792867,7.654444456100464,3.1828572068895613,4.20400005976359,2.7806666612625124,18.190000534057617,5.94250008889607,3.4176470111398136,1.661666711171468,9.579999923706056,6.038000202178955,0.446666677792867,7.654444456100464,3.1828572068895613,4.20400005976359,19.7248743057251,15.00075387954712,17.786016208784922,22.36761132408591,19.19394652048747,17.338043212890625,18.269705963134765,19.425251960754395,14.681305673387316,15.828241756984166,15.424256817499797,28.378000005086264,30.905000686645508,28.058928625924246,30.32941156275132,26.997222158643936,28.84000015258789,30.706000137329102,29.271666526794434,27.33222198486328,28.56571442740304,27.140666707356772,21.818333371480307,25.96000051498413,22.728392839431763,24.269411704119513,21.628888818952774,22.139999866485596,24.881999969482422,23.43416666984558,22.767222192552353,23.269285951341903,21.770999972025553,15.25866673787435,21.015000343322754,17.39785705293928,18.209411845487708,16.260555479261612,15.4399995803833,19.05799980163574,17.59666681289673,18.20222240024143,17.97285747528076,16.401333236694335,11.229913040309748,15.028862987458705,10.261865812754133,11.600707704457403,10.651119508065369,11.91139868026397,14.442894980126562,13.434166669845583,12.767222192552355,12.955854881279809,10.542430765576363,11.229913040309748,15.028862987458705,10.261865812754133,11.600707704457403,10.651119508065369,11.91139868026397,14.442894980126562,13.434166669845583,12.767222192552355,12.955854881279809,10.542430765576363,0,0,287.33224275711564,484.5442737328916,676.2644248780682,688.1758235583321,760.3902984589649,840.9952984780384,955.9002982110096,1046.5912823799683,1046.5912823799683,0,0,0.9870714323861258,0.9951764723833869,0.9668055560853747,1,1,1,1,0.9589285714285715,0.06666666666666667,1,1,1,1,1,1,1,1,1,1,1,0.9839000002543131,1,0.9870714323861258,0.9951764723833869,0.9668055560853747,1,1,1,1,0.9589285714285715,0.9062999979654948,1,1,1,0.9999999999999999,1,1,0.9999999999999999,1,0.9999999999999999,1,1,2018-05-14,2018-05-29,2018-05-31,2018-06-28,2018-07-15,2018-08-02,2018-08-03,2018-08-08,2018-08-14,2018-08-23,2018-08-30,2018-05-28,2018-05-30,2018-06-27,2018-07-14,2018-08-01,2018-08-02,2018-08-07,2018-08-13,2018-08-22,2018-08-29,2018-09-13,134,149,151,179,196,214,215,220,226,235,242,15,2,28,17,18,1,5,6,9,7,15,148,150,178,195,213,214,219,225,234,241,256
45,eastlansing_mi,42.6296,-84.4375,2018,2018-06-08,1,6,early1,698.7824595812828,11,2018-05-25,2018-06-08,97,2018-09-13,2018-09-21,2018-10-05,Harvested at Maturity.,2.3279999256134034,4.662499904632568,1.3032258133734427,0.9394736760541013,3.0913333098093667,3.690000057220459,2.60285712991442,3.224999984105428,3.1283333698908486,1.46875,6.454666717847188,2.3279999256134034,4.662499904632568,1.3032258133734427,0.9394736760541013,3.0913333098093667,3.690000057220459,2.60285712991442,3.224999984105428,3.1283333698908486,1.46875,6.454666717847188,20.429185803731283,16.804301500320435,21.727112247097878,19.584535950108577,18.621811389923096,8.816065788269043,16.530654089791433,15.228854338328043,14.033260027567545,16.57860815525055,12.492493565877279,27.240666580200195,22.80750036239624,28.640322531423262,27.251052956832083,29.25266710917155,25.90999984741211,25.964285714285715,27.72333304087321,25.11833318074544,27.705000400543213,20.182000414530435,20.898999961217246,18.58875000476837,22.314838670915172,21.490526475404437,23.18900022506714,22.760000228881836,20.657857145581925,22.530833085378013,20.167083263397217,20.959375202655792,14.790666882197062,14.557333342234294,14.369999647140503,15.989354810407084,15.729999993976794,17.12533334096273,19.610000610351563,15.351428576878138,17.338333129882813,15.21583334604899,14.213750004768372,9.399333349863689,10.595248068267903,8.588750004768372,9.210292257177063,9.97558818102218,12.801079798568656,12.760000228881836,10.804703432897158,12.570651364662249,10.510310868215065,11.209370296513288,4.520419601822694,10.595248068267903,8.588750004768372,9.210292257177063,9.97558818102218,12.801079798568656,12.760000228881836,10.804703432897158,12.570651364662249,10.510310868215065,11.209370296513288,4.520419601822694,0,0,285.5190599724889,475.0552354119103,667.0714323904402,679.8314326193221,755.4643566496021,830.8882648375755,957.0119952561564,1046.6869576282627,1046.6869576282627,0,0,0.969548386912192,0.9903421075720537,1,1,0.9514285700661795,0.9521666685740153,0.8154166618982951,0.9463125109672547,0.06666666666666667,1,1,1,1,1,1,1,1,1,1,1,0.867633334795634,0.8588750004768372,0.969548386912192,0.9903421075720537,1,1,0.9514285700661795,0.9521666685740153,0.8154166618982951,0.9463125109672547,0.47363335132598877,1,1,0.9999999999999999,1,0.9999999999999999,1,1,1,0.9999999999999999,1,1,2018-05-25,2018-06-09,2018-06-13,2018-07-14,2018-08-02,2018-08-17,2018-08-18,2018-08-25,2018-08-31,2018-09-12,2018-09-20,2018-06-08,2018-06-12,2018-07-13,2018-08-01,2018-08-16,2018-08-17,2018-08-24,2018-08-30,2018-09-11,2018-09-19,2018-10-04,145,160,164,195,214,229,230,237,243,255,263,15,4,31,19,15,1,7,6,12,8,15,159,163,194,213,228,229,236,242,254,262,277
46,morris_mn,45.3552,-95.5436,2018,2018-05-14,1,3,early1,992.1111010813624,11,2018-04-30,2018-05-14,109,2018-08-31,2018-09-10,2018-09-24,Harvested at Maturity.,1.8633333524068196,0,3.88000001758337,5.197368421052632,5.194090965796601,0,0.4933333396911621,0,7.3616666197776794,4.2749999284744264,1.7580000082651772,1.8633333524068196,0,3.88000001758337,5.197368421052632,5.194090965796601,0,0.4933333396911621,0,7.3616666197776794,4.2749999284744264,1.7580000082651772,21.960013580322265,25.119828542073567,18.837180777599936,19.457870884945518,20.482525435360994,17.46807098388672,19.86511961619059,18.013956705729168,14.964679797490437,15.263640069961548,13.392982705434163,22.35199972788493,28.77666727701823,26.912894750896253,29.234736894306383,26.68545454198664,27.979999542236328,29.179999987284344,28.609999656677246,24.994999885559082,24.689999961853026,24.54533322652181,14.7183331489563,19.901666800181072,20.85210529126619,23.607105255126953,20.62977274981412,23.09000015258789,22.709166765213013,23.009999752044678,19.699166556199394,18.92150001525879,18.819000053405762,7.084666570027669,11.026666323343912,14.791315831636128,17.979473615947523,14.574090957641602,18.200000762939453,16.23833354314168,17.40999984741211,14.4033332268397,13.15300006866455,13.092666880289713,5.491392849858602,9.845193940595786,7.71700213120075,9.687171557044342,8.897676413457381,12.161906035347462,12.128508204538042,12.824830381088256,10.061414102553824,9.48734367832005,8.256855630785426,5.491392849858602,9.845193940595786,7.71700213120075,9.687171557044342,8.897676413457381,12.161906035347462,12.128508204538042,12.824830381088256,10.061414102553824,9.48734367832005,8.256855630785426,0,0,293.24608098562845,477.30234056947086,673.051221665533,685.2131277008805,757.9841769281088,834.9331592146384,955.6701284452844,1050.5435652284848,1050.5435652284848,0,0,0.9195789475190013,1,0.9445909109982578,1,1,1,0.8815833350022634,0.8575500011444092,0.04886666933695475,1,1,1,1,1,1,1,1,1,1,1,0.4766333142916362,0.9269999980926514,0.9195789475190013,1,0.9445909109982578,1,1,1,0.8815833350022634,0.8575500011444092,0.7306666723887126,1,1,1,1,0.9999999999999999,1,1,1,0.9999999999999999,0.9999999999999999,1,2018-04-30,2018-05-15,2018-05-18,2018-06-25,2018-07-14,2018-08-05,2018-08-06,2018-08-12,2018-08-18,2018-08-30,2018-09-09,2018-05-14,2018-05-17,2018-06-24,2018-07-13,2018-08-04,2018-08-05,2018-08-11,2018-08-17,2018-08-29,2018-09-08,2018-09-23,120,135,138,176,195,217,218,224,230,242,252,15,3,38,19,22,1,6,6,12,10,15,134,137,175,194,216,217,223,229,241,251,266
47,rosemount_mn,44.707,-93.101,2018,2018-05-20,1,2,early1,894.7854205885142,11,2018-05-06,2018-05-20,104,2018-09-01,2018-09-09,2018-09-23,Harvested at Maturity.,2.2166667183240256,6.139999866485596,5.101764616720817,5.435555474625693,2.4347619130497886,0,0.703333298365275,1.5260000228881836,2.9630769216097317,7.5375001430511475,6.333999983469645,2.2166667183240256,6.139999866485596,5.101764616720817,5.435555474625693,2.4347619130497886,0,0.703333298365275,1.5260000228881836,2.9630769216097317,7.5375001430511475,6.333999983469645,18.855139700571694,20.47067880630493,18.13713793193593,20.9319503042433,20.00540828704834,18.460216522216797,20.050058841705322,17.303981971740722,15.078806400299072,12.742874920368195,13.469570016860962,21.825333086649575,25.942500114440918,26.85000010097728,29.625555674235027,26.33333324250721,27.469999313354492,29.40666675567627,29.781999588012695,24.840000005868767,24.955000638961792,24.781333287556965,15.842666514714558,19.536250114440918,21.73882362421821,24.221111165152656,20.846190452575684,22.579999923706055,23.16416652997335,24.326999855041503,19.85884611423199,20.51625031232834,19.49866663614909,9.859999942779542,13.130000114440918,16.627647147459143,18.816666656070286,15.359047662644159,17.690000534057617,16.921666304270428,18.87200012207031,14.877692222595215,16.077499985694885,14.215999984741211,6.153514318009416,9.296971014863253,8.339507506950158,10.37060007731297,9.357117749873067,11.924283457261131,12.886407973773665,14.159986110835076,10.110816229695082,10.82816460217461,8.961866654713551,6.153514318009416,9.296971014863253,8.339507506950158,10.37060007731297,9.357117749873067,11.924283457261131,12.886407973773665,14.159986110835076,10.110816229695082,10.82816460217461,8.961866654713551,0,0,283.5432552363054,470.2140566279389,666.7135293752733,678.6378128325345,755.9562606751765,826.7561912293519,958.1968022153878,1044.8221190327847,1044.8221190327847,0,0,0.9692794112598195,1,0.9650476137797038,1,1,1,0.8906923037308914,0.9096875190734863,0.04559999783833822,1,1,1,1,1,1,1,1,1,1,1,0.5831999905904134,0.8087499856948853,0.9692794112598195,1,0.9650476137797038,1,1,1,0.8906923037308914,0.9096875190734863,0.7868999989827474,1,1,1,1,1,1,0.9999999999999999,0.9999999999999998,0.9999999999999999,1,1,2018-05-06,2018-05-21,2018-05-25,2018-06-28,2018-07-16,2018-08-06,2018-08-07,2018-08-13,2018-08-18,2018-08-31,2018-09-08,2018-05-20,2018-05-24,2018-06-27,2018-07-15,2018-08-05,2018-08-06,2018-08-12,2018-08-17,2018-08-30,2018-09-07,2018-09-22,126,141,145,179,197,218,219,225,230,243,251,15,4,34,18,21,1,6,5,13,8,15,140,144,178,196,217,218,224,229,242,250,265
48,pontiac_il,40.82216667,-88.62016667,2018,2018-05-09,2,4,early2,1048.0317893934014,11,2018-04-25,2018-05-09,104,2018-08-21,2018-08-28,2018-09-11,Harvested at Maturity.,1.0293333292007447,3.2200000286102295,5.358571529388428,4.808750122785568,1.461111134952969,0,0,0.4800000105585371,1.1766666571299236,2.2328571592058455,6.187333424886067,1.0293333292007447,3.2200000286102295,5.358571529388428,4.808750122785568,1.461111134952969,0,0,0.4800000105585371,1.1766666571299236,2.2328571592058455,6.187333424886067,22.58030637105306,18.660655736923218,19.694316114698136,18.505344688892365,20.896297136942547,21.481992721557617,21.244406700134277,20.44648974282401,19.628619352976482,16.350458417619976,13.84880329767863,23.97066650390625,24.869999885559082,29.041071551186697,29.21624994277954,29.13666672176785,27.170000076293945,26.458750247955322,30.187142780848912,29.956666628519695,27.177143369402206,27.90533332824707,15.736333285768827,18.256250023841858,22.12500008514949,24.1506249109904,23.356388913260567,21.65499973297119,20.85437512397766,23.926428590502056,23.858750184377033,21.568571635654994,22.898666667938233,7.502000067631403,11.642500162124634,15.208928619112287,19.084999879201252,17.57611110475328,16.139999389648438,15.25,17.665714400155203,17.760833740234375,15.959999901907784,17.892000007629395,6.829669172269801,8.25625002384186,9.105936886310847,9.758046343142945,10.317022919986151,9.754210621025363,9.45425404640508,12.522963332444107,13.661793018718306,11.492748200389316,11.238020965619087,6.829669172269801,8.25625002384186,9.105936886310847,9.758046343142945,10.317022919986151,9.754210621025363,9.45425404640508,12.522963332444107,13.661793018718306,11.492748200389316,11.238020965619087,0,0,254.96623281670375,489.1593450521345,674.8657576118852,684.6199682329105,760.254000604151,847.9147439312596,1011.8562601558792,1092.3054975586049,1092.3054975586049,0,0,0.9765000036784581,0.9963958303133646,0.9988333331214057,1,0.9764374911785126,1,1,0.9564999989100865,0.06666666666666667,1,1,1,1,1,1,1,1,1,1,1,0.5807999970515569,0.8134999990463256,0.9765000036784581,0.9963958303133646,0.9988333331214057,1,0.9764374911785126,1,1,0.9564999989100865,0.9452666695912679,1,1,1,1,0.9999999999999999,1,1,0.9999999999999999,1,0.9999999999999999,1,2018-04-25,2018-05-10,2018-05-14,2018-06-11,2018-07-05,2018-07-23,2018-07-24,2018-08-01,2018-08-08,2018-08-20,2018-08-27,2018-05-09,2018-05-13,2018-06-10,2018-07-04,2018-07-22,2018-07-23,2018-07-31,2018-08-07,2018-08-19,2018-08-26,2018-09-10,115,130,134,162,186,204,205,213,220,232,239,15,4,28,24,18,1,8,7,12,7,15,129,133,161,185,203,204,212,219,231,238,253
49,urbana_il,40.05325,-88.23485,2018,2018-05-08,2,5,early2,952.4074946903756,11,2018-04-24,2018-05-08,100,2018-08-16,2018-08-22,2018-09-05,Harvested at Maturity.,0.9673333088556925,11.206666310628256,2.7200000381469724,7.989583457509677,4.541874907910824,0,1.769999951124191,2.3137499541044235,0.11769230549152081,14.343333125114441,1.0913333495457966,0.9673333088556925,11.206666310628256,2.7200000381469724,7.989583457509677,4.541874907910824,0,1.769999951124191,2.3137499541044235,0.11769230549152081,14.343333125114441,1.0913333495457966,22.8994140625,20.779858907063804,19.675970344543458,17.868708968162537,21.167781829833984,19.858354568481445,20.02155029773712,19.510313272476196,21.156806799081654,14.15974791844686,17.141178131103516,23.044666481018066,28.490000406901043,29.395199966430663,29.013749917348225,30.48562514781952,30.940000534057617,27.788749933242798,25.417500257492065,30.133846282958984,28.40833346048991,29.340666834513346,15.348999838034311,21.011666774749756,22.95839998245239,23.835000038146973,24.80812504887581,26.105000495910645,22.577499866485596,20.442500174045563,24.10038445546077,23.847500324249268,23.814666906992596,7.653333195050558,13.533333142598469,16.52159999847412,18.65625015894572,19.1306249499321,21.270000457763672,17.366249799728394,15.46750009059906,18.06692262796255,19.286667188008625,18.28866697947184,6.314693618109226,11.011666774749756,10.183081917705644,9.927566350620221,10.952178249029373,12.820167857893065,10.51813492304083,9.306070962920712,13.496128241189329,13.847500324249268,12.349342183374564,6.314693618109226,11.011666774749756,10.183081917705644,9.927566350620221,10.952178249029373,12.820167857893065,10.51813492304083,9.306070962920712,13.496128241189329,13.847500324249268,12.349342183374564,0,0,254.5770479426411,492.83864035752646,668.0734923419964,680.8936601998894,765.0387395842159,839.4873072875816,1014.9369744230432,1098.0219763685386,1098.0219763685386,0,0,0.9965200023651123,1,1,1,1,0.9724999964237213,1,1,0.06666666666666667,1,1,1,1,1,1,1,1,1,1,1,0.5365999925136566,1,0.9965200023651123,1,1,1,1,0.9724999964237213,1,1,0.9850333340962728,1,1,1,1,1,0.9999999999999998,1,1,1,0.9999999999999999,1,2018-04-24,2018-05-09,2018-05-12,2018-06-06,2018-06-30,2018-07-16,2018-07-17,2018-07-25,2018-08-02,2018-08-15,2018-08-21,2018-05-08,2018-05-11,2018-06-05,2018-06-29,2018-07-15,2018-07-16,2018-07-24,2018-08-01,2018-08-14,2018-08-20,2018-09-04,114,129,132,157,181,197,198,206,214,227,233,15,3,25,24,16,1,8,8,13,6,15,128,131,156,180,196,197,205,213,226,232,247
50,wanatah_in,41.4444,-86.9437,2018,2018-05-26,2,10,early2,878.3571046764027,11,2018-05-12,2018-05-26,102,2018-09-05,2018-09-14,2018-09-28,Harvested at Maturity.,3.51333335240682,0,3.5154837946737967,2.710833345850309,1.972352939493516,NA,6.045000076293945,7.515714509146554,2.2530769201425405,3.8888889948527017,2.355999978383382,3.51333335240682,0,3.5154837946737967,2.710833345850309,1.972352939493516,NA,6.045000076293945,7.515714509146554,2.2530769201425405,3.8888889948527017,2.355999978383382,19.346208572387695,24.64130401611328,18.721355515141642,20.911035497983296,18.86264554192038,NA,19.860967953999836,14.142011369977677,16.061212613032414,13.225149260626898,15.251139195760091,23.804666582743327,35.18499946594238,27.1219355675482,29.68708324432373,27.796470642089844,NA,29.795000394185383,27.419999803815568,28.602307833158054,24.84000015258789,26.3326665242513,17.67566665013631,27.072499752044678,21.85999999507781,23.894583264986675,22.321764749639176,NA,23.705000241597492,23.010713985988072,22.970769258645866,20.160555574629043,20.019333267211913,11.546666717529297,18.960000038146973,16.598064422607422,18.102083285649616,16.847058857188504,NA,17.6150000890096,18.601428168160574,17.339230684133675,15.481110996670193,13.706000010172525,7.642740523427725,13.346090122312308,8.233443141303901,10.087420840059652,10.758517858199438,NA,13.432147753836908,13.010713985988072,12.51925045537215,10.03405202402605,9.239502984138927,7.642740523427725,13.346090122312308,8.233443141303901,10.087420840059652,10.758517858199438,NA,13.432147753836908,13.010713985988072,12.51925045537215,10.03405202402605,9.239502984138927,0,0,255.23673738042103,497.33483754185266,680.2296411312429,NA,760.8225276542645,851.897525556181,1014.647781476019,1104.9542496922534,1104.9542496922534,0,0,0.9635161307550246,0.998354168732961,0.9846176484051873,NA,1,1,0.965615386229295,0.8441666762034099,0.058833335240681975,1,1,1,1,1,NA,1,1,1,1,1,0.7023999977111817,1,0.9635161307550246,0.998354168732961,0.9846176484051873,NA,1,1,0.965615386229295,0.8441666762034099,0.8245000044504801,1,1,1,1,0.9999999999999999,NA,0.9999999999999999,1,1,1,1,2018-05-12,2018-05-27,2018-05-29,2018-06-29,2018-07-23,NA,2018-08-09,2018-08-15,2018-08-22,2018-09-04,2018-09-13,2018-05-26,2018-05-28,2018-06-28,2018-07-22,2018-08-08,NA,2018-08-14,2018-08-21,2018-09-03,2018-09-12,2018-09-27,132,147,149,180,204,NA,221,227,234,247,256,15,2,31,24,17,0,6,7,13,9,15,146,148,179,203,220,NA,226,233,246,255,270
51,lafayette_in,40.399,-86.8592,2018,2018-05-28,2,1,early2,839.0485435850009,11,2018-05-14,2018-05-28,98,2018-09-03,2018-09-10,2018-09-24,Harvested at Maturity.,2.7806666612625124,18.190000534057617,5.94250008889607,2.6717390910438867,3.5447059799643124,NA,1.4583333730697632,5.519999912806919,4.040769320267898,8.752857276371547,0.6140000025431315,2.7806666612625124,18.190000534057617,5.94250008889607,2.6717390910438867,3.5447059799643124,NA,1.4583333730697632,5.519999912806919,4.040769320267898,8.752857276371547,0.6140000025431315,19.7248743057251,15.00075387954712,17.786016208784922,22.42185588504957,17.95967399372774,NA,17.956366380055744,16.220697130475727,16.192572667048527,12.450990915298462,16.094256782531737,28.378000005086264,30.905000686645508,28.058928625924246,30.18260856296705,27.111764683442956,NA,29.099999745686848,28.148571286882675,28.113846265352688,28.70571436200823,27.543333307902017,21.818333371480307,25.96000051498413,22.728392839431763,24.05043473451034,21.8411763976602,NA,23.59416667620341,23.159285681588308,22.723077077132004,24.304999896458217,21.000666586558022,15.25866673787435,21.015000343322754,17.39785705293928,17.918260906053625,16.57058811187744,NA,18.08833360671997,18.170000076293945,17.33230788891132,19.904285430908203,14.45799986521403,11.229913040309748,15.028862987458705,9.164311341566929,10.526480641645172,10.459067715042373,NA,13.338082436541775,13.15928568158831,12.546027936458588,13.194868958217757,10.232369127318462,11.229913040309748,15.028862987458705,9.164311341566929,10.526480641645172,10.459067715042373,NA,13.338082436541775,13.15928568158831,12.546027936458588,13.194868958217757,10.232369127318462,0,0,256.60071756387396,498.7097723217129,676.5139234774333,NA,756.5424180966841,848.6574178678022,1011.7557810417638,1104.119863749288,1104.119863749288,0,0,0.9870714323861258,0.9964347839355469,0.9648529417374555,NA,1,1,0.9778846153846154,0.9468571390424456,0.03620000203450521,1,1,1,1,1,NA,1,1,1,1,1,0.9839000002543131,1,0.9870714323861258,0.9964347839355469,0.9648529417374555,NA,1,1,0.9778846153846154,0.9468571390424456,0.8746000003814698,1,1,1,0.9999999999999999,0.9999999999999999,NA,0.9999999999999999,0.9999999999999999,1,1,1,2018-05-14,2018-05-29,2018-05-31,2018-06-28,2018-07-21,NA,2018-08-07,2018-08-13,2018-08-20,2018-09-02,2018-09-09,2018-05-28,2018-05-30,2018-06-27,2018-07-20,2018-08-06,NA,2018-08-12,2018-08-19,2018-09-01,2018-09-08,2018-09-23,134,149,151,179,202,NA,219,225,232,245,252,15,2,28,23,17,0,6,7,13,7,15,148,150,178,201,218,NA,224,231,244,251,266
52,eastlansing_mi,42.6296,-84.4375,2018,2018-06-08,2,6,early2,787.6699681732994,11,2018-05-25,2018-06-08,109,2018-09-25,2018-10-07,2018-10-21,Harvested at Maturity.,2.3279999256134034,4.662499904632568,1.3032258133734427,2.568799979686737,0.7407142860548837,0,4.412857123783657,4.3050001462300616,2.8236842155456543,6.095000038544337,2.9713333288828534,2.3279999256134034,4.662499904632568,1.3032258133734427,2.568799979686737,0.7407142860548837,0,4.412857123783657,4.3050001462300616,2.8236842155456543,6.095000038544337,2.9713333288828534,20.429185803731283,16.804301500320435,21.727112247097878,19.024098682403565,17.613159792763845,17.729259490966797,15.420495578220912,16.283966700236004,14.61768963462428,11.824568192164103,9.587915420532227,27.240666580200195,22.80750036239624,28.640322531423262,27.92920036315918,27.938571657453267,23.969999313354492,27.698571341378347,28.496666590372723,24.640000192742598,18.795833667119343,15.82333329518636,20.898999961217246,18.58875000476837,22.314838670915172,22.075800189971925,22.501785857336863,18.854999542236328,22.25714268003191,22.467499891916912,19.037631712461774,13.540416836738586,10.755999973416328,14.557333342234294,14.369999647140503,15.989354810407084,16.22240001678467,17.06500005722046,13.739999771118164,16.815714018685476,16.4383331934611,13.435263232180947,8.285000006357828,5.6886666516462965,10.595248068267903,8.588750004768372,8.092072937000383,9.805876209125215,12.265332160025517,8.854999542236328,12.280040907750811,12.570132848741611,9.67424122551366,6.3832571990971765,2.87437272989021,10.595248068267903,8.588750004768372,8.092072937000383,9.805876209125215,12.265332160025517,8.854999542236328,12.280040907750811,12.570132848741611,9.67424122551366,6.3832571990971765,2.87437272989021,0,0,250.85426104701185,496.0011662751422,667.7158165154996,676.5708160577359,762.5311024119915,837.9518995044411,1021.7624827892008,1098.3615691783666,1098.3615691783666,0,0,0.969548386912192,0.9926600017547608,1,0.8854999542236328,0.9677857194628035,0.946999994913737,0.7941315851713482,0.3696666836738587,0.040233332316080735,1,1,1,1,1,1,1,1,1,1,1,0.867633334795634,0.8588750004768372,0.969548386912192,0.9926600017547608,1,0.8854999542236328,0.9677857194628035,0.946999994913737,0.7941315851713482,0.3696666836738587,0.2760999965667725,1,1,1,1,1,1,0.9999999999999999,1,0.9999999999999999,1,1,2018-05-25,2018-06-09,2018-06-13,2018-07-14,2018-08-08,2018-08-22,2018-08-23,2018-08-30,2018-09-05,2018-09-24,2018-10-06,2018-06-08,2018-06-12,2018-07-13,2018-08-07,2018-08-21,2018-08-22,2018-08-29,2018-09-04,2018-09-23,2018-10-05,2018-10-20,145,160,164,195,220,234,235,242,248,267,279,15,4,31,25,14,1,7,6,19,12,15,159,163,194,219,233,234,241,247,266,278,293
53,lamberton_mn,44.24095,-95.3115,2018,2018-05-17,2,7,early2,1112.7599353690157,11,2018-05-03,2018-05-17,118,2018-09-12,2018-09-18,2018-10-02,Harvested at Maturity.,1.7846667130788167,9.638000106811523,6.180909059264443,6.806071432573455,2.5511111716429395,0,0.7066666483879089,1.8374999724328518,2.378235269995297,0,10.059333213170369,1.7846667130788167,9.638000106811523,6.180909059264443,6.806071432573455,2.5511111716429395,0,0.7066666483879089,1.8374999724328518,2.378235269995297,0,10.059333213170369,20.746813201904295,17.677581977844238,17.065754066814076,20.70783703667777,20.28497658835517,21.531492233276367,16.927658240000408,17.154769897460938,15.178030126235065,15.892959912618002,11.122763792673746,22.625999704996744,22.293999862670898,27.823636315085672,28.796071461268834,27.127222379048664,29.959999084472656,29.078333536783855,25.678749799728394,24.993529488058652,30.68500010172526,17.628666559855144,16.05233319600423,16.29500002861023,22.33424238725142,23.481249962534225,21.08277784453498,23.289999961853027,23.820000012715656,20.266249775886536,19.63264706555535,24.258333206176758,12.946999929845333,9.478666687011719,10.29600019454956,16.844848459417168,18.166428463799612,15.038333310021294,16.6200008392334,18.56166648864746,14.853749752044678,14.271764643052045,17.831666310628254,8.265333299835524,6.435828302847743,6.425339048453569,7.571560134616661,8.921439885051077,9.255107423466832,12.338349657798132,13.144750790112775,10.430861501883715,10.115013372176536,13.559772080129385,3.3214611344096063,6.435828302847743,6.425339048453569,7.571560134616661,8.921439885051077,9.255107423466832,12.338349657798132,13.144750790112775,10.430861501883715,10.115013372176536,13.559772080129385,3.3214611344096063,0,0,249.8614844423497,499.6618012237799,666.2537348461829,678.592084503981,757.4605892446577,840.9074812597274,1012.8627085867286,1094.221341067505,1094.221341067505,0,0,0.97668181477171,1,0.9472500032848782,1,1,0.9431249916553497,0.8567941216861501,1,0.06039999961853028,1,1,1,1,1,1,1,1,1,1,1,0.5959999926884969,0.5932000017166138,0.97668181477171,1,0.9472500032848782,1,1,0.9431249916553497,0.8567941216861501,1,0.35779999415079755,1,1,1,1,0.9999999999999999,1,1,0.9999999999999999,1,0.9999999999999999,1,2018-05-03,2018-05-18,2018-05-23,2018-06-25,2018-07-23,2018-08-10,2018-08-11,2018-08-17,2018-08-25,2018-09-11,2018-09-17,2018-05-17,2018-05-22,2018-06-24,2018-07-22,2018-08-09,2018-08-10,2018-08-16,2018-08-24,2018-09-10,2018-09-16,2018-10-01,123,138,143,176,204,222,223,229,237,254,260,15,5,33,28,18,1,6,8,17,6,15,137,142,175,203,221,222,228,236,253,259,274
54,waseca_mn,44.07345,-93.53225,2018,2018-05-18,2,8,early2,1054.6996409009128,11,2018-05-04,2018-05-18,120,2018-09-15,2018-09-21,2018-10-05,Harvested at Maturity.,4.399999944368998,0.678000020980835,6.114242409214829,3.9889285894376894,1.4584210640505741,0,6.106666882832845,1.5862500071525574,10.577777809566921,10.964999993642172,3.769333362579346,4.399999944368998,0.678000020980835,6.114242409214829,3.9889285894376894,1.4584210640505741,0,6.106666882832845,1.5862500071525574,10.577777809566921,10.964999993642172,3.769333362579346,19.45052541097005,18.750363922119142,16.835132280985516,20.62900866780962,20.594151998821058,22.077238082885746,16.84867270787557,15.255571722984314,14.147102091047499,11.651618878046671,11.229350598653157,22.075333404541016,21.65999984741211,27.415151596069336,28.17571415219988,26.55210525111148,29.729999542236328,28.75,24.853749990463257,24.789444393581814,27.528333346048992,16.966666793823244,16.023666667938233,16.263999938964844,22.14333339170976,23.02714274610792,20.673684220564994,22.75499963760376,23.301666657129925,19.768124997615814,19.60083333651225,22.651666561762493,11.903333424528439,9.97199993133545,10.868000030517578,16.871515187350187,17.878571340015956,14.795263190018504,15.779999732971191,17.85333331425985,14.682500004768372,14.41222227944268,17.774999777475994,6.840000055233638,6.319332403003177,6.3445469657588,7.548724828575643,8.739208323134497,9.187814630162482,12.13669369056086,13.012640790686087,10.061282280721516,10.130720531060298,12.371868052796522,2.6344485632745425,6.319332403003177,6.3445469657588,7.548724828575643,8.739208323134497,9.187814630162482,12.13669369056086,13.012640790686087,10.061282280721516,10.130720531060298,12.371868052796522,2.6344485632745425,0,0,249.10791934299615,493.8057523907622,668.3742303638493,680.5109240544101,758.5867687985267,839.0770270442988,1021.4299966033842,1095.6612049201633,1095.6612049201633,0,0,0.9734696951779452,0.9983214310237339,0.944157886505127,1,1,0.9133750021457673,0.8547222269905939,0.9381666580835979,0.06666666666666667,1,1,1,1,1,1,1,1,1,1,1,0.6039999945958455,0.601599988937378,0.9734696951779452,0.9983214310237339,0.944157886505127,1,1,0.9133750021457673,0.8547222269905939,0.9381666580835979,0.2956333367029826,1,1,1,0.9999999999999999,0.9999999999999999,1,1,1,0.9999999999999999,1,1,2018-05-04,2018-05-19,2018-05-24,2018-06-26,2018-07-24,2018-08-12,2018-08-13,2018-08-19,2018-08-27,2018-09-14,2018-09-20,2018-05-18,2018-05-23,2018-06-25,2018-07-23,2018-08-11,2018-08-12,2018-08-18,2018-08-26,2018-09-13,2018-09-19,2018-10-04,124,139,144,177,205,224,225,231,239,257,263,15,5,33,28,19,1,6,8,18,6,15,138,143,176,204,223,224,230,238,256,262,277
55,mead_ne,41.15785,-96.42075,2018,2018-05-18,2,22,early2,1017.8513850338912,11,2018-05-04,2018-05-18,101,2018-08-27,2018-09-03,2018-09-17,Harvested at Maturity.,1.1646666367848715,3.0949999690055847,3.745000013938317,7.24799994468689,3.740000009536743,0,1.81571432522365,1.206666628519694,4.974285577024732,4.524285674095154,6.66200008392334,1.1646666367848715,3.0949999690055847,3.745000013938317,7.24799994468689,3.740000009536743,0,1.81571432522365,1.206666628519694,4.974285577024732,4.524285674095154,6.66200008392334,20.703788248697915,12.653548896312714,20.82523881472074,19.37208698272705,19.85737681388855,19.19318389892578,20.593518120901926,19.725963274637856,15.330806936536517,15.546890803745816,14.744389375050863,26.13133347829183,21.59749960899353,32.03192314734826,30.00160026550293,28.84999990463257,26.170000076293945,30.24142837524414,30.949999809265137,27.334285599844797,28.648571286882675,26.943333053588866,18.85500005086263,17.15499985218048,25.212307691574097,24.461600093841554,23.22437497973442,21.3149995803833,23.558571338653564,24.65583324432373,22.184642825807845,22.9307142666408,21.79766648610433,11.578666623433431,12.712500095367432,18.392692235799935,18.921599922180175,17.598750054836273,16.459999084472656,16.87571430206299,18.361666679382324,17.03500005177089,17.212857246398926,16.65199991861979,8.866377796624503,7.154999852180481,9.891036512075605,9.807041728195033,10.673724459303457,9.891393205321236,11.886658538787325,13.636434291812026,11.986702277887648,12.764661438707794,10.685190715055466,8.866377796624503,7.154999852180481,9.891036512075605,9.807041728195033,10.673724459303457,9.891393205321236,11.886658538787325,13.636434291812026,11.986702277887648,12.764661438707794,10.685190715055466,0,0,257.1669493139657,502.3429925188416,673.122583867697,683.0139770730183,766.2205868445295,848.0391925954018,1015.853024485829,1105.2056545567837,1105.2056545567837,0,0,0.9983269251309909,0.9896599998474122,0.9986874997615814,1,1,1,0.9741785628455026,0.9640714304787772,0.06666666666666667,1,1,1,1,1,1,1,1,1,1,1,0.851866668065389,0.6743749976158142,0.9983269251309909,0.9896599998474122,0.9986874997615814,1,1,1,0.9741785628455026,0.9640714304787772,0.9567999903361003,1,1,1,0.9999999999999999,0.9999999999999999,1,0.9999999999999999,1,0.9999999999999999,1,1,2018-05-04,2018-05-19,2018-05-23,2018-06-18,2018-07-13,2018-07-29,2018-07-30,2018-08-06,2018-08-12,2018-08-26,2018-09-02,2018-05-18,2018-05-22,2018-06-17,2018-07-12,2018-07-28,2018-07-29,2018-08-05,2018-08-11,2018-08-25,2018-09-01,2018-09-16,124,139,143,169,194,210,211,218,224,238,245,15,4,26,25,16,1,7,6,14,7,15,138,142,168,193,209,210,217,223,237,244,259
56,arthur_il,39.70646667,-88.47023333,2018,2018-05-08,3,14,early3,1159.0841830527936,11,2018-04-24,2018-05-08,111,2018-08-27,2018-08-31,2018-09-14,Harvested at Maturity.,0.9820000171661377,3.6566667556762695,1.411538458787478,7.333043440528538,3.5668421795493677,0,6.438333412011464,0.2755555576748318,3.7375000454485416,0.9100000262260437,4.761333274841308,0.9820000171661377,3.6566667556762695,1.411538458787478,7.333043440528538,3.5668421795493677,0,6.438333412011464,0.2755555576748318,3.7375000454485416,0.9100000262260437,4.761333274841308,22.145782979329425,20.760907491048176,19.909970686985897,17.834145463031273,20.912768514532793,24.52035903930664,17.586671590805054,20.42491012149387,16.635285198688507,14.615993976593018,15.974473349253337,22.891333262125652,28.980000178019207,29.663076840914215,29.667826030565344,30.760000028108294,28.860000610351563,26.282500108083088,29.98666657341851,28.12874972820282,30.925000190734863,28.373333485921226,15.526666629314423,21.605000019073486,23.37865378306462,24.518043497334357,25.158684303886012,22.40500020980835,21.589999953905743,24.39055559370253,22.993749856948853,26.359999895095825,22.905666732788085,8.161999996503194,14.229999860127768,17.09423072521503,19.368260964103367,19.557368579663727,15.949999809265137,16.897499799728394,18.794444613986546,17.858749985694885,21.794999599456787,17.437999979654947,6.393541442832698,11.605000019073486,9.395425344741295,8.972695212001923,9.928060166948102,9.22184959381823,9.152346383383048,12.431498098709676,12.750497428138111,15.237110195234418,11.456426397295,6.393541442832698,11.605000019073486,9.395425344741295,8.972695212001923,9.928060166948102,9.22184959381823,9.152346383383048,12.431498098709676,12.750497428138111,15.237110195234418,11.456426397295,0,0,244.28105896327364,450.653048839318,639.2861920113319,648.5080416051501,758.3361982057469,870.219681094134,1074.2276399443438,1135.1760807252815,1135.1760807252815,0,0,0.9975961520121648,1,1,1,0.9804166674613952,1,0.9822187453508378,1,0.06666666666666667,1,1,1,1,1,1,1,1,1,1,1,0.5524666635195414,1,0.9975961520121648,1,1,1,0.9804166674613952,1,0.9822187453508378,1,0.9651333363850911,1,1,1,1,1,1,0.9999999999999999,1,0.9999999999999999,1,1,2018-04-24,2018-05-09,2018-05-12,2018-06-07,2018-06-30,2018-07-19,2018-07-20,2018-08-01,2018-08-10,2018-08-26,2018-08-30,2018-05-08,2018-05-11,2018-06-06,2018-06-29,2018-07-18,2018-07-19,2018-07-31,2018-08-09,2018-08-25,2018-08-29,2018-09-13,114,129,132,158,181,200,201,213,222,238,242,15,3,26,23,19,1,12,9,16,4,15,128,131,157,180,199,200,212,221,237,241,256
57,urbana_il,40.05325,-88.23485,2018,2018-05-08,3,5,early3,1188.6105136052108,11,2018-04-24,2018-05-08,113,2018-08-29,2018-09-03,2018-09-17,Harvested at Maturity.,0.9673333088556925,11.206666310628256,2.5185185538397894,8.522000088691712,2.9015789094724154,10.399999618530272,1.542499969402949,0.1912499964237213,6.009374942630529,1.2559999823570251,6.894000116984049,0.9673333088556925,11.206666310628256,2.5185185538397894,8.522000088691712,2.9015789094724154,10.399999618530272,1.542499969402949,0.1912499964237213,6.009374942630529,1.2559999823570251,6.894000116984049,22.8994140625,20.779858907063804,20.15440598240605,17.276839141845702,21.33395807366622,12.394432067871094,20.684654235839844,20.155307292938232,16.986117899417877,16.65137596130371,15.933686224619548,23.044666481018066,28.490000406901043,29.502592581289786,29.23279998779297,29.569473668148643,26.280000686645508,26.636666774749756,30.261250257492065,28.346875190734863,29.461999893188477,28.674666849772137,15.348999838034311,21.011666774749756,22.922777776364928,24.325800075531006,23.955789440556575,22.550000190734863,21.22708336512248,24.65749990940094,23.127812653779984,23.89900016784668,22.65666678746541,7.653333195050558,13.533333142598469,16.342962971440066,19.418800163269044,18.34210521296451,18.81999969482422,15.8174999554952,19.053749561309814,17.908750116825104,18.336000442504883,16.638666725158693,6.314693618109226,11.011666774749756,8.915466164790283,8.791883631845453,9.457259385481962,9.497617569394086,9.092088890003865,12.911651183926626,12.87236602416031,13.544526287517547,10.897583214103381,6.314693618109226,11.011666774749756,8.915466164790283,8.791883631845453,9.457259385481962,9.497617569394086,9.092088890003865,12.911651183926626,12.87236602416031,13.544526287517547,10.897583214103381,0,0,240.7175864493377,460.51467724547393,640.2026055696313,649.7002231390253,758.8052898190717,862.0984992904848,1068.05635567705,1135.7789871146376,1135.7789871146376,0,0,0.9967777799676966,1,1,1,0.9816666642824808,1,0.9859687507152557,1,0.06666666666666667,1,1,1,1,1,1,1,1,1,1,1,0.5365999925136566,1,0.9967777799676966,1,1,1,0.9816666642824808,1,0.9859687507152557,1,0.9566333325703938,1,1,1,0.9999999999999999,0.9999999999999999,1,0.9999999999999999,1,0.9999999999999999,1,1,2018-04-24,2018-05-09,2018-05-12,2018-06-08,2018-07-03,2018-07-22,2018-07-23,2018-08-04,2018-08-12,2018-08-28,2018-09-02,2018-05-08,2018-05-11,2018-06-07,2018-07-02,2018-07-21,2018-07-22,2018-08-03,2018-08-11,2018-08-27,2018-09-01,2018-09-16,114,129,132,159,184,203,204,216,224,240,245,15,3,27,25,19,1,12,8,16,5,15,128,131,158,183,202,203,215,223,239,244,259
58,wanatah_in,41.4444,-86.9437,2018,2018-05-26,3,10,early3,1096.7081101996066,11,2018-05-12,2018-05-26,117,2018-09-20,2018-09-26,2018-10-10,Harvested at Maturity.,3.51333335240682,0,3.3444116957047405,2.413200011253357,4.1058823781854965,0,5.845555729336208,2.2077777650621204,2.4677778349982367,2.8100000222524004,5.00800005197525,3.51333335240682,0,3.3444116957047405,2.413200011253357,4.1058823781854965,0,5.845555729336208,2.2077777650621204,2.4677778349982367,2.8100000222524004,5.00800005197525,19.346208572387695,24.64130401611328,18.872848019880408,20.501269226074218,19.109652968013986,21.219518661499023,15.38749779595269,16.057343906826443,14.915108574761284,14.704923311869303,12.145898882548014,23.804666582743327,35.18499946594238,27.64852938932531,28.827200088500977,28.458823596729953,29.540000915527344,27.438888761732315,28.21777809990777,27.283333354526096,25.794999758402508,23.660666783650715,17.67566665013631,27.072499752044678,22.3411763976602,23.25400005340576,22.637647095848532,23.27500057220459,22.725555366939968,22.491666793823242,21.780833297305637,19.450833201408386,17.624666738510133,11.546666717529297,18.960000038146973,17.03382340599509,17.680800018310546,16.816470594967114,17.010000228881836,18.012221972147625,16.765555487738716,16.27833324008518,13.106666644414267,11.588666693369547,7.642740523427725,13.346090122312308,7.183873240214924,8.741992416642912,10.512927936461766,12.399061626871958,12.470235511197073,12.080317329743174,11.55192634870112,9.935136321882407,7.0269351420809825,7.642740523427725,13.346090122312308,7.183873240214924,8.741992416642912,10.512927936461766,12.399061626871958,12.470235511197073,12.080317329743174,11.55192634870112,9.935136321882407,7.0269351420809825,0,0,244.2516901673074,462.80150058338035,641.5212755032303,653.9203371301022,766.1524567308759,874.8753126985645,1082.8099869751848,1142.4208049064794,1142.4208049064794,0,0,0.9667352956884048,0.9984200019836426,0.9846176484051873,1,0.9965555561913384,0.9537777794731988,0.9155555619133844,0.7708333373069763,0.06666666666666667,1,1,1,1,1,1,1,1,1,1,1,0.7023999977111817,1,0.9667352956884048,0.9984200019836426,0.9846176484051873,1,0.9965555561913384,0.9537777794731988,0.9155555619133844,0.7708333373069763,0.7009000062942505,1,1,1,1,1,1,0.9999999999999999,1,0.9999999999999999,1,1,2018-05-12,2018-05-27,2018-05-29,2018-07-02,2018-07-27,2018-08-13,2018-08-14,2018-08-23,2018-09-01,2018-09-19,2018-09-25,2018-05-26,2018-05-28,2018-07-01,2018-07-26,2018-08-12,2018-08-13,2018-08-22,2018-08-31,2018-09-18,2018-09-24,2018-10-09,132,147,149,183,208,225,226,235,244,262,268,15,2,34,25,17,1,9,9,18,6,15,146,148,182,207,224,225,234,243,261,267,282
59,lafayette_in,40.399,-86.8592,2018,2018-05-28,3,1,early3,1024.2300706007384,11,2018-05-14,2018-05-28,112,2018-09-17,2018-09-21,2018-10-05,Harvested at Maturity.,2.7806666612625124,18.190000534057617,5.367419435131934,2.949999964755514,3.4783334334691367,0,4.829999923706055,5.673333459430271,3.5850000513924494,0.8700000047683716,3.8166666348775227,2.7806666612625124,18.190000534057617,5.367419435131934,2.949999964755514,3.4783334334691367,0,4.829999923706055,5.673333459430271,3.5850000513924494,0.8700000047683716,3.8166666348775227,19.7248743057251,15.00075387954712,18.379978995169363,21.000864733820375,18.462586296929253,19.203279495239254,16.997450590133667,15.331542121039497,15.719360603226557,16.138373374938965,12.732939529418946,28.378000005086264,30.905000686645508,28.385161307550245,29.391738974529765,27.843333350287544,28.719999313354492,28.31749987602234,27.910000059339737,27.52000003390842,32.1850004196167,24.489333470662434,21.818333371480307,25.96000051498413,22.962419325305568,23.61195643051811,22.298611137602066,23.4399995803833,23.101249992847443,22.767222351498074,21.962499989403618,24.80999994277954,18.559666792551678,15.25866673787435,21.015000343322754,17.539677343060895,17.832173886506453,16.753888924916584,18.15999984741211,17.885000109672546,17.624444643656414,16.40499994489882,17.434999465942383,12.630000114440918,11.229913040309748,15.028862987458705,7.976134606794787,9.128333138886685,10.287621904663657,12.4918291863429,12.773375062467865,12.523442630338668,11.691026849816573,13.812634600633384,7.568147237691084,11.229913040309748,15.028862987458705,7.976134606794787,9.128333138886685,10.287621904663657,12.4918291863429,12.773375062467865,12.523442630338668,11.691026849816573,13.812634600633384,7.568147237691084,0,0,247.2601728106384,457.21183500503224,642.3890292889782,654.8808584753211,757.067858975064,869.778842648112,1080.21732594481,1135.4678643473435,1135.4678643473435,0,0,0.9883225840906943,0.9964347839355469,0.9668055560853747,1,1,0.9680555555555556,0.9219166649712457,1,0.06666666666666667,1,1,1,1,1,1,1,1,1,1,1,0.9839000002543131,1,0.9883225840906943,0.9964347839355469,0.9668055560853747,1,1,0.9680555555555556,0.9219166649712457,1,0.7616666793823242,1,1,1,0.9999999999999999,0.9999999999999999,1,0.9999999999999999,1,0.9999999999999999,1,1,2018-05-14,2018-05-29,2018-05-31,2018-07-01,2018-07-24,2018-08-11,2018-08-12,2018-08-20,2018-08-29,2018-09-16,2018-09-20,2018-05-28,2018-05-30,2018-06-30,2018-07-23,2018-08-10,2018-08-11,2018-08-19,2018-08-28,2018-09-15,2018-09-19,2018-10-04,134,149,151,182,205,223,224,232,241,259,263,15,2,31,23,18,1,8,9,18,4,15,148,150,181,204,222,223,231,240,258,262,277
60,rockport_mo,40.273,-95.4743,2018,2018-05-24,3,23,early3,1059.5725746821631,11,2018-05-10,2018-05-24,109,2018-09-10,2018-09-16,2018-09-30,Harvested at Maturity.,1.5453333655993144,0,3.990714260510036,2.7782608944436777,1.2521052611501593,NA,8.805555608537462,8.221111297607422,9.861249968409538,0,1.7580000400543212,1.5453333655993144,0,3.990714260510036,2.7782608944436777,1.2521052611501593,NA,8.805555608537462,8.221111297607422,9.861249968409538,0,1.7580000400543212,19.175112851460774,24.05876350402832,18.996805548667908,21.100453521894373,21.05190292157625,NA,18.181399239434135,13.519578297932943,12.421486228704453,19.365192413330078,15.048192437489828,27.99466667175293,36.48333231608073,30.883214201245988,31.99217356806216,30.13842090807463,NA,31.303332858615452,26.373333401150173,27.960625052452087,28.0633331934611,26.299333318074545,21.32733325958252,28.149999300638836,24.64410710334778,25.78108683876369,23.50842086892379,NA,24.72833315531413,21.848888927035862,23.403125047683716,21.00583322842916,19.669333251317344,14.65999984741211,19.81666628519694,18.40500000544957,19.570000109465227,16.87842082977295,NA,18.153333452012802,17.32444445292155,18.845625042915344,13.948333263397217,13.03933318456014,11.14165731464386,12.87218489008347,8.447085100372938,9.304955954152828,10.112692196931247,NA,12.622672335797786,11.789441196396885,12.944602301502227,11.14508901711305,7.9232148039946955,11.14165731464386,12.87218489008347,8.447085100372938,9.304955954152828,10.112692196931247,NA,12.622672335797786,11.789441196396885,12.944602301502227,11.14508901711305,7.9232148039946955,0,0,236.5183828104423,450.53236975595706,642.6735214976507,NA,756.2775725198308,862.3825432874029,1069.4961801114384,1136.3667142141169,1136.3667142141169,0,0,0.9889464276177543,0.9979347850965417,1,NA,1,0.9716111077202692,0.9807812511920929,0.944083325068156,0.06666666666666667,1,1,1,1,1,NA,1,1,1,1,1,0.9784666601816814,1,0.9889464276177543,0.9979347850965417,1,NA,1,0.9716111077202692,0.9807812511920929,0.944083325068156,0.7024333302179973,1,1,1,1,0.9999999999999999,NA,1,1,0.9999999999999999,0.9999999999999999,1,2018-05-10,2018-05-25,2018-05-28,2018-06-25,2018-07-18,NA,2018-08-06,2018-08-15,2018-08-24,2018-09-09,2018-09-15,2018-05-24,2018-05-27,2018-06-24,2018-07-17,2018-08-05,NA,2018-08-14,2018-08-23,2018-09-08,2018-09-14,2018-09-29,130,145,148,176,199,NA,218,227,236,252,258,15,3,28,23,19,0,9,9,16,6,15,144,147,175,198,217,NA,226,235,251,257,272
61,neoga_il,39.323,-88.452,2018,2018-05-12,4,24,early4,1510.6036697515528,11,2018-04-28,2018-05-12,129,2018-09-18,2018-09-21,2018-10-05,Harvested at Maturity.,1.5833333333333333,1.2999999523162842,5.907058766659568,2.8761538909031796,5.845599966049194,0,4.317999982833863,6.644999873638153,2.7610525833932975,0,4.880000066757202,1.5833333333333333,1.2999999523162842,5.907058766659568,2.8761538909031796,5.845599966049194,0,4.317999982833863,6.644999873638153,2.7610525833932975,0,4.880000066757202,21.424260902404786,18.192341327667236,19.83951790192548,19.383289557236893,18.507386245727538,17.783111572265625,17.649929332733155,15.24750452041626,16.203224332709063,17.078449249267578,13.102176920572917,25.584666633605956,32.19999980926514,30.217646823209876,30.798461547264687,28.776799926757814,29.899999618530273,29.682000160217285,28.664999961853027,29.066842229742754,33.40666580200195,26.1266663869222,18.145333270231884,25.55500030517578,24.051911606508142,25.34346155019907,23.428400058746337,25.199999809265137,24.171999835968016,23.562999963760376,23.448947479850368,26.13166618347168,20.200999768575034,10.705999906857809,18.910000801086426,17.886176389806412,19.88846155313345,18.080000190734864,20.5,18.66199951171875,18.460999965667725,17.83105272995798,18.856666564941406,14.275333150227866,8.724316366580824,14.501555278706551,7.993024425025002,8.03928158575549,9.339127413087757,12.679629285554048,12.596703853532158,12.926152877791347,12.826902001865285,14.150475316298007,9.035399849179585,8.724316366580824,14.501555278706551,7.993024425025002,8.03928158575549,9.339127413087757,12.679629285554048,12.596703853532158,12.926152877791347,12.826902001865285,14.150475316298007,9.035399849179585,0,0,271.76283045085006,480.78415168049287,714.2623370076869,726.941966293241,852.9090048285625,982.170533606476,1225.8816716419165,1268.3330975908104,1268.3330975908104,0,0,0.9989558822968427,1,0.9933399982452392,1,1,0.9737000036239625,0.9738684202495375,1,0.06666666666666667,1,1,1,1,1,1,1,1,1,1,1,0.7527333410580953,1,0.9989558822968427,1,0.9933399982452392,1,1,0.9737000036239625,0.9738684202495375,1,0.8460999902089437,1,1,1,0.9999999999999999,1,1,0.9999999999999999,1,1,1,1,2018-04-28,2018-05-13,2018-05-15,2018-06-18,2018-07-14,2018-08-08,2018-08-09,2018-08-19,2018-08-29,2018-09-17,2018-09-20,2018-05-12,2018-05-14,2018-06-17,2018-07-13,2018-08-07,2018-08-08,2018-08-18,2018-08-28,2018-09-16,2018-09-19,2018-10-04,118,133,135,169,195,220,221,231,241,260,263,15,2,34,26,25,1,10,10,19,3,15,132,134,168,194,219,220,230,240,259,262,277
62,urbana_il,40.05325,-88.23485,2018,2018-05-08,4,5,early4,1703.7475826932318,11,2018-04-24,2018-05-08,136,2018-09-21,2018-09-26,2018-10-10,Harvested at Maturity.,0.9673333088556925,11.206666310628256,4.6891667611069145,5.365714256252561,1.7957691962902362,0.8799999952316284,7.906363525173881,1.5460000216960905,5.4426316713031975,1.5220000267028808,3.21599991718928,0.9673333088556925,11.206666310628256,4.6891667611069145,5.365714256252561,1.7957691962902362,0.8799999952316284,7.906363525173881,1.5460000216960905,5.4426316713031975,1.5220000267028808,3.21599991718928,22.8994140625,20.779858907063804,19.310069190131294,19.674476282937185,19.831791547628548,21.164466857910156,16.834984692660246,17.153264904022215,16.254376486728066,13.372103500366212,13.155755678812662,23.044666481018066,28.490000406901043,29.303333282470703,29.82214287349156,27.956923264723557,30.90999984741211,28.639090971513227,28.428000068664552,29.563684363114206,26.488000106811523,26.534666697184246,15.348999838034311,21.011666774749756,23.094305555025738,24.522321445601328,22.693269289456882,24.854999542236328,23.504545471884988,23.011000204086304,23.280789601175407,20.277000141143798,19.958000040054323,7.653333195050558,13.533333142598469,16.88527782758077,19.222500017711095,17.429615314190205,18.799999237060547,18.369999972256746,17.594000339508057,16.99789483923661,14.066000175476074,13.381333382924398,6.314693618109226,11.011666774749756,7.417805416095756,7.4941997819944675,8.92585179978611,12.346113996412493,12.31744510586586,12.663713823275124,12.462918496789431,10.345285995738505,9.218639988109867,6.314693618109226,11.011666774749756,7.417805416095756,7.4941997819944675,8.92585179978611,12.346113996412493,12.31744510586586,12.663713823275124,12.462918496789431,10.345285995738505,9.218639988109867,0,0,267.04099497944725,476.87858887529234,708.9507356697311,721.2968496661435,856.7887458306682,983.4258840634192,1220.2213355024182,1271.947765481111,1271.947765481111,0,0,0.9975833349757725,1,0.9915384604380681,1,1,0.9775500011444092,0.9657631572924162,0.8209999942779541,0.06666666666666667,1,1,1,1,1,1,1,1,1,1,1,0.5365999925136566,1,0.9975833349757725,1,0.9915384604380681,1,1,0.9775500011444092,0.9657631572924162,0.8209999942779541,0.8557333326339722,1,1,1,1,1,1,0.9999999999999999,0.9999999999999999,1,0.9999999999999999,1,2018-04-24,2018-05-09,2018-05-12,2018-06-17,2018-07-15,2018-08-10,2018-08-11,2018-08-22,2018-09-01,2018-09-20,2018-09-25,2018-05-08,2018-05-11,2018-06-16,2018-07-14,2018-08-09,2018-08-10,2018-08-21,2018-08-31,2018-09-19,2018-09-24,2018-10-09,114,129,132,168,196,222,223,234,244,263,268,15,3,36,28,26,1,11,10,19,5,15,128,131,167,195,221,222,233,243,262,267,282
63,lafayette_in,40.399,-86.8592,2018,2018-05-28,4,1,early4,1401.995437265252,11,2018-05-14,2018-05-28,136,2018-10-11,2018-10-19,2018-11-02,Harvested at Maturity.,2.7806666612625124,18.190000534057617,5.121000051498413,2.274615397820106,5.594761984688895,0,0.7277777724795871,5.255000074704488,4.163043457528819,6.011249870061874,4.274000040690104,2.7806666612625124,18.190000534057617,5.121000051498413,2.274615397820106,5.594761984688895,0,0.7277777724795871,5.255000074704488,4.163043457528819,6.011249870061874,4.274000040690104,19.7248743057251,15.00075387954712,19.057783925533293,20.124809705294094,16.521979150317964,18.347997665405273,16.888044675191242,14.654083152612051,12.659440828406293,9.237944334745407,9.671960878372193,28.378000005086264,30.905000686645508,28.780749988555907,27.93769220205454,28.09428560166132,32.18000030517578,30.744444953070747,26.1266663869222,26.407391506692637,13.333750009536743,13.541999944051106,21.818333371480307,25.96000051498413,23.284124970436096,22.20730761381296,22.85547619774228,26.38000011444092,25.063889185587566,20.671666463216145,20.141956598862357,8.823750012787059,7.645999972025553,15.25866673787435,21.015000343322754,17.787499952316285,16.476923025571384,17.616666793823242,20.579999923706055,19.383333418104385,15.21666653951009,13.876521691032078,4.313750016037375,1.75,11.229913040309748,15.028862987458705,6.693414092366999,7.88923130509678,11.352236906649555,15.265694902682302,14.240361701500415,10.695265119267008,10.518783487154867,5.691823721687124,0.9718120686436694,11.229913040309748,15.028862987458705,6.693414092366999,7.88923130509678,11.352236906649555,15.265694902682302,14.240361701500415,10.695265119267008,10.518783487154867,5.691823721687124,0.9718120686436694,0,0,267.73656369468,472.8565776271963,711.2535526668368,726.519247569519,854.6825028830227,983.0256843142269,1224.957704518789,1270.4922942922858,1270.4922942922858,0,0,0.9889000034332276,0.9770192311360286,0.9863095238095239,1,1,0.8828749974568685,0.8393260935078497,0.12868750095367432,0,1,1,1,1,1,1,1,1,1,1,1,0.9839000002543131,1,0.9889000034332276,0.9770192311360286,0.9863095238095239,1,1,0.8828749974568685,0.8393260935078497,0.12868750095367432,0.029399999777475993,1,1,1,0.9999999999999999,0.9999999999999999,1,1,1,0.9999999999999999,1,1,2018-05-14,2018-05-29,2018-05-31,2018-07-10,2018-08-05,2018-08-26,2018-08-27,2018-09-05,2018-09-17,2018-10-10,2018-10-18,2018-05-28,2018-05-30,2018-07-09,2018-08-04,2018-08-25,2018-08-26,2018-09-04,2018-09-16,2018-10-09,2018-10-17,2018-11-01,134,149,151,191,217,238,239,248,260,283,291,15,2,40,26,21,1,9,12,23,8,15,148,150,190,216,237,238,247,259,282,290,305
64,portagevilleloam_mo,36.39516667,-89.6102,2018,2018-05-02,4,20,early4,1282.850868993327,11,2018-04-18,2018-05-02,117,2018-08-27,2018-08-29,2018-09-12,Harvested at Maturity.,4.7106665452321375,10.426666259765625,5.6055999183654786,3.095000006935813,1.8620833555857341,10.479999542236328,0.18166667222976685,1.365000057220459,5.1544443766276045,0,5.192666657765707,4.7106665452321375,10.426666259765625,5.6055999183654786,3.095000006935813,1.8620833555857341,10.479999542236328,0.18166667222976685,1.365000057220459,5.1544443766276045,0,5.192666657765707,19.726980272928873,10.753520647684732,18.501399993896484,20.49343139475042,19.71239149570465,16.758651733398438,20.53415536880493,20.292974948883057,16.302460829416912,17.873099327087402,14.740799776713054,21.351999855041505,25.826666514078777,30.463600006103515,32.37636366757479,33.074583530426025,34.34000015258789,31.924999713897705,31.582999992370606,30.157222112019856,33.32499885559082,30.498666763305664,14.759999903043111,21.99333318074544,24.598600025177003,26.65431820262562,27.667916774749756,28.1850004196167,26.34624981880188,25.423499870300294,25.121944400999283,27.764999389648438,25.50566676457723,8.167999951044719,18.15999984741211,18.733600044250487,20.932272737676445,22.261250019073486,22.030000686645508,20.767499923706055,19.26399974822998,20.086666689978706,22.204999923706055,20.512666765848795,5.2710803227865695,11.993333180745443,10.52101994340871,9.494259021695687,9.922241477475756,10.458854502616582,11.318348353780214,11.796347496131698,14.062534132159914,15.468238038420676,13.475544697987239,5.2710803227865695,11.993333180745443,10.52101994340871,9.494259021695687,9.922241477475756,10.458854502616582,11.318348353780214,11.796347496131698,14.062534132159914,15.468238038420676,13.475544697987239,0,0,263.02549858521775,471.8991970625228,710.032992521941,720.4918470245575,856.3120272699201,974.2755022312372,1227.401116610116,1258.3375926869571,1258.3375926869571,0,0,1,1,1,1,1,1,1,1,0.06666666666666667,1,1,1,1,1,1,1,1,1,1,1,0.46549998998641967,1,1,1,1,1,1,1,1,1,0.9974000008900961,1,1,1,1,1,1,1,1,0.9999999999999999,1,1,2018-04-18,2018-05-03,2018-05-06,2018-05-31,2018-06-22,2018-07-16,2018-07-17,2018-07-29,2018-08-08,2018-08-26,2018-08-28,2018-05-02,2018-05-05,2018-05-30,2018-06-21,2018-07-15,2018-07-16,2018-07-28,2018-08-07,2018-08-25,2018-08-27,2018-09-11,108,123,126,151,173,197,198,210,220,238,240,15,3,25,22,24,1,12,10,18,2,15,122,125,150,172,196,197,209,219,237,239,254
65,rockport_mo,40.273,-95.4743,2018,2018-05-24,4,23,early4,1410.7131033084097,11,2018-05-10,2018-05-24,138,2018-10-09,2018-10-17,2018-10-31,Harvested at Maturity.,1.5453333655993144,0,4.033243243758743,1.7184615318591778,6.388571512131464,9.255000114440918,3.9970000743865968,11.26363626393405,4.045769315499526,8.41750019788742,0.5853333234786987,1.5453333655993144,0,4.033243243758743,1.7184615318591778,6.388571512131464,9.255000114440918,3.9970000743865968,11.26363626393405,4.045769315499526,8.41750019788742,0.5853333234786987,19.175112851460774,24.05876350402832,19.368875954602217,20.92197423714858,18.765931447347004,9.343284130096436,15.425220584869384,12.266963481903076,13.87732929449815,7.531855940818787,12.136763413747152,27.99466667175293,36.48333231608073,31.003513284631676,30.863461347726677,30.909523646036785,23.15000057220459,28.826999855041503,25.960000124844637,24.449230744288517,13.12624990940094,18.29599978129069,21.32733325958252,28.149999300638836,24.8358106870909,24.674230703940758,24.290476072402228,20.330000400543213,23.190999889373778,21.551363728263162,18.325192268078144,9.372499980032444,10.461666555268069,14.65999984741211,19.81666628519694,18.66810808955012,18.485000060154842,17.67142849876767,17.510000228881836,17.554999923706056,17.142727331681684,12.20115379186777,5.618750050663948,2.627333329245448,11.14165731464386,12.87218489008347,6.9932905027169046,8.264036466225392,11.049003310068969,9.953202886812393,12.605108520855064,11.59773780268214,9.333314874416933,5.614499158805609,2.547716229703619,11.14165731464386,12.87218489008347,6.9932905027169046,8.264036466225392,11.049003310068969,9.953202886812393,12.605108520855064,11.59773780268214,9.333314874416933,5.614499158805609,2.547716229703619,0,0,258.7517486005255,473.61669672238554,705.6457662338339,725.5521720074587,851.6032572160093,979.1783730455128,1221.8445597803527,1266.7605530507974,1266.7605530507974,0,0,0.9903513521761508,1,1,0.9902500152587891,0.9672499942779541,0.9498636332425204,0.6397307680203365,0.16474999189376832,0,1,1,1,1,1,1,1,1,1,1,1,0.9784666601816814,1,0.9903513521761508,1,1,0.9902500152587891,0.9672499942779541,0.9498636332425204,0.6397307680203365,0.16474999189376832,0.09803332805633545,1,1,1,0.9999999999999999,1,1,1,1,1,1,1,2018-05-10,2018-05-25,2018-05-28,2018-07-04,2018-07-30,2018-08-20,2018-08-22,2018-09-01,2018-09-12,2018-10-08,2018-10-16,2018-05-24,2018-05-27,2018-07-03,2018-07-29,2018-08-19,2018-08-21,2018-08-31,2018-09-11,2018-10-07,2018-10-15,2018-10-30,130,145,148,185,211,232,234,244,255,281,289,15,3,37,26,21,2,10,11,26,8,15,144,147,184,210,231,233,243,254,280,288,303
66,crookston_mn,47.805,-96.61426667,2020,2020-05-19,0,21,early0,779.8400953068319,11,2020-05-05,2020-05-19,109,2020-09-05,2020-09-19,2020-10-03,Harvested at Maturity.,1.0546666622161864,0.14666666587193808,4.483157914720084,3.9578946954325627,3.2472727515480733,NA,7.94285706111363,0,2.4570000261068343,0.17785714353833879,0.21000000437100727,1.0546666622161864,0.14666666587193808,4.483157914720084,3.9578946954325627,3.2472727515480733,NA,7.94285706111363,0,2.4570000261068343,0.17785714353833879,0.21000000437100727,23.118745040893554,19.50610415140788,21.856155345314427,19.83399305845562,20.417821190573953,NA,16.476057733808243,17.126172828674317,14.892000198364258,15.142246450696673,11.957981459299724,14.721333440144857,21.288333257039387,26.307105415745784,27.933684198479902,27.218181870200418,NA,26.85714312962123,29.35999984741211,23.602000045776368,18.307857036590576,20.079333305358887,7.929333406686783,16.382499933242798,19.534342191721265,22.06605271289223,20.59227273680947,NA,20.06285728727068,22.927999782562257,17.49700002670288,11.546785677517098,13.482000001271565,1.137333373228709,11.476666609446207,12.761578967696742,16.198421227304557,13.966363603418523,NA,13.26857144492013,16.4959997177124,11.392000007629395,4.785714318443622,6.884666697184245,1.743793684634318,6.382499933242798,6.994403745338561,9.441061952166566,9.731168345350472,NA,10.502926608358962,12.928738959466218,8.430480146517754,6.039222701765437,4.356149596365393,1.743793684634318,6.382499933242798,6.994403745338561,9.441061952166566,9.731168345350472,NA,10.502926608358962,12.928738959466218,8.430480146517754,6.039222701765437,4.356149596365393,0,0,265.7873423228653,445.1675194140301,659.2532230117405,NA,732.7737092702532,797.4174040675844,881.7222055327619,966.271323357478,966.271323357478,0,0,0.8054210565592114,0.9766578925283331,0.9491590933366255,NA,0.9105714389256069,1,0.7380999994277955,0.22449999749660493,0.01063333034515381,1,1,1,1,1,NA,1,0.9993515286971051,1,1,1,0.11163334210713705,0.6382499933242798,0.8054210565592114,0.9766578925283331,0.9491590933366255,NA,0.9105714389256069,1,0.7380999994277955,0.22449999749660493,0.41866666634877525,1,1,1,1,0.9999999999999999,NA,0.9999999999999999,1,0.9999999999999999,1,1,2020-05-05,2020-05-20,2020-05-26,2020-07-03,2020-07-22,NA,2020-08-13,2020-08-20,2020-08-25,2020-09-04,2020-09-18,2020-05-19,2020-05-25,2020-07-02,2020-07-21,2020-08-12,NA,2020-08-19,2020-08-24,2020-09-03,2020-09-17,2020-10-02,126,141,147,185,204,NA,226,233,238,248,262,15,6,38,19,22,0,7,5,10,14,15,140,146,184,203,225,NA,232,237,247,261,276
67,moorhead_mn,47.0062,-96.802,2020,2020-05-21,0,25,early0,821.8739592539793,11,2020-05-07,2020-05-21,98,2020-08-27,2020-09-06,2020-09-20,Harvested at Maturity.,0.753333314259847,0.6575000062584877,2.443999981880188,2.5735294538385727,5.3042856852213545,22.260000228881836,7.85999984741211,10.39857121876308,1.3550000190734863,3.2999999642372133,1.4466666539510091,0.753333314259847,0.6575000062584877,2.443999981880188,2.5735294538385727,5.3042856852213545,22.260000228881836,7.85999984741211,10.39857121876308,1.3550000190734863,3.2999999642372133,1.4466666539510091,22.066894912719725,18.589926719665527,22.263306617736816,19.858515963834876,20.048748243422736,13.386531829833984,17.172871971130373,18.20718683515276,15.702847003936768,14.937162017822265,14.709560585021972,16.599333381652833,23.522500038146973,27.438571439470564,29.679411944221048,27.429047629946755,27.260000228881836,27.756000137329103,27.68857138497489,29.630000114440918,24.26400032043457,19.02600008646647,10.078333351016044,18.358749985694885,20.475285673141478,23.844117753645953,21.060476121448335,21.90999984741211,21.715000057220458,20.90428570338658,23.36416681607564,18.073000192642212,12.351666696866353,3.557333320379257,13.194999933242798,13.511999906812395,18.00882356307086,14.691904612949918,16.559999465942383,15.673999977111816,14.120000021798269,17.09833351771037,11.882000064849855,5.6773333072662355,3.007644660301134,8.358749985694885,7.7299481493934135,10.72951555106667,9.786022842648245,11.689048602273775,11.79568921685963,11.109674512657948,13.312994040628274,8.873110749459864,3.171572076424559,3.007644660301134,8.358749985694885,7.7299481493934135,10.72951555106667,9.786022842648245,11.689048602273775,11.79568921685963,11.109674512657948,13.312994040628274,8.873110749459864,3.171572076424559,0,0,270.54818522876946,452.94994959690285,658.4564292925161,670.1454778947899,729.123923979088,806.8916455676937,886.7696098114633,975.500717306062,975.500717306062,0,0,0.876171430179051,1,0.9551904791877384,1,0.9922999954223632,0.9698571409497942,0.9991434236611623,0.780050015449524,0.04053333282470704,1,1,1,1,1,1,1,0.9991058195272116,0.9991434236611623,1,1,0.25453333973884584,0.8358749985694885,0.876171430179051,1,0.9551904791877384,1,0.9922999954223632,0.9698571409497942,1,0.780050015449524,0.28003333608309433,1,1,1,1,0.9999999999999999,1,0.9999999999999999,1,1,0.9999999999999999,1,2020-05-07,2020-05-22,2020-05-26,2020-06-30,2020-07-17,2020-08-07,2020-08-08,2020-08-13,2020-08-20,2020-08-26,2020-09-05,2020-05-21,2020-05-25,2020-06-29,2020-07-16,2020-08-06,2020-08-07,2020-08-12,2020-08-19,2020-08-25,2020-09-04,2020-09-19,128,143,147,182,199,220,221,226,233,239,249,15,4,35,17,21,1,5,7,6,10,15,142,146,181,198,219,220,225,232,238,248,263
68,shelly_mn,47.4264,-96.8317,2020,2020-05-20,0,9,early0,793.5268713650325,11,2020-05-06,2020-05-20,103,2020-08-31,2020-09-12,2020-09-26,Harvested at Maturity.,1.2106666405995687,0.45199999809265134,3.498333350651794,2.8466665859644613,3.9959090054035187,0,9.200000127156576,1.2239999771118164,0.45500001427717507,1.7491666475931804,0.590666667620341,1.2106666405995687,0.45199999809265134,3.498333350651794,2.8466665859644613,3.9959090054035187,0,9.200000127156576,1.2239999771118164,0.45500001427717507,1.7491666475931804,0.590666667620341,23.117123413085938,18.148058700561524,21.757390273941887,20.252306938171387,19.45870234749534,22.012950897216797,18.44157902399699,17.784748458862303,16.468828439712524,15.783270120620728,14.037071482340494,15.606000073750813,22.028000259399413,26.934722052680122,29.33888891008165,26.993636391379617,26.860000610351563,26.87999979654948,29.05399971008301,27.112500190734863,20.34333348274231,21.930666542053224,8.859666678061087,17.138000106811525,19.97069436642859,23.367222282621597,20.778863668441772,19.33500051498413,20.444999853769936,22.15499973297119,20.77937513589859,13.59125010172526,14.692666594187418,2.1133332823713618,12.247999954223634,13.006666680177053,17.39555565516154,14.564090945503928,11.8100004196167,14.009999910990397,15.255999755859376,14.446250081062317,6.839166720708211,7.4546666463216145,2.2707169731503725,7.138000106811523,7.311216585917081,10.335730994513474,9.734847009208877,9.33500051498413,10.684698446545005,12.348337429623603,10.97218175155893,6.954617398374838,5.079813012354573,2.2707169731503725,7.138000106811523,7.311216585917081,10.335730994513474,9.734847009208877,9.33500051498413,10.684698446545005,12.348337429623603,10.97218175155893,6.954617398374838,5.079813012354573,0,0,263.2037970930149,449.2469549942576,663.4135891968527,672.7485897118369,736.8567803911069,798.5984675392249,886.3759215516964,969.8313303321944,969.8313303321944,0,0,0.8392638852198919,1,0.9463181864131581,0.9335000514984132,0.9550833304723104,0.9779999923706055,0.9412500023841858,0.4256666734814644,0.01070000171661377,1,1,1,1,1,1,1,1,1,1,1,0.16479999621709188,0.7138000106811524,0.8392638852198919,1,0.9463181864131581,0.9335000514984132,0.9550833304723104,0.9779999923706055,0.9412500023841858,0.4256666734814644,0.4692666594187419,1,1,1,1,1,1,0.9999999999999999,1,0.9999999999999999,0.9999999999999999,1,2020-05-06,2020-05-21,2020-05-26,2020-07-01,2020-07-19,2020-08-10,2020-08-11,2020-08-17,2020-08-22,2020-08-30,2020-09-11,2020-05-20,2020-05-25,2020-06-30,2020-07-18,2020-08-09,2020-08-10,2020-08-16,2020-08-21,2020-08-29,2020-09-10,2020-09-25,127,142,147,183,201,223,224,230,235,243,255,15,5,36,18,22,1,6,5,8,12,15,141,146,182,200,222,223,229,234,242,254,269
69,wanatah_in,41.4444,-86.9437,2020,2020-05-28,1,10,early1,737.2394133020464,11,2020-05-14,2020-05-28,92,2020-08-28,2020-09-05,2020-09-19,Harvested at Maturity.,10.484666745861372,0,2.984827600676438,3.391874998807907,3.3388235774986885,0,1.778333306312561,0,0,1.479999989271164,3.237333364288012,10.484666745861372,0,2.984827600676438,3.391874998807907,3.3388235774986885,0,1.778333306312561,0,0,1.479999989271164,3.237333364288012,17.64184023539225,25.106166076660156,21.678470578686944,19.00736802816391,17.6454859901877,16.70621109008789,21.268365065256752,21.05766773223877,20.169054317474366,15.463445544242859,13.71037934621175,23.81000010172526,24.281999588012695,28.665517083529767,29.96874964237213,28.235294454237994,21.579999923706055,27.789999961853027,28.43500010172526,29.188000297546388,28.60249972343445,23.419333521525065,18.934000078837077,17.801999855041505,22.44275851085268,24.18718746304512,23.30058832729564,17.875,21.21499999364217,22.14833339055379,22.36200008392334,23.054374754428864,18.073000065485637,14.058000055948893,11.322000122070312,16.219999938175597,18.40562528371811,18.365882200353287,14.170000076293944,14.640000025431315,15.861666679382324,15.535999870300294,17.50624978542328,12.726666609446207,8.880458902684847,7.494856862956285,9.811279415771157,11.468290044657714,12.184388590662174,7.778899132761136,11.441998726312313,12.194220687619843,12.19712507572949,12.740041669613122,7.525714123989145,8.880458902684847,7.494856862956285,9.811279415771157,11.468290044657714,12.184388590662174,7.778899132761136,11.441998726312313,12.194220687619843,12.19712507572949,12.740041669613122,7.525714123989145,0,0,284.52710305736355,468.01974377188697,675.1543498131439,682.933248945905,751.5852413037788,824.7505654294979,946.7218161867928,1048.6421495436978,1048.6421495436978,0,0,0.964465512900517,1,1,0.7875000000000001,0.9386666774749757,1,0.9768999910354614,0.9878749966621398,0.058333333333333334,1,1,1,1,1,1,1,1,1,1,1,0.7649333413441977,0.6980999946594239,0.964465512900517,1,1,0.7875000000000001,0.9386666774749757,1,0.9768999910354614,0.9878749966621398,0.8035666735967001,1,1,1,1,0.9999999999999999,0.9999999999999998,0.9999999999999999,1,0.9999999999999999,1,1,2020-05-14,2020-05-29,2020-06-03,2020-07-02,2020-07-18,2020-08-04,2020-08-05,2020-08-11,2020-08-17,2020-08-27,2020-09-04,2020-05-28,2020-06-02,2020-07-01,2020-07-17,2020-08-03,2020-08-04,2020-08-10,2020-08-16,2020-08-26,2020-09-03,2020-09-18,135,150,155,184,200,217,218,224,230,240,248,15,5,29,16,17,1,6,6,10,8,15,149,154,183,199,216,217,223,229,239,247,262
70,westlafayette_in,40.4806,-87.004125,2020,2020-05-27,1,26,early1,717.6175829737917,11,2020-05-13,2020-05-27,90,2020-08-25,2020-09-01,2020-09-15,Harvested at Maturity.,4.9926668008168535,1.212499976158142,2.609642884560994,2.5943750590085983,3.5918749570846558,NA,5.245000064373016,2.866666634877523,0.16100000143051146,0.955714293888637,2.9066666920979816,4.9926668008168535,1.212499976158142,2.609642884560994,2.5943750590085983,3.5918749570846558,NA,5.245000064373016,2.866666634877523,0.16100000143051146,0.955714293888637,2.9066666920979816,17.24993101755778,21.060635089874268,22.486594200134277,20.09446531534195,18.304686427116394,NA,18.438540518283844,19.57563813527425,21.2692289352417,15.826086044311523,14.473214975992839,23.899333063761393,24.582499504089355,28.97000013078962,30.983749866485596,29.343124985694885,NA,25.0600004196167,29.094999631245933,28.2810001373291,30.222857339041575,26.558666610717772,18.676333117485047,19.31999981403351,22.33249999795641,24.864062428474426,23.963124990463257,NA,19.68187528848648,22.71666646003723,21.361499977111816,24.710714408329554,20.79300003051758,13.4533331712087,14.057500123977661,15.694999865123204,18.744374990463257,18.58312499523163,NA,14.303750157356262,16.338333288828533,14.441999816894532,19.198571477617538,15.027333450317382,8.769462860177756,9.319999814033508,9.96044986129873,11.98290107443682,12.73987973332474,NA,9.937678785041264,12.681950375439722,11.601479485832453,14.172061732746021,10.07766669591268,8.769462860177756,9.319999814033508,9.96044986129873,11.98290107443682,12.73987973332474,NA,9.937678785041264,12.681950375439722,11.601479485832453,14.172061732746021,10.07766669591268,0,0,278.8925961163645,470.61901330735367,674.4570890405495,NA,753.9585193208796,830.050221573518,946.0650164318424,1045.2694485610646,1045.2694485610646,0,0,0.9703928555761064,1,1,NA,0.9079375207424164,1,0.9757000017166138,0.9824285711560931,0.06666666666666667,1,1,1,1,1,NA,1,1,1,1,1,0.7528333226839702,0.837624990940094,0.9703928555761064,1,1,NA,0.9079375207424164,1,0.9757000017166138,0.9824285711560931,0.966966667175293,1,1,1,1,0.9999999999999999,NA,1,0.9999999999999999,1,1,1,2020-05-13,2020-05-28,2020-06-01,2020-06-29,2020-07-15,NA,2020-07-31,2020-08-08,2020-08-14,2020-08-24,2020-08-31,2020-05-27,2020-05-31,2020-06-28,2020-07-14,2020-07-30,NA,2020-08-07,2020-08-13,2020-08-23,2020-08-30,2020-09-14,134,149,153,181,197,NA,213,221,227,237,244,15,4,28,16,16,0,8,6,10,7,15,148,152,180,196,212,NA,220,226,236,243,258
71,williamston_mi,42.652,-84.326,2020,2020-05-28,1,27,early1,865.0398493527813,11,2020-05-14,2020-05-28,100,2020-09-05,2020-09-18,2020-10-02,Harvested at Maturity.,8.825999813278516,2.4139999389648437,2.1575757590207187,3.0388889147175684,2.6649999883439808,0,0.4883333444595337,0,6.428999936580658,4.410000095000634,1.5953333377838135,8.825999813278516,2.4139999389648437,2.1575757590207187,3.0388889147175684,2.6649999883439808,0,0.4883333444595337,0,6.428999936580658,4.410000095000634,1.5953333377838135,17.947719860076905,21.54550704956055,23.099341421416312,18.688010374704998,19.484296639760334,17.34246063232422,20.349210262298584,20.72315870012556,13.88428897857666,13.613229714907133,13.856053829193115,22.959333101908367,22.547999954223634,28.318181933778703,29.425000190734863,27.601666662428116,27.65999984741211,29.30666732788086,28.855714525495255,27.737999534606935,21.20538462125338,20.426666514078775,17.87566659450531,16.250000047683717,21.25515155358748,23.547777891159058,21.361944410536026,22.710000038146973,22.09333356221517,21.32428571156093,22.055999755859375,15.86461538534898,13.90066662033399,12.792000087102254,9.952000141143799,14.192121173396256,17.670555591583252,15.122222158643934,17.760000228881836,14.879999796549479,13.792856897626605,16.373999977111815,10.52384614944458,7.3746667265892025,7.984061018617154,6.678861589432954,8.597028719772913,10.897230630822964,10.665017457413247,12.71000003814697,12.126010842498143,11.512225789075238,12.037864333856106,7.188459696167249,4.403233118653099,7.984061018617154,6.678861589432954,8.597028719772913,10.897230630822964,10.665017457413247,12.71000003814697,12.126010842498143,11.512225789075238,12.037864333856106,7.188459696167249,4.403233118653099,0,0,283.7019477525061,479.8520991073195,671.8224133407582,684.5324133789052,757.288478433894,837.8740589574206,958.2527022959816,1051.702678346156,1051.702678346156,0,0,0.9155606132565123,1,0.9463611125946045,1,1,0.9368571417672293,0.9612499904632569,0.586461538534898,0.026166664759318038,1,1,1,1,1,1,1,1,1,1,1,0.6704666558901469,0.5800000047683717,0.9155606132565123,1,0.9463611125946045,1,1,0.9368571417672293,0.9612499904632569,0.586461538534898,0.3987666646639506,1,1,1,1,0.9999999999999999,1,0.9999999999999999,1,0.9999999999999999,1,1,2020-05-14,2020-05-29,2020-06-03,2020-07-06,2020-07-24,2020-08-11,2020-08-12,2020-08-18,2020-08-25,2020-09-04,2020-09-17,2020-05-28,2020-06-02,2020-07-05,2020-07-23,2020-08-10,2020-08-11,2020-08-17,2020-08-24,2020-09-03,2020-09-16,2020-10-01,135,150,155,188,206,224,225,231,238,248,261,15,5,33,18,18,1,6,7,10,13,15,149,154,187,205,223,224,230,237,247,260,275
72,rosemount_mn,44.707,-93.101,2020,2020-05-27,1,2,early1,828.9200987816198,11,2020-05-13,2020-05-27,102,2020-09-06,2020-09-20,2020-10-04,Harvested at Maturity.,10.395333250363668,0,5.83787880341212,2.2542104940665397,3.741666704416275,0,3.5285713332039967,2.0819999814033507,2.390833387772242,1.7907142426286424,0.51599999268849694,10.395333250363668,0,5.83787880341212,2.2542104940665397,3.741666704416275,0,3.5285713332039967,2.0819999814033507,2.390833387772242,1.7907142426286424,0.51599999268849694,16.71805648803711,24.247255325317383,21.056911728598855,19.458195033826325,18.888823297288685,22.583995819091797,16.83468328203474,18.240298080444337,15.172163089116413,13.029136623655047,11.97702039082845,21.02399991353353,24.289999771118165,28.09181820262562,28.39526316994115,27.067778057522244,27.93000030517578,26.751428604125977,29.336000061035158,26.40083344777425,18.46214280809675,19.964666748046874,16.469666584332785,17.770999908447266,22.161818171992447,23.00184212232891,21.45638902982076,20.730000019073486,21.179285798754012,23.013999938964844,21.06208336353302,13.500357142516545,14.76466671625773,11.915333255132039,11.252000045776366,16.23181814135927,17.60842107471667,15.845000002119276,13.529999732971191,15.607142993382045,16.69199981689453,15.723333279291788,8.53857147693634,9.564666684468587,6.640932803135713,7.637195498348474,8.676044858942038,10.059211379047015,10.461549427034258,10.730000019073488,11.24191112712196,12.871283579113483,11.192077705285946,6.64886772995506,5.2239287935145695,6.640932803135713,7.637195498348474,8.676044858942038,10.059211379047015,10.461549427034258,10.730000019073488,11.24191112712196,12.871283579113483,11.192077705285946,6.64886772995506,5.2239287935145695,0,0,286.3094803450872,477.43449654698054,665.7423862335971,676.4723862526706,755.1657641425244,819.5221820380918,953.8271145015232,1046.911262720894,1046.911262720894,0,0,0.9648030295516505,0.9803157881686562,0.9468055619133844,1,0.9777142865317209,1,0.8792500058809917,0.38603571653366087,0.017999998728434243,1,1,1,1,1,1,1,1,1,1,1,0.6205999986330668,0.7265000057220459,0.9648030295516505,0.9803157881686562,0.9468055619133844,1,0.9777142865317209,1,0.8792500058809917,0.38603571653366087,0.5059000062942505,1,1,1,1,0.9999999999999999,0.9999999999999996,1,1,0.9999999999999999,0.9999999999999999,1,2020-05-13,2020-05-28,2020-06-02,2020-07-05,2020-07-24,2020-08-11,2020-08-12,2020-08-19,2020-08-24,2020-09-05,2020-09-19,2020-05-27,2020-06-01,2020-07-04,2020-07-23,2020-08-10,2020-08-11,2020-08-18,2020-08-23,2020-09-04,2020-09-18,2020-10-03,134,149,154,187,206,224,225,232,237,249,263,15,5,33,19,18,1,7,5,12,14,15,148,153,186,205,223,224,231,236,248,262,277
73,waseca_mn,44.07345,-93.53225,2020,2020-05-27,1,8,early1,816.5754769498126,11,2020-05-13,2020-05-27,101,2020-09-05,2020-09-19,2020-10-03,Harvested at Maturity.,7.250000103314718,0.37799999713897703,4.952812487259507,1.2061111132303872,7.767000114917755,NA,5.885714394705636,4.731666564941407,5.436363669958982,2.8071428579943523,0.9619999806086222,7.250000103314718,0.37799999713897703,4.952812487259507,1.2061111132303872,7.767000114917755,NA,5.885714394705636,4.731666564941407,5.436363669958982,2.8071428579943523,0.9619999806086222,15.939823087056478,24.775291442871094,21.16863179206848,20.1728351910909,18.953375601768492,NA,18.241608892168315,18.954892953236897,15.047670277682217,13.141716582434517,12.90031328201294,20.654000027974448,24.563999938964844,28.490312576293945,28.888889100816513,26.495999908447267,NA,27.091428484235493,28.443333625793457,26.561818209561434,19.128571442195348,20.579333368937174,15.92000002861023,17.853999900817872,22.38921882212162,23.353055636088055,20.916249918937684,NA,21.16142851965768,22.026666800181072,21.12363641912287,14.080357159887042,14.928666704893113,11.186000029246012,11.1439998626709,16.288125067949295,17.817222171359592,15.3364999294281,NA,15.23142855507987,15.609999974568685,15.685454628684305,9.032142877578735,9.278000040849049,6.162472970669071,7.71202962906599,8.964283829853525,10.381860574782882,10.043802249437412,NA,11.264453389683792,12.130636303252974,11.199203079086542,6.9653572111808835,5.524692199276686,6.162472970669071,7.71202962906599,8.964283829853525,10.381860574782882,10.043802249437412,NA,11.264453389683792,12.130636303252974,11.199203079086542,6.9653572111808835,5.524692199276686,0,0,286.8570825553128,473.73057290140474,674.6066178901528,NA,753.4577916179394,826.2416094374573,949.4328433074091,1046.9478442639415,1046.9478442639415,0,0,0.9703437507152557,0.9932777749167548,0.9287999987602233,NA,0.9811428546905517,0.9735000054041545,0.8748636419122869,0.44082143136433194,0.004166665077209472,1,1,1,1,1,NA,1,1,1,1,1,0.5759333372116089,0.7286999988555909,0.9703437507152557,0.9932777749167548,0.9287999987602233,NA,0.9811428546905517,0.9735000054041545,0.8748636419122869,0.44082143136433194,0.5155333360036214,1,1,1,1,0.9999999999999999,NA,0.9999999999999999,1,1,1,1,2020-05-13,2020-05-28,2020-06-02,2020-07-04,2020-07-22,NA,2020-08-11,2020-08-18,2020-08-24,2020-09-04,2020-09-18,2020-05-27,2020-06-01,2020-07-03,2020-07-21,2020-08-10,NA,2020-08-17,2020-08-23,2020-09-03,2020-09-17,2020-10-02,134,149,154,186,204,NA,224,231,237,248,262,15,5,32,18,20,0,7,6,11,14,15,148,153,185,203,223,NA,230,236,247,261,276
74,urbana_il,40.05325,-88.23485,2020,2020-05-26,2,5,early2,922.4592590617232,11,2020-05-12,2020-05-26,98,2020-09-01,2020-09-08,2020-09-22,Harvested at Maturity.,6.509999983509382,1.0366667111714682,5.938571507377284,4.356190482775371,5.347999986012777,9.220000267028809,1.0637500286102295,0,0.32714286020823885,4.217142718178885,2.367333348592122,6.509999983509382,1.0366667111714682,5.938571507377284,4.356190482775371,5.347999986012777,9.220000267028809,1.0637500286102295,0,0.32714286020823885,4.217142718178885,2.367333348592122,18.491655604044595,19.787946701049805,23.193870476314,19.383133297874814,17.387187639872234,15.42558479309082,21.57189953327179,20.69840876261393,19.181371007646835,16.65081569126674,15.04823309580485,22.84133332570394,26.946666717529297,28.80857127053397,30.769523529779345,28.631333287556966,26.799999237060547,26.852500200271606,28.839999834696453,29.325714247567312,27.599999836512975,24.46866658528646,17.673000037670135,21.90333350499471,22.300892727715627,25.147856984819686,23.827333196004233,21.59999942779541,20.712500154972076,22.94500009218852,22.902857099260604,21.045714242117747,18.44699988365173,12.504666749636332,16.860000292460125,15.793214184897286,19.526190439860027,19.0233331044515,16.399999618530273,14.572500109672546,17.050000349680584,16.479999950953893,14.491428647722516,12.425333182017008,7.988786982547046,11.90333350499471,9.020858615405833,11.21677327867541,11.957987915998833,10.820148068550145,10.605419021558156,12.945000092188518,12.703050424323337,11.284768550969023,7.843960562684536,7.988786982547046,11.90333350499471,9.020858615405833,11.21677327867541,11.957987915998833,10.820148068550145,10.605419021558156,12.945000092188518,12.703050424323337,11.284768550969023,7.843960562684536,0,0,252.5840412313634,488.1362800835471,667.5060988235299,678.32624689208,763.1695990645453,840.8395996176764,1018.6823055582032,1097.6756854149862,1097.6756854149862,0,0,0.9705178618431092,1,1,1,0.9193750023841858,1,0.9813214302062988,0.9738571439470564,0.06666666666666667,1,1,1,1,1,1,1,1,1,1,1,0.6884666760762532,1,0.9705178618431092,1,1,1,0.9193750023841858,1,0.9813214302062988,0.9738571439470564,0.7810999949773153,1,1,1,1,0.9999999999999999,1,0.9999999999999999,1,1,0.9999999999999999,1,2020-05-12,2020-05-27,2020-05-30,2020-06-27,2020-07-18,2020-08-02,2020-08-03,2020-08-11,2020-08-17,2020-08-31,2020-09-07,2020-05-26,2020-05-29,2020-06-26,2020-07-17,2020-08-01,2020-08-02,2020-08-10,2020-08-16,2020-08-30,2020-09-06,2020-09-21,133,148,151,179,200,215,216,224,230,244,251,15,3,28,21,15,1,8,6,14,7,15,147,150,178,199,214,215,223,229,243,250,265
75,westlafayette_in,40.4806,-87.004125,2020,2020-05-27,2,26,early2,897.8805529854415,11,2020-05-13,2020-05-27,100,2020-09-04,2020-09-12,2020-09-26,Harvested at Maturity.,4.9926668008168535,1.212499976158142,2.609642884560994,2.4550000429153442,5.113529401666978,0,2.866666634877523,0.2300000020435878,1.4130769509535568,3.2237499952316284,0.4086666742960612,4.9926668008168535,1.212499976158142,2.609642884560994,2.4550000429153442,5.113529401666978,0,2.866666634877523,0.2300000020435878,1.4130769509535568,3.2237499952316284,0.4086666742960612,17.24993101755778,21.060635089874268,22.486594200134277,19.36043930053711,18.296820444219254,24.919139862060547,19.57563813527425,20.881776537214005,17.071865008427547,14.969910025596619,16.48258730570475,23.899333063761393,24.582499504089355,28.97000013078962,30.566363508051094,27.41941193973317,27.1200008392334,29.094999631245933,27.792857306344168,29.404615548940804,26.93374991416931,24.405999755859376,18.676333117485047,19.31999981403351,22.33249999795641,24.70272718776356,22.1058825044071,19.43000030517578,22.71666646003723,21.338571412222727,23.269615503457878,20.75125002861023,17.11933319568634,13.4533331712087,14.057500123977661,15.694999865123204,18.83909086747603,16.792353069081027,11.739999771118164,16.338333288828533,14.884285518101283,17.13461545797495,14.568750143051147,9.832666635513306,8.769462860177756,9.319999814033508,8.884428466944955,10.994970648433439,10.694147791675585,9.12699957388222,12.592560376992665,11.583140611116375,13.049347651471543,11.003739951208235,6.72466140902708,8.769462860177756,9.319999814033508,8.884428466944955,10.994970648433439,10.694147791675585,9.12699957388222,12.592560376992665,11.583140611116375,13.049347651471543,11.003739951208235,6.72466140902708,0,0,248.76399707445876,490.65335133999446,672.4538637984795,681.5808633723617,757.1362256343176,838.2182099121322,1007.8597293812624,1095.8896489909282,1095.8896489909282,0,0,0.9703928555761064,1,0.9600294197306913,0.9430000305175782,1,0.9652857167380197,0.9905384613917424,0.9634374976158142,0.06666666666666667,1,1,1,1,1,1,1,1,1,1,1,0.7528333226839702,0.837624990940094,0.9703928555761064,1,0.9600294197306913,0.9430000305175782,1,0.9652857167380197,0.9905384613917424,0.9634374976158142,0.6943999918301901,1,1,1,1,1,1,0.9999999999999999,0.9999999999999999,0.9999999999999999,1,1,2020-05-13,2020-05-28,2020-06-01,2020-06-29,2020-07-21,2020-08-07,2020-08-08,2020-08-14,2020-08-21,2020-09-03,2020-09-11,2020-05-27,2020-05-31,2020-06-28,2020-07-20,2020-08-06,2020-08-07,2020-08-13,2020-08-20,2020-09-02,2020-09-10,2020-09-25,134,149,153,181,203,220,221,227,234,247,255,15,4,28,22,17,1,6,7,13,8,15,148,152,180,202,219,220,226,233,246,254,269
76,williamston_mi,42.652,-84.326,2020,2020-05-28,2,27,early2,938.8011297254546,11,2020-05-14,2020-05-28,119,2020-09-24,2020-10-06,2020-10-20,Harvested at Maturity.,8.825999813278516,2.4139999389648437,2.1575757590207187,2.4720833574732146,2.721764690735761,0,0,5.922857012067523,3.485217457232268,2.1633333365122476,1.1479999701182046,8.825999813278516,2.4139999389648437,2.1575757590207187,2.4720833574732146,2.721764690735761,0,0,5.922857012067523,3.485217457232268,2.1633333365122476,1.1479999701182046,17.947719860076905,21.54550704956055,23.099341421416312,19.121756196022034,19.451932458316577,16.583208084106445,20.871356419154576,13.25933769771031,14.983500584312107,11.759730537732443,11.440622742970785,22.959333101908367,22.547999954223634,28.318181933778703,29.542916774749756,27.42647081262925,27.1200008392334,28.22428594316755,28.604285376412527,21.84434758061948,18.701666752497356,17.499333318074545,17.87566659450531,16.250000047683717,21.25515155358748,23.542916735013325,20.90911772671868,22.164999961853027,20.811428546905518,23.219999858311244,15.708478141090144,13.074166710178057,10.623666664958,12.792000087102254,9.952000141143799,14.192121173396256,17.542916695276897,14.391764640808105,17.209999084472656,13.398571150643486,17.83571434020996,9.572608701560808,7.446666667858759,3.748000011841456,7.984061018617154,6.678861589432954,7.53229361982283,10.105672397079797,10.198618419883326,12.164999961853027,11.118556964194774,12.985789965125493,7.5543990856515,6.6604412197450795,2.6617301257444668,7.984061018617154,6.678861589432954,7.53229361982283,10.105672397079797,10.198618419883326,12.164999961853027,11.118556964194774,12.985789965125493,7.5543990856515,6.6604412197450795,2.6617301257444668,0,0,248.56568945415336,491.1018269840684,664.478340122085,676.643340083938,754.4732388333014,845.3737685891798,1019.1249475591642,1099.050242196105,1099.050242196105,0,0,0.9155606132565123,1,0.9432058839236989,1,0.9368571417672293,0.9579999923706055,0.5602391237797945,0.3855416735013326,0,1,1,1,1,1,1,1,1,1,1,1,0.6704666558901469,0.5800000047683717,0.9155606132565123,1,0.9432058839236989,1,0.9368571417672293,0.9579999923706055,0.5602391237797945,0.3855416735013326,0.18610000133514407,1,1,1,1,0.9999999999999999,1,0.9999999999999999,0.9999999999999999,0.9999999999999999,0.9999999999999999,1,2020-05-14,2020-05-29,2020-06-03,2020-07-06,2020-07-30,2020-08-16,2020-08-17,2020-08-24,2020-08-31,2020-09-23,2020-10-05,2020-05-28,2020-06-02,2020-07-05,2020-07-29,2020-08-15,2020-08-16,2020-08-23,2020-08-30,2020-09-22,2020-10-04,2020-10-19,135,150,155,188,212,229,230,237,244,267,279,15,5,33,24,17,1,7,7,23,12,15,149,154,187,211,228,229,236,243,266,278,293
77,wooster_oh,40.7565,-81.9004,2020,2020-05-27,2,13,early2,940.1593052349853,11,2020-05-13,2020-05-27,106,2020-09-10,2020-09-19,2020-10-03,Harvested at Maturity.,4.22400000890096,3.6399999618530274,3.419032241067579,1.216956553251847,3.7793334166208905,0,2.541428659643446,0,6.943333148956299,0.7466666433546278,1.546666713555654,4.22400000890096,3.6399999618530274,3.419032241067579,1.216956553251847,3.7793334166208905,0,2.541428659643446,0,6.943333148956299,0.7466666433546278,1.546666713555654,19.130579058329264,20.237667655944822,21.759073103627852,20.540786287058953,18.272972329457602,23.25444793701172,19.248060498918804,21.41746575491769,14.835372225443523,14.898887952168783,14.922698148091634,23.916666666666668,22.035999679565432,27.61774198470577,30.771304089090098,27.700000127156574,31.920000076293945,28.671428680419922,28.608571461268834,27.386666742960614,23.978888829549152,20.94666633605957,17.959333316485086,16.35099992752075,21.09016135431105,24.367825943490732,22.008333333333333,24.079999923706055,22.57214287349156,21.063571453094482,21.56499996185303,18.145555522706772,14.281999826431274,12.001999966303508,10.666000175476075,14.56258072391633,17.964347797891367,16.31666653951009,16.239999771118164,16.472857066563197,13.51857144492013,15.743333180745443,12.312222215864393,7.617333316802979,8.262101349154909,6.762011800408363,8.01529270585495,10.90821690968294,10.918807590424569,13.21620670432155,12.412343118199328,11.419563255458218,11.661681191546123,9.052344677068458,4.79295276453803,8.262101349154909,6.762011800408363,8.01529270585495,10.90821690968294,10.918807590424569,13.21620670432155,12.412343118199328,11.419563255458218,11.661681191546123,9.052344677068458,4.79295276453803,0,0,248.4740738815035,499.36306280421127,663.1451766605799,676.3613833649014,763.2477851922966,843.1847279805042,1018.1099458536962,1099.581047947312,1099.581047947312,0,0,0.9407419404675884,1,0.9838333288828532,1,0.9965714250292097,0.9358571461268834,0.9519666639963786,0.7593888839085897,0.01800000031789144,1,1,1,1,1,1,1,1,1,1,1,0.7187333345413208,0.5922999858856202,0.9407419404675884,1,0.9838333288828532,1,0.9965714250292097,0.9358571461268834,0.9519666639963786,0.7593888839085897,0.4284333165486654,1,1,1,0.9999999999999999,1,1,0.9999999999999999,1,1,1,1,2020-05-13,2020-05-28,2020-06-02,2020-07-03,2020-07-26,2020-08-10,2020-08-11,2020-08-18,2020-08-25,2020-09-09,2020-09-18,2020-05-27,2020-06-01,2020-07-02,2020-07-25,2020-08-09,2020-08-10,2020-08-17,2020-08-24,2020-09-08,2020-09-17,2020-10-02,134,149,154,185,208,223,224,231,238,253,262,15,5,31,23,15,1,7,7,15,9,15,148,153,184,207,222,223,230,237,252,261,276
78,arthur_il,39.70646667,-88.47023333,2020,2020-05-26,3,14,early3,1000.9507775915554,11,2020-05-12,2020-05-26,107,2020-09-10,2020-09-16,2020-09-30,Harvested at Maturity.,6.846666701634725,3.300000031789144,3.2751723527908325,1.0009524027506511,7.110555648803711,0,2.1366666158040366,0.9312499761581421,1.7231249809265137,1.96833340326945,0.5586666742960612,6.846666701634725,3.300000031789144,3.2751723527908325,1.0009524027506511,7.110555648803711,0,2.1366666158040366,0.9312499761581421,1.7231249809265137,1.96833340326945,0.5586666742960612,17.40087496439616,17.219354311625164,22.611200661494813,20.079784393310547,17.32153820991516,24.635881423950195,19.831523577372234,20.980534076690674,16.424583971500397,12.875709215799967,16.214913813273114,23.045333480834962,26.663333257039387,29.067931010805328,31.039047513689315,27.97944450378418,25.110000610351563,29.32000054253472,28.386250257492065,29.34125006198883,25.75,23.817333348592122,18.013000043233237,22.081666628519695,22.82465515465572,25.537142821720668,23.257499986224705,18.295000076293945,23.486666944291855,21.663750052452087,23.444062530994415,21.206666707992554,16.625333388646443,12.98066660563151,17.5,16.58137929850611,20.035238129752024,18.53555546866523,11.479999542236328,17.653333346048992,14.94124984741211,17.546875,16.663333415985107,9.433333428700765,8.287380144408544,12.081666628519695,8.167786541178456,10.129078501555718,10.6499163421486,7.475392704828576,12.665221502861176,11.756138475063443,13.17913640775606,11.25511336025397,6.3071490172402065,8.287380144408544,12.081666628519695,8.167786541178456,10.129078501555718,10.6499163421486,7.475392704828576,12.665221502861176,11.756138475063443,13.17913640775606,11.25511336025397,6.3071490172402065,0,0,236.8658096941752,449.57645822684526,641.27495238552,648.7503450903486,762.737338616099,856.7864464166065,1067.6526289407034,1135.1833091022272,1135.1833091022272,0,0,0.9772068993798618,1,0.97911110719045,0.8295000076293946,1,0.9855000078678131,0.9842500030994416,0.984250005086263,0.058066663742065434,1,1,1,1,1,1,1,1,1,1,1,0.712033338546753,1,0.9772068993798618,1,0.97911110719045,0.8295000076293946,1,0.9855000078678131,0.9842500030994416,0.984250005086263,0.6549666706720988,1,1,1,1,0.9999999999999999,1,0.9999999999999999,0.9999999999999999,0.9999999999999999,1,1,2020-05-12,2020-05-27,2020-05-30,2020-06-28,2020-07-19,2020-08-06,2020-08-07,2020-08-16,2020-08-24,2020-09-09,2020-09-15,2020-05-26,2020-05-29,2020-06-27,2020-07-18,2020-08-05,2020-08-06,2020-08-15,2020-08-23,2020-09-08,2020-09-14,2020-09-29,133,148,151,180,201,219,220,229,237,253,259,15,3,29,21,18,1,9,8,16,6,15,147,150,179,200,218,219,228,236,252,258,273
79,urbana_il,40.05325,-88.23485,2020,2020-05-26,3,5,early3,1009.2277347043904,11,2020-05-12,2020-05-26,111,2020-09-14,2020-09-22,2020-10-06,Harvested at Maturity.,6.509999983509382,1.0366667111714682,5.998000068465869,4.148181812329725,4.000000025096693,NA,1.411111142900255,0,3.6344444023238287,0,0.8520000278949738,6.509999983509382,1.0366667111714682,5.998000068465869,4.148181812329725,4.000000025096693,NA,1.411111142900255,0,3.6344444023238287,0,0.8520000278949738,18.491655604044595,19.787946701049805,22.610854148864746,19.47235597263683,19.060636520385742,NA,19.60027578141954,21.13509750366211,14.957091331481934,17.220836520195007,14.567424456278482,22.84133332570394,26.946666717529297,28.840999857584634,30.82136344909668,27.298947183709394,NA,29.330000135633682,29.168749809265137,27.616111013624405,23.319999933242798,21.151999855041502,17.673000037670135,21.90333350499471,22.481833203633627,25.216363516720858,22.009473524595563,NA,23.361666838328045,22.17499989271164,22.075555509991116,16.44937488436699,14.110333263874054,12.504666749636332,16.860000292460125,16.122666549682616,19.611363584345035,16.71999986548173,NA,17.393333541022407,15.181249976158142,16.53500000635783,9.57874983549118,7.068666672706604,7.988786982547046,11.90333350499471,7.885023139653757,10.012147645882772,9.867591289240998,NA,12.77817555863596,11.958974347366393,12.109127236413293,8.06780398869887,4.66376965054964,7.988786982547046,11.90333350499471,7.885023139653757,10.012147645882772,9.867591289240998,NA,12.77817555863596,11.958974347366393,12.109127236413293,8.06780398869887,4.66376965054964,0,0,236.55069418961276,456.8179423990337,644.3021768946127,NA,759.3057569223363,854.9775517012674,1072.9418419567069,1137.484273866298,1137.484273866298,0,0,0.9724833377202352,1,0.966052632582815,NA,1,0.9794375002384186,0.9844444460339017,0.644937488436699,0.03713333447774251,1,1,1,1,1,NA,1,1,1,1,1,0.6884666760762532,1,0.9724833377202352,1,0.966052632582815,NA,1,0.9794375002384186,0.9844444460339017,0.644937488436699,0.4392666594187419,1,1,1,1,0.9999999999999999,NA,0.9999999999999999,0.9999999999999999,0.9999999999999999,1,1,2020-05-12,2020-05-27,2020-05-30,2020-06-29,2020-07-21,NA,2020-08-09,2020-08-18,2020-08-26,2020-09-13,2020-09-21,2020-05-26,2020-05-29,2020-06-28,2020-07-20,2020-08-08,NA,2020-08-17,2020-08-25,2020-09-12,2020-09-20,2020-10-05,133,148,151,181,203,NA,222,231,239,257,265,15,3,30,22,19,0,9,8,18,8,15,147,150,180,202,221,NA,230,238,256,264,279
80,romney_in,40.2364,-86.8889,2020,2020-05-27,3,15,early3,1000.6644593661622,11,2020-05-13,2020-05-27,114,2020-09-18,2020-09-26,2020-10-10,Harvested at Maturity.,4.132000033060709,0.9825000166893005,3.9570000489552815,4.433636318553578,5.3347368240356445,0,0.8599999745686849,0,1.8349999913945794,0,1.3639999985694886,4.132000033060709,0.9825000166893005,3.9570000489552815,4.433636318553578,5.3347368240356445,0,0.8599999745686849,0,1.8349999913945794,0,1.3639999985694886,17.91334908803304,20.828787088394165,21.76887712478638,19.147224643013693,19.105757085900557,17.185182571411133,20.306579271952312,19.069073268345424,15.089916086196899,17.72481906414032,13.387587420145671,23.867333030700685,24.630000114440918,28.983333269755047,30.36000009016557,27.72052634389777,27.079999923706055,28.037777582804363,30.499999727521622,26.819499969482422,23.300000190734863,21.366666793823242,18.62766637802124,19.426249980926514,22.503999964396158,24.576590819792315,22.057105214972246,22.600000381469727,21.765555381774902,23.918571267809188,20.996249890327455,15.210000023245811,14.029333418111007,13.387999725341796,14.22249984741211,16.024666659037273,18.793181549419057,16.393684086046722,18.1200008392334,15.493333180745443,17.33714280809675,15.172999811172486,7.11999985575676,6.692000042398771,8.777100851597785,9.426249980926514,7.8160081881475465,9.787695133960757,10.057541108535935,11.872832735597433,11.72740738762459,13.555262812294279,11.259431172719896,7.679013348426857,4.533381748556147,8.777100851597785,9.426249980926514,7.8160081881475465,9.787695133960757,10.057541108535935,11.872832735597433,11.72740738762459,13.555262812294279,11.259431172719896,7.679013348426857,4.533381748556147,0,0,234.48024564442645,449.8095385915631,640.9028196537457,652.7756523893431,758.3223188779644,853.2091585640244,1078.3977820184218,1139.8298888058366,1139.8298888058366,0,0,0.971950003306071,1,0.9682894782016152,1,0.9757777743869358,1,0.9446000003814697,0.5210000023245811,0.056066668828328454,1,1,1,1,1,1,1,1,1,1,1,0.7579666550954183,0.8461249828338624,0.971950003306071,1,0.9682894782016152,1,0.9757777743869358,1,0.9446000003814697,0.5210000023245811,0.4204333448410034,1,1,1,1,1,1,0.9999999999999999,0.9999999999999999,1,0.9999999999999999,1,2020-05-13,2020-05-28,2020-06-01,2020-07-01,2020-07-23,2020-08-11,2020-08-12,2020-08-21,2020-08-28,2020-09-17,2020-09-25,2020-05-27,2020-05-31,2020-06-30,2020-07-22,2020-08-10,2020-08-11,2020-08-20,2020-08-27,2020-09-16,2020-09-24,2020-10-09,134,149,153,183,205,224,225,234,241,261,269,15,4,30,22,19,1,9,7,20,8,15,148,152,182,204,223,224,233,240,260,268,283
81,wanatah_in,41.4444,-86.9437,2020,2020-05-28,3,10,early3,1105.631519123574,11,2020-05-14,2020-05-28,122,2020-09-27,2020-10-08,2020-10-22,Harvested at Maturity.,10.484666745861372,0,2.705000013113022,3.4134782756800237,2.3994444608688354,0,0,1.479999989271164,2.0233333526800075,2.5272727012634277,2.1673333068688714,10.484666745861372,0,2.705000013113022,3.4134782756800237,2.3994444608688354,0,0,1.479999989271164,2.0233333526800075,2.5272727012634277,2.1673333068688714,17.64184023539225,25.106166076660156,21.75287702679634,18.040399012358293,19.645815001593697,21.18796157836914,20.679657830132378,15.74374532699585,15.050963759422302,11.252808267419988,10.623079744974772,23.81000010172526,24.281999588012695,28.92749983072281,29.290434712949008,27.387777858310276,29.950000762939453,28.465555826822918,29.288749933242798,24.097083409627277,17.889999823136762,18.85666675567627,18.934000078837077,17.801999855041505,22.688906148076057,23.95369564968607,21.610555595821804,23.414999961853027,21.609444618225098,23.718749821186066,17.82250002026558,12.359545350074768,12.319666702548663,14.058000055948893,11.322000122070312,16.450312465429306,18.61695658642313,15.833333333333334,16.8799991607666,14.75333340962728,18.148749709129333,11.54791663090388,6.8290908770127725,5.782666649421056,8.880458902684847,7.494856862956285,7.497029008283927,9.404196954658625,10.039524383760794,12.972431663646605,11.537096048456053,13.229949272596835,8.872581579127038,6.167375971940431,3.3317325296533356,8.880458902684847,7.494856862956285,7.497029008283927,9.404196954658625,10.039524383760794,12.972431663646605,11.537096048456053,13.229949272596835,8.872581579127038,6.167375971940431,3.3317325296533356,0,0,239.90492826508572,456.201458222234,636.9128971299284,649.885328793575,753.7191932296795,859.5587874104542,1072.5007453095031,1140.3418810008477,1140.3418810008477,0,0,0.9677968710660935,1,0.9677500036027696,1,0.9743333233727349,0.9878749966621398,0.7531041711568833,0.274090896953236,0.03839999834696452,1,1,1,1,1,1,1,1,1,1,1,0.7649333413441977,0.6980999946594239,0.9677968710660935,1,0.9677500036027696,1,0.9743333233727349,0.9878749966621398,0.7531041711568833,0.274090896953236,0.2958999991416931,1,1,1,0.9999999999999999,0.9999999999999999,1,1,1,1,1,1,2020-05-14,2020-05-29,2020-06-03,2020-07-05,2020-07-28,2020-08-15,2020-08-16,2020-08-25,2020-09-02,2020-09-26,2020-10-07,2020-05-28,2020-06-02,2020-07-04,2020-07-27,2020-08-14,2020-08-15,2020-08-24,2020-09-01,2020-09-25,2020-10-06,2020-10-21,135,150,155,187,210,228,229,238,246,270,281,15,5,32,23,18,1,9,8,24,11,15,149,154,186,209,227,228,237,245,269,280,295
82,westlafayette_in,40.4806,-87.004125,2020,2020-05-27,3,26,early3,1070.7290520113268,11,2020-05-13,2020-05-27,115,2020-09-19,2020-09-27,2020-10-11,Harvested at Maturity.,4.9926668008168535,1.212499976158142,2.82354841309209,2.4336363944140347,5.007777770360311,0,0.16100000143051146,0.955714293888637,2.180000019073486,0,1.2773333390553792,4.9926668008168535,1.212499976158142,2.82354841309209,2.4336363944140347,5.007777770360311,0,0.16100000143051146,0.955714293888637,2.180000019073486,0,1.2773333390553792,17.24993101755778,21.060635089874268,21.90804970648981,19.43162475932728,18.976574606365627,17.457550048828125,21.226963424682616,17.33475617000035,15.189785051345824,17.623522758483887,12.906312783559164,23.899333063761393,24.582499504089355,29.16096785760695,30.249999913302336,27.64055569966634,27.06999969482422,28.03400001525879,31.218571526663645,26.30999994277954,23.831249713897705,21.08933334350586,18.676333117485047,19.31999981403351,22.634032264832527,24.489545345306396,21.832222355736626,22.449999809265137,21.412999963760377,25.010714326586044,20.309250020980834,15.466249868273735,13.930333318312963,13.4533331712087,14.057500123977661,16.107096672058105,18.729090777310457,16.02388901180691,17.829999923706055,14.791999912261963,18.80285712650844,14.30850009918213,7.101250022649765,6.771333293120066,8.769462860177756,9.319999814033508,7.797249940100013,9.708909788340144,9.88160198439571,11.68418351329379,11.437702549168593,14.431228786336526,10.658536356732846,7.921548324774392,4.446990777950287,8.769462860177756,9.319999814033508,7.797249940100013,9.708909788340144,9.88160198439571,11.68418351329379,11.437702549168593,14.431228786336526,10.658536356732846,7.921548324774392,4.446990777950287,0,0,241.71474814310045,455.3107634865837,633.1795992057062,644.8637827189999,759.2408082106858,860.2594097150416,1073.4301368496983,1136.8025234478937,1136.8025234478937,0,0,0.9732580631009994,1,0.9590833425521851,1,0.9757000017166138,1,0.9313749980926513,0.5466249868273736,0.05513333320617676,1,1,1,1,1,1,1,1,1,1,1,0.7528333226839702,0.837624990940094,0.9732580631009994,1,0.9590833425521851,1,0.9757000017166138,1,0.9313749980926513,0.5466249868273736,0.4116666618982951,1,1,1,1,0.9999999999999999,1,0.9999999999999999,1,1,0.9999999999999999,1,2020-05-13,2020-05-28,2020-06-01,2020-07-02,2020-07-24,2020-08-11,2020-08-12,2020-08-22,2020-08-29,2020-09-18,2020-09-26,2020-05-27,2020-05-31,2020-07-01,2020-07-23,2020-08-10,2020-08-11,2020-08-21,2020-08-28,2020-09-17,2020-09-25,2020-10-10,134,149,153,184,206,224,225,235,242,262,270,15,4,31,22,18,1,10,7,20,8,15,148,152,183,205,223,224,234,241,261,269,284
83,columbia_mo,38.8894,-92.2081,2020,2020-05-24,3,17,early3,921.8182934208731,11,2020-05-10,2020-05-24,102,2020-09-03,2020-09-08,2020-09-22,Harvested at Maturity.,2.8999999582767484,9.319999853769938,6.274285571915763,1.6384999632835389,6.052000013987223,2.190000057220459,3.0140000104904177,6.341428688594273,2.7187499762512743,0,5.237333297729492,2.8999999582767484,9.319999853769938,6.274285571915763,1.6384999632835389,6.052000013987223,2.190000057220459,3.0140000104904177,6.341428688594273,2.7187499762512743,0,5.237333297729492,17.370908355712892,14.402391751607258,21.878214768001012,19.77212076187134,18.271746762593587,8.971041679382324,17.85633020401001,18.685236522129603,18.270898640155792,18.319783782958986,14.618548774719239,20.812666575113933,27.246666590372723,28.606785706111364,31.425999927520753,31.308666483561197,26.88999938964844,26.947000122070314,30.421428407941544,29.449999928474426,29.568000030517577,24.471999994913737,16.424333238601683,22.790000279744465,22.917678628649032,26.145999908447266,26.32566655476888,24.239999771118164,22.109500026702882,25.017142908913748,23.700937509536743,23.160000038146972,19.302666759490968,12.035999902089436,18.33333396911621,17.228571551186697,20.86599988937378,21.342666625976563,21.59000015258789,17.27199993133545,19.61285740988595,17.95187509059906,16.752000045776366,14.133333524068197,6.781706559072932,12.790000279744467,8.635511287990504,10.558285612179777,12.16507038449605,12.143168902901843,10.94973483534056,14.327303776306058,13.03701614074856,13.043388376566172,8.201360359694164,6.781706559072932,12.790000279744467,8.635511287990504,10.558285612179777,12.16507038449605,12.143168902901843,10.94973483534056,14.327303776306058,13.03701614074856,13.043388376566172,8.201360359694164,0,0,241.79431606373416,452.96002830732976,635.4360840747706,647.5792529776725,757.0766013310781,857.3677277652204,1065.9599860171977,1131.1769279000284,1131.1769279000284,0,0,0.9844999977520534,1,1,1,0.9771000003814697,1,1,1,0.06666666666666667,1,1,1,1,1,1,1,1,1,1,1,0.6110666592915853,1,0.9844999977520534,1,1,1,0.9771000003814697,1,1,1,0.8602000045776368,1,1,1,1,0.9999999999999999,0.9999999999999998,0.9999999999999999,0.9999999999999999,0.9999999999999999,1,1,2020-05-10,2020-05-25,2020-05-28,2020-06-25,2020-07-15,2020-07-30,2020-07-31,2020-08-10,2020-08-17,2020-09-02,2020-09-07,2020-05-24,2020-05-27,2020-06-24,2020-07-14,2020-07-29,2020-07-30,2020-08-09,2020-08-16,2020-09-01,2020-09-06,2020-09-21,131,146,149,177,197,212,213,223,230,246,251,15,3,28,20,15,1,10,7,16,5,15,145,148,176,196,211,212,222,229,245,250,265
84,wooster_oh,40.7565,-81.9004,2020,2020-05-27,3,13,early3,1116.189207276762,11,2020-05-13,2020-05-27,124,2020-09-28,2020-10-08,2020-10-22,Harvested at Maturity.,4.22400000890096,3.6399999618530274,3.117352925679263,2.091818245974454,2.274117680156932,0,1.779000061750412,6.547777626249525,2.1641665995121,2.7640000760555266,3.001999918619792,4.22400000890096,3.6399999618530274,3.117352925679263,2.091818245974454,2.274117680156932,0,1.779000061750412,6.547777626249525,2.1641665995121,2.7640000760555266,3.001999918619792,19.130579058329264,20.237667655944822,22.04768363167258,19.77650087529963,18.946379521313837,20.26630210876465,20.19180507659912,14.615632269117567,15.818771044413248,12.019879627227784,9.761045376459757,23.916666666666668,22.035999679565432,28.013823621413287,30.681363365866922,27.897058823529413,31.530000686645508,27.90300006866455,28.430000093248157,23.676666577657063,18.415999698638917,18.497333399454753,17.959333316485086,16.35099992752075,21.370147144093234,24.455908927050505,22.021470518673166,25.100000381469727,20.98300004005432,22.547777705722385,17.163749943176906,12.829499852657317,12.866000002622604,12.001999966303508,10.666000175476075,14.72647066677318,18.230454488234088,16.145882213816922,18.670000076293945,14.063000011444093,16.665555318196613,10.650833308696747,7.24300000667572,7.234666605790456,8.262101349154909,6.762011800408363,6.993226482396845,9.874953450977538,10.429187115827094,14.036653712261842,11.199844945007179,12.490258779434363,8.701206228685068,6.174652338137776,3.4733224280251314,8.262101349154909,6.762011800408363,6.993226482396845,9.874953450977538,10.429187115827094,14.036653712261842,11.199844945007179,12.490258779434363,8.701206228685068,6.174652338137776,3.4733224280251314,0,0,237.7697004014928,455.01867632299866,632.3148572920593,646.3515110043211,758.3499604543929,870.7622894693022,1079.5912389577438,1141.3377623391216,1141.3377623391216,0,0,0.9459705927792718,1,0.9857352901907528,1,0.9526999998092651,0.9766111108991835,0.6721666584412257,0.2977499878406525,0.03736666520436605,1,1,1,1,1,1,1,1,1,1,1,0.7187333345413208,0.5922999858856202,0.9459705927792718,1,0.9857352901907528,1,0.9526999998092651,0.9766111108991835,0.6721666584412257,0.2977499878406525,0.33360000133514406,1,1,1,0.9999999999999999,0.9999999999999999,1,1,1,0.9999999999999999,1,1,2020-05-13,2020-05-28,2020-06-02,2020-07-06,2020-07-28,2020-08-14,2020-08-15,2020-08-25,2020-09-03,2020-09-27,2020-10-07,2020-05-27,2020-06-01,2020-07-05,2020-07-27,2020-08-13,2020-08-14,2020-08-24,2020-09-02,2020-09-26,2020-10-06,2020-10-21,134,149,154,188,210,227,228,238,247,271,281,15,5,34,22,17,1,10,9,24,10,15,148,153,187,209,226,227,237,246,270,280,295
85,flora_il,38.702763,-88.518259,2020,2020-05-24,4,18,early4,1413.7795748522651,11,2020-05-10,2020-05-24,128,2020-09-29,2020-10-05,2020-10-19,Harvested at Maturity.,4.757333342234293,4.803333441416423,3.2694286142076763,7.270909016782587,6.656363595615733,0,0,0.7220000088214874,0.6217391387276028,1.0049999753634136,3.431999905904134,4.757333342234293,4.803333441416423,3.2694286142076763,7.270909016782587,6.656363595615733,0,0,0.7220000088214874,0.6217391387276028,1.0049999753634136,3.431999905904134,17.812244129180907,15.838404973347982,20.907454572405133,19.57900619506836,17.97123908996582,19.413341522216797,20.774359130859374,15.601910495758057,16.66100672016973,13.818096796671549,13.398252518971761,21.76466655731201,28.106667200724285,29.544285692487446,32.14181795987216,28.93000013178045,31.049999237060547,30.12299919128418,28.72199993133545,26.833913139674973,20.136666933695476,23.6673334757487,16.63700000445048,23.423333485921223,23.433142811911445,26.179772593758322,23.58386364850131,25.489999771118164,23.57249960899353,23.603499937057496,19.910869598388672,13.606666843096416,15.038000068441034,11.50933345158895,18.739999771118164,17.321999931335448,20.217727227644488,18.237727165222168,19.93000030517578,17.02200002670288,18.48499994277954,12.98782605710237,7.076666752497355,6.408666661133369,7.089794766025643,13.331515446658932,7.431004721449233,9.441608665814876,10.731807448742309,14.177160575297252,12.821387825804583,13.498809206712842,10.56171787039223,6.527861063547929,6.154600727301749,7.089794766025643,13.331515446658932,7.431004721449233,9.441608665814876,10.731807448742309,14.177160575297252,12.821387825804583,13.498809206712842,10.56171787039223,6.527861063547929,6.154600727301749,0,0,260.08516525072315,467.8005558986504,703.900319770981,718.0774803462783,846.2913586043242,981.2794506714524,1224.1989616904737,1263.3661280717613,1263.3661280717613,0,0,0.9906285721915109,1,0.9904318180951205,1,1,1,0.8616521752398947,0.36066668430964155,0.0021333328882853194,1,1,1,1,1,1,1,1,1,1,1,0.6262333345413208,1,0.9906285721915109,1,0.9904318180951205,1,1,1,0.8616521752398947,0.36066668430964155,0.5062666626771292,1,1,1,0.9999999999999999,0.9999999999999999,1,1,0.9999999999999999,1,1,1,2020-05-10,2020-05-25,2020-05-28,2020-07-02,2020-07-24,2020-08-15,2020-08-16,2020-08-26,2020-09-05,2020-09-28,2020-10-04,2020-05-24,2020-05-27,2020-07-01,2020-07-23,2020-08-14,2020-08-15,2020-08-25,2020-09-04,2020-09-27,2020-10-03,2020-10-18,131,146,149,184,206,228,229,239,249,272,278,15,3,35,22,22,1,10,10,23,6,15,145,148,183,205,227,228,238,248,271,277,292
86,romney_in,40.2364,-86.8889,2020,2020-05-27,4,15,early4,1433.692416192566,11,2020-05-13,2020-05-27,150,2020-10-24,2020-10-31,2020-11-14,Harvested at Maturity.,4.132000033060709,0.9825000166893005,3.6061538671835875,5.891666650772095,1.8830434550409731,NA,0.8154545280743729,2.133076924544114,2.3205882854321422,1.9257142458643233,0.2300000031789144,4.132000033060709,0.9825000166893005,3.6061538671835875,5.891666650772095,1.8830434550409731,NA,0.8154545280743729,2.133076924544114,2.3205882854321422,1.9257142458643233,0.2300000031789144,17.91334908803304,20.828787088394165,21.493684499691696,17.941618223985035,20.521009611046832,NA,16.340177796103738,14.108795386094313,12.994830103481517,4.8563209261213025,9.040045070648194,23.867333030700685,24.630000114440918,29.71564097282214,28.74833345413208,28.13565204454505,NA,28.128181630914863,25.40461540222168,21.167941345888025,11.970000198909215,16.82599992752075,18.62766637802124,19.426249980926514,23.28282043261406,23.45874998966853,21.668478157209314,NA,22.329090681943025,19.704999960385837,13.785000089117709,8.900714431490217,9.99499994541208,13.387999725341796,14.22249984741211,16.849999892405975,18.16916652520498,15.201304269873578,NA,16.52999973297119,14.005384518549993,6.402058832347393,5.831428664071219,3.163999963303407,8.777100851597785,9.426249980926514,6.766452335168759,8.785637663440895,10.403239073222709,NA,12.42657254713286,10.240309459120036,7.1840607747902165,5.502715011111327,3.1812686622565987,8.777100851597785,9.426249980926514,6.766452335168759,8.785637663440895,10.403239073222709,NA,12.42657254713286,10.240309459120036,7.1840607747902165,5.502715011111327,3.1812686622565987,0,0,263.8916410715816,474.74694499416313,714.0214436782851,NA,850.7137416967465,983.8377646653068,1228.0958310081744,1266.6148360859536,1266.6148360859536,0,0,0.9784230794662084,0.9995208342870077,0.9648260883663011,NA,0.9670000032945113,0.8693461491511418,0.4080000088495367,0.11107143674577986,0,1,1,1,1,1,NA,1,1,1,1,1,0.7579666550954183,0.8461249828338624,0.9784230794662084,0.9995208342870077,0.9648260883663011,NA,0.9670000032945113,0.8693461491511418,0.4080000088495367,0.11107143674577986,0.2709999990463257,1,1,1,1,1,NA,0.9999999999999999,1,1,1,1,2020-05-13,2020-05-28,2020-06-01,2020-07-10,2020-08-03,NA,2020-08-26,2020-09-06,2020-09-19,2020-10-23,2020-10-30,2020-05-27,2020-05-31,2020-07-09,2020-08-02,2020-08-25,NA,2020-09-05,2020-09-18,2020-10-22,2020-10-29,2020-11-13,134,149,153,192,216,NA,239,250,263,297,304,15,4,39,24,23,0,11,13,34,7,15,148,152,191,215,238,NA,249,262,296,303,318
87,westlafayette_in,40.4806,-87.004125,2020,2020-05-27,4,26,early4,1486.4216168284393,11,2020-05-13,2020-05-27,152,2020-10-26,2020-11-03,2020-11-17,Harvested at Maturity.,4.9926668008168535,1.212499976158142,2.4694872055298243,4.708000020980835,0.854999991980466,0,2.4645454666831275,1.6557143075125558,1.926176467362572,0.8612499982118607,2.414666684468587,4.9926668008168535,1.212499976158142,2.4694872055298243,4.708000020980835,0.854999991980466,0,2.4645454666831275,1.6557143075125558,1.926176467362572,0.8612499982118607,2.414666684468587,17.24993101755778,21.060635089874268,21.759336300385304,18.022097263336182,20.859479904174805,16.621286392211914,15.834359429099344,14.771537372044154,12.257961693932028,6.286689966917038,8.591685803731282,23.899333063761393,24.582499504089355,29.830256437643982,28.578800048828125,28.259545586325906,31.799999237060547,27.826363650235262,24.561428478785924,20.75705878874835,9.8262500166893,16.859333515167236,18.676333117485047,19.31999981403351,23.329999984839024,23.248600006103516,21.608636379241943,26.15999984741211,21.73181824250655,18.484999988760265,13.605882344000479,5.973125011660159,9.651000132163366,13.4533331712087,14.057500123977661,16.82974353203407,17.918399963378906,14.95772717215798,20.520000457763672,15.637272834777832,12.408571498734611,6.454705899252611,2.1200000066310167,2.442666749159495,8.769462860177756,9.319999814033508,6.672215747973448,8.626210387786067,10.364158696796236,15.316331364822387,11.929221054334532,9.518668079951086,7.118061897133444,5,3.1198404033085207,8.769462860177756,9.319999814033508,6.672215747973448,8.626210387786067,10.364158696796236,15.316331364822387,11.929221054334532,9.518668079951086,7.118061897133444,5,3.1198404033085207,0,0,260.21641417096447,475.8716738656162,703.8831651951333,719.1994965599557,850.4209281576354,983.6822812769506,1225.696385779488,1265.696385779488,1265.696385779488,0,0,0.9787435886187431,0.9988800010681153,0.9567500071092085,1,0.9622272708199241,0.7832857123443059,0.3985735265647664,0,0,1,1,1,1,1,1,1,1,1,1,1,0.7528333226839702,0.837624990940094,0.9787435886187431,0.9988800010681153,0.9567500071092085,1,0.9622272708199241,0.7832857123443059,0.3985735265647664,0,0.26576667467753096,1,1,1,1,1,1,0.9999999999999999,1,1,1,1,2020-05-13,2020-05-28,2020-06-01,2020-07-10,2020-08-04,2020-08-26,2020-08-27,2020-09-07,2020-09-21,2020-10-25,2020-11-02,2020-05-27,2020-05-31,2020-07-09,2020-08-03,2020-08-25,2020-08-26,2020-09-06,2020-09-20,2020-10-24,2020-11-01,2020-11-16,134,149,153,192,217,239,240,251,265,299,307,15,4,39,25,22,1,11,14,34,8,15,148,152,191,216,238,239,250,264,298,306,321
88,columbia_mo,38.8894,-92.2081,2020,2020-05-24,4,17,early4,1435.297351657926,11,2020-05-10,2020-05-24,129,2020-09-30,2020-10-07,2020-10-21,Harvested at Maturity.,2.8999999582767484,9.319999853769938,5.7457141535622736,3.5695454640821977,4.586666708900815,0,0,4.833333291113377,3.8687999725341795,0.1528571503502982,1.0346666653951009,2.8999999582767484,9.319999853769938,5.7457141535622736,3.5695454640821977,4.586666708900815,0,0,4.833333291113377,3.8687999725341795,0.1528571503502982,1.0346666653951009,17.370908355712892,14.402391751607258,20.87645220075335,20.187474554235283,17.33050164722261,18.872116088867188,21.52389144897461,14.629319614834255,15.333553123474122,14.891921315874372,12.139165051778157,20.812666575113933,27.246666590372723,28.876857158115932,31.780908931385387,29.03952371506464,30.690000534057617,30.021818161010742,28.558888753255207,25.146000061035156,18.392857142857142,22.090666643778484,16.424333238601683,22.790000279744465,23.393857192993163,26.39818169853904,24.208095187232608,25.76500034332275,23.46909102526578,23.84333324432373,19.518000087738038,12.314285721097674,15.229333329200745,12.035999902089436,18.33333396911621,17.910857227870395,21.015454465692695,19.376666659400577,20.84000015258789,16.91636388952082,19.127777735392254,13.890000114440918,6.235714299338205,8.368000014623005,6.781706559072932,12.790000279744467,7.431523407769949,9.59037369922372,11.040123697988776,14.344332277358196,12.540191249456674,13.450061352451641,9.857033334745646,5.8616600148200995,5.829900507276356,6.781706559072932,12.790000279744467,7.431523407769949,9.59037369922372,11.040123697988776,14.344332277358196,12.540191249456674,13.450061352451641,9.857033334745646,5.8616600148200995,5.829900507276356,0,0,260.10331927194824,471.0915406548702,702.9341383126344,717.2784705899926,855.220574334016,976.2711265060808,1222.696959874722,1263.728579978463,1263.728579978463,0,0,0.9875999982016427,1,0.9890952382768904,1,1,1,0.8665600051879884,0.2314285721097674,0.040033334096272785,1,1,1,1,1,1,1,1,1,1,1,0.6110666592915853,1,0.9875999982016427,1,0.9890952382768904,1,1,1,0.8665600051879884,0.2314285721097674,0.5440666683514913,1,1,1,1,0.9999999999999999,1,1,1,1,0.9999999999999999,1,2020-05-10,2020-05-25,2020-05-28,2020-07-02,2020-07-24,2020-08-14,2020-08-15,2020-08-26,2020-09-04,2020-09-29,2020-10-06,2020-05-24,2020-05-27,2020-07-01,2020-07-23,2020-08-13,2020-08-14,2020-08-25,2020-09-03,2020-09-28,2020-10-05,2020-10-20,131,146,149,184,206,227,228,239,248,273,280,15,3,35,22,21,1,11,9,25,7,15,145,148,183,205,226,227,238,247,272,279,294
89,portagevilleclay_mo,36.3987,-88.6051,2020,2020-05-17,4,19,early4,1291.2524823729614,11,2020-05-03,2020-05-17,116,2020-09-10,2020-09-13,2020-09-27,Harvested at Maturity.,7.559333308537801,1.9749999940395355,2.671935519864482,8.658182035792958,3.874500095844269,0,6.232999992370606,1.709000015258789,6.693125054240227,0,1.3860000212987265,7.559333308537801,1.9749999940395355,2.671935519864482,8.658182035792958,3.874500095844269,0,6.232999992370606,1.709000015258789,6.693125054240227,0,1.3860000212987265,17.65772450764974,15.423014879226685,21.154695910792196,18.677378957921807,17.49407639503479,21.875438690185547,18.493658828735352,19.263002586364745,14.841109216213226,19.07674789428711,14.580298773447673,22.044666481018066,22.59499979019165,29.35548382420694,31.380454410206188,32.09199981689453,30.170000076293945,30.215999794006347,29.780000114440917,29.833750247955322,31.843333562215168,24.982000096639,16.179666546980542,18.424999833106995,23.37677421877461,25.996590917760674,26.964249897003175,24.22000026702881,24.6104998588562,24.176500225067137,24.72062513232231,24.895000139872234,19.95033327738444,10.314666612943013,14.254999876022339,17.398064613342285,20.612727425315164,21.836499977111817,18.270000457763672,19.004999923706055,18.573000335693358,19.6075000166893,17.946666717529297,14.918666458129882,6.766281031578183,8.424999833106995,8.448568140925255,9.717649987391601,11.822112629916257,12.067431444503883,12.65950011632166,13.85046268398058,14.360235834541545,14.136286601201693,9.038666598002116,6.766281031578183,8.424999833106995,8.448568140925255,9.717649987391601,11.822112629916257,12.067431444503883,12.65950011632166,13.85046268398058,14.360235834541545,14.136286601201693,9.038666598002116,0,0,261.9056123686829,475.69391209129816,712.1361646896232,724.2035961341271,850.7985972973436,989.3032241371492,1219.066997489814,1261.475857293419,1261.475857293419,0,0,0.9984354849784605,1,1,1,1,1,1,1,0.06666666666666667,1,1,1,1,1,1,1,1,1,1,1,0.5557333246866862,0.8424999833106995,0.9984354849784605,1,1,1,1,1,1,1,0.8555999946594238,1,1,1,0.9999999999999999,1,1,1,1,1,1,1,2020-05-03,2020-05-18,2020-05-22,2020-06-22,2020-07-14,2020-08-03,2020-08-04,2020-08-14,2020-08-24,2020-09-09,2020-09-12,2020-05-17,2020-05-21,2020-06-21,2020-07-13,2020-08-02,2020-08-03,2020-08-13,2020-08-23,2020-09-08,2020-09-11,2020-09-26,124,139,143,174,196,216,217,227,237,253,256,15,4,31,22,20,1,10,10,16,3,15,138,142,173,195,215,216,226,236,252,255,270
90,portagevilleloam_mo,36.39516667,-89.6102,2020,2020-05-17,4,20,early4,1236.3057077467056,11,2020-05-03,2020-05-17,115,2020-09-09,2020-09-12,2020-09-26,Harvested at Maturity.,9.01800004641215,2.1425000429153442,3.0236666599909463,2.4268182190981777,5.0589999794960026,0,3.785999965667725,1.2333333757188587,8.073529243469238,0,1.2426666816075642,9.01800004641215,2.1425000429153442,3.0236666599909463,2.4268182190981777,5.0589999794960026,0,3.785999965667725,1.2333333757188587,8.073529243469238,0,1.2426666816075642,17.34023011525472,15.358267784118652,20.532323169708253,19.089936429804023,17.269432020187377,22.014408111572266,19.30736427307129,19.07991621229384,14.933327085831586,18.47345797220866,14.85041847229004,21.979999860127766,22.614999771118164,29.704999987284342,31.733181606639516,32.54800004959107,30.229999542236328,30.143000221252443,30.061111238267685,29.882941189934225,31.44333330790202,25.702000045776366,16.65966657002767,18.677499890327454,23.91233336130778,26.538636164231736,27.496250009536745,24.354999542236328,24.53250012397766,24.655555725097656,24.794411799486944,25.133333524068195,20.612333329518634,11.339333279927573,14.740000009536743,18.11966673533122,21.344090721823953,22.444499969482422,18.479999542236328,18.922000026702882,19.250000211927627,19.705882409039667,18.823333740234375,15.522666613260904,6.976984228622118,8.677499890327454,8.77946203517246,9.859542577263362,11.816744694120528,12.052886260545431,12.443807687979959,14.211164142376367,14.399890056503521,14.606647165997826,9.57466662724813,6.976984228622118,8.677499890327454,8.77946203517246,9.859542577263362,11.816744694120528,12.052886260545431,12.443807687979959,14.211164142376367,14.399890056503521,14.606647165997826,9.57466662724813,0,0,263.38386105517384,480.2937977549678,716.6286916373784,728.6815778979238,853.1196547777233,981.0201320591108,1225.8182630196704,1269.6382045176638,1269.6382045176638,0,0,1,1,1,1,1,1,1,1,0.06666666666666667,1,1,1,1,1,1,1,1,1,1,1,0.6111333274841309,0.8677499890327454,1,1,1,1,1,1,1,1,0.8799999968210857,1,1,1,0.9999999999999999,1,1,0.9999999999999999,1,1,0.9999999999999999,1,2020-05-03,2020-05-18,2020-05-22,2020-06-21,2020-07-13,2020-08-02,2020-08-03,2020-08-13,2020-08-22,2020-09-08,2020-09-11,2020-05-17,2020-05-21,2020-06-20,2020-07-12,2020-08-01,2020-08-02,2020-08-12,2020-08-21,2020-09-07,2020-09-10,2020-09-25,124,139,143,173,195,215,216,226,235,252,255,15,4,30,22,20,1,10,9,17,3,15,138,142,172,194,214,215,225,234,251,254,269
91,crookston_mn,47.805,-96.61426667,2021,2021-05-20,0,21,early0,789.8752496165619,11,2021-05-06,2021-05-20,105,2021-09-02,2021-09-12,2021-09-26,Harvested at Maturity.,1.0000000238418578,0.9377777576446533,1.5755882508614485,0.5021052580130728,0.7050000011920929,0,0,5.9950002034505205,2.7188888125949435,3.6240000486373902,1.890666675567627,1.0000000238418578,0.9377777576446533,1.5755882508614485,0.5021052580130728,0.7050000011920929,0,0,5.9950002034505205,2.7188888125949435,3.6240000486373902,1.890666675567627,23.83794536590576,19.29143301645915,23.373162830577176,21.467432323255036,21.820179891586303,19.38674545288086,21.25232734680176,13.904553413391113,14.08857504526774,14.371363544464112,12.992610263824464,21.396666781107584,19.475555737813313,28.889999950633328,28.95000016061883,30.146000385284424,27.229999542236328,30.0939998626709,29.101667086283367,24.4744447072347,24.507000160217284,21.879999923706055,12.920333417256673,13.129444564382235,20.86720585121828,22.109473755485133,22.49000017642975,20.47499990463257,21.44999990463257,23.418333530426025,18.482777913411457,17.93200011253357,15.231666644414267,4.4440000534057615,6.783333390951157,12.84441175180323,15.268947350351434,14.833999967575073,13.720000267028809,12.805999946594238,17.734999974568684,12.491111119588217,11.357000064849853,8.583333365122478,5.049654709851692,4.325509187288582,7.706607787750915,9.408118227578553,10.861247017567578,10.429242663873126,11.253610528601408,12.33757036726276,9.020450643567244,8.798175392459035,5.188644759356181,5.049654709851692,4.325509187288582,7.706607787750915,9.408118227578553,10.861247017567578,10.429242663873126,11.253610528601408,12.33757036726276,9.020450643567244,8.798175392459035,5.188644759356181,0,0,262.024664783531,440.7789111075236,658.0038514588753,668.4330941227483,724.7011467657553,798.7265689693319,879.910624761437,967.8923786860274,967.8923786860274,0,0,0.9039999968865339,0.9646842103255423,0.9829250001907349,1,0.8810999965667725,0.9275833288828532,0.8369444635179308,0.793200011253357,0.03443333625793457,1,1,1,1,1,1,1,1,1,1,1,0.40796667257944746,0.3736111190583971,0.9039999968865339,0.9646842103255423,0.9829250001907349,1,0.8810999965667725,0.9275833288828532,0.8369444635179308,0.793200011253357,0.5231666644414266,1,1,1,1,0.9965418589634825,1,0.8575693418330028,0.9516445894944265,1,0.9999999999999999,1,2021-05-06,2021-05-21,2021-05-30,2021-07-03,2021-07-22,2021-08-11,2021-08-12,2021-08-17,2021-08-23,2021-09-01,2021-09-11,2021-05-20,2021-05-29,2021-07-02,2021-07-21,2021-08-10,2021-08-11,2021-08-16,2021-08-22,2021-08-31,2021-09-10,2021-09-25,126,141,150,184,203,223,224,229,235,244,254,15,9,34,19,20,1,5,6,9,10,15,140,149,183,202,222,223,228,234,243,253,268
92,moorhead_mn,47.0062,-96.802,2021,2021-05-22,0,25,early0,786.2445842566765,11,2021-05-08,2021-05-22,98,2021-08-28,2021-09-06,2021-09-20,Harvested at Maturity.,1.0806666692097981,0.7028571537562779,3.2530303145899917,1.5388889047834606,0.05631579223432039,0,0,0,7.10875004529953,9.246666749318441,0.9073333422342936,1.0806666692097981,0.7028571537562779,3.2530303145899917,1.5388889047834606,0.05631579223432039,0,0,0,7.10875004529953,9.246666749318441,0.9073333422342936,22.929600842793782,20.55349690573556,22.713273481889203,20.962493684556748,21.10663137937847,19.002826690673828,21.438003222147625,17.4083149433136,13.246812880039215,13.494263860914442,15.44922695159912,22.864000129699708,20.405714443751744,29.766666759144176,29.32111104329427,29.995263049477025,30.479999542236328,30.073333422342937,33.52750015258789,25.955000162124634,25.27777756585015,24.440666580200194,14.73166673183441,13.559285814474736,21.605606108000785,22.51499997244941,22.931315723218415,23.854999542236328,21.665000120798748,26.700000047683716,20.43687504529953,19.5005554623074,17.203999996185303,6.599333333969116,6.712857185197728,13.444545456857393,15.708888901604547,15.867368396959806,17.229999542236328,13.256666819254557,19.87249994277954,14.918749928474426,13.723333358764648,9.96733341217041,6.1490767815821865,4.8325599625965046,8.206046410274114,9.73712908762391,11.175737908199677,13.567357948892449,11.50784249080537,14.41855277237594,10.468105914255977,9.69736851109465,6.8114144286322595,6.1490767815821865,4.8325599625965046,8.206046410274114,9.73712908762391,11.175737908199677,13.567357948892449,11.50784249080537,14.41855277237594,10.468105914255977,9.69736851109465,6.8114144286322595,0,0,270.7995315390457,446.0678551162759,658.4068753720697,671.9742333209622,741.0212882657945,798.6954993552984,882.4403466693461,969.716663269198,969.716663269198,0,0,0.9256212147799405,0.9763055509991116,0.992605259543971,1,0.9584999958674113,1,0.8847499907016755,0.9356666617923313,0.047666670481363936,1,1,1,1,1,1,1,1,1,1,1,0.5183000000317892,0.39478572777339394,0.9256212147799405,0.9763055509991116,0.992605259543971,1,0.9584999958674113,1,0.8847499907016755,0.9356666617923313,0.7161333338419597,1,1,1,1,1,0.9999999999999998,0.9999999999999999,0.9999999999999998,1,1,1,2021-05-08,2021-05-23,2021-05-30,2021-07-02,2021-07-20,2021-08-08,2021-08-09,2021-08-15,2021-08-19,2021-08-27,2021-09-05,2021-05-22,2021-05-29,2021-07-01,2021-07-19,2021-08-07,2021-08-08,2021-08-14,2021-08-18,2021-08-26,2021-09-04,2021-09-19,128,143,150,183,201,220,221,227,231,239,248,15,7,33,18,19,1,6,4,8,9,15,142,149,182,200,219,220,226,230,238,247,262
93,shelly_mn,47.4264,-96.8317,2021,2021-05-21,0,9,early0,777.0560843826,11,2021-05-07,2021-05-21,102,2021-08-31,2021-09-10,2021-09-24,Harvested at Maturity.,1.0886666615804037,0.9822222391764323,1.7342424699754426,1.2594736689015438,0.06263157882188496,NA,0,4.827999877929688,3.774444474114312,5.012999963760376,1.3046666741371156,1.0886666615804037,0.9822222391764323,1.7342424699754426,1.2594736689015438,0.06263157882188496,NA,0,4.827999877929688,3.774444474114312,5.012999963760376,1.3046666741371156,23.84229736328125,19.467968940734863,23.333826325156473,21.024087755303633,21.945309388010127,NA,21.445980072021484,14.814710140228271,13.58490678999159,14.901791715621949,13.978396320343018,22.36333325703939,19.678889062669544,29.558484973329485,29.068947340312757,30.144736942492035,NA,29.728333791097004,32.08399963378906,24.257777955796982,25.219999694824217,22.858000055948892,13.835666636625925,13.131111159817213,21.481666673313487,22.305789445575915,22.630526366986725,NA,21.30750028292338,26.239999961853027,18.72777779897054,18.566999864578246,15.964333327611287,5.308000016212463,6.583333256964882,13.404848373297488,15.542631550839072,15.11631579148142,NA,12.886666774749756,20.39600028991699,13.197777642144096,11.914000034332275,9.070666599273682,5.672067757004003,4.287119639995539,8.095817005298883,9.650448702973549,10.982493390692209,NA,11.156072837142528,14.350733965845107,9.102132481712102,9.200229612801074,5.757410459453464,5.672067757004003,4.287119639995539,8.095817005298883,9.650448702973549,10.982493390692209,NA,11.156072837142528,14.350733965845107,9.102132481712102,9.200229612801074,5.757410459453464,0,0,267.16196117486317,450.5204865313605,659.1878609545124,NA,726.1242979773676,797.8779678065932,879.7971601420023,971.7994562700133,971.7994562700133,0,0,0.9277121218768033,0.9701842107270894,0.9879473661121569,NA,0.9320000012715658,1,0.8498333401150174,0.8566999864578247,0.03943333466847738,1,1,1,1,1,NA,1,0.9981281911104812,1,1,1,0.4757999996344249,0.36388889683617487,0.9277121218768033,0.9701842107270894,0.9879473661121569,NA,0.9320000012715658,1,0.8498333401150174,0.8566999864578247,0.5958666658401489,1,1,1,0.9999999999999999,1,NA,0.9650815874616399,0.9999999999999999,0.9999999999999999,0.9999999999999999,1,2021-05-07,2021-05-22,2021-05-31,2021-07-03,2021-07-22,NA,2021-08-10,2021-08-16,2021-08-21,2021-08-30,2021-09-09,2021-05-21,2021-05-30,2021-07-02,2021-07-21,2021-08-09,NA,2021-08-15,2021-08-20,2021-08-29,2021-09-08,2021-09-23,127,142,151,184,203,NA,222,228,233,242,252,15,9,33,19,19,0,6,5,9,10,15,141,150,183,202,221,NA,227,232,241,251,266
94,boone_ia,42.0531,-93.8773,2021,2021-05-29,1,28,early1,776.5038241885476,11,2021-05-15,2021-05-29,92,2021-08-29,2021-09-06,2021-09-20,Harvested at Maturity.,5.1986666758855185,0,1.8450000158378057,3.3926315684067574,1.728235258775599,NA,4.915999889373779,0,4.847777896457248,5.832499951124191,0.04933333396911621,5.1986666758855185,0,1.8450000158378057,3.3926315684067574,1.728235258775599,NA,4.915999889373779,0,4.847777896457248,5.832499951124191,0.04933333396911621,14.37026154200236,27.673218154907225,21.271923848560878,20.224525752820465,21.08977480495677,NA,14.809631538391113,22.297145571027485,15.55824449327257,13.082398295402527,17.524843152364095,22.330000114440917,24.886000061035155,30.50964287349156,27.874210257279245,29.62529418047737,NA,30.02599983215332,29.191428593226842,30.478888829549152,26.172499895095825,28.134666697184244,17.897000098228453,17.155000019073487,23.75,22.10447366614091,23.180588301490335,NA,25.236000061035156,21.467857156481063,24.408333354526096,21.226874887943268,20.472666645050047,13.46400008201599,9.423999977111816,16.99035712650844,16.334737075002572,16.735882422503302,NA,20.44600028991699,13.74428571973528,18.337777879503037,16.28124988079071,12.810666592915853,8.210437849288384,7.415179879024028,10.252572266239108,9.9055665244771,11.651249154051971,NA,14.936843372904262,11.705248703830582,13.721991103797487,11.089659099535643,9.652283528873523,8.210437849288384,7.415179879024028,10.252572266239108,9.9055665244771,11.651249154051971,NA,14.936843372904262,11.705248703830582,13.721991103797487,11.089659099535643,9.652283528873523,0,0,287.07202345469506,475.27778741976,673.3490230386434,NA,748.0332399031647,829.9699808299788,953.4679007641562,1042.1851735604414,1042.1851735604414,0,0,0.9827321444238936,0.9888421033558092,0.987882350472843,NA,1,0.9762857028416225,0.9924444410536024,0.9664375007152557,0.06666666666666667,1,1,1,1,1,NA,1,1,1,1,1,0.71160001039505,0.688100004196167,0.9827321444238936,0.9888421033558092,0.987882350472843,NA,1,0.9762857028416225,0.9924444410536024,0.9664375007152557,0.9568000094095866,1,1,1,0.9999999999999999,0.9999999999999999,NA,1,1,0.9999999999999999,1,1,2021-05-15,2021-05-30,2021-06-04,2021-07-02,2021-07-21,NA,2021-08-07,2021-08-12,2021-08-19,2021-08-28,2021-09-05,2021-05-29,2021-06-03,2021-07-01,2021-07-20,2021-08-06,NA,2021-08-11,2021-08-18,2021-08-27,2021-09-04,2021-09-19,135,150,155,183,202,NA,219,224,231,240,248,15,5,28,19,17,0,5,7,9,8,15,149,154,182,201,218,NA,223,230,239,247,262
95,westlafayette_in,40.4806,-87.004125,2021,2021-05-28,1,26,early1,749.7261415157711,11,2021-05-14,2021-05-28,90,2021-08-26,2021-09-01,2021-09-15,Harvested at Maturity.,3.9760000228881838,0.125,5.720384584023402,6.607222172949049,0.2817647036384134,0,0,1.5749999682108562,1.0533333089616563,5.509999831517537,0.8179999828338623,3.9760000228881838,0.125,5.720384584023402,6.607222172949049,0.2817647036384134,0,0,1.5749999682108562,1.0533333089616563,5.509999831517537,0.8179999828338623,18.57618980407715,24.136868317921955,20.274248416607197,17.016350984573364,21.80807876586914,25.506690979003903,21.206607627868653,17.65116008122762,18.708715014987522,14.532647291819254,16.78971741994222,25.3333335240682,22.423333803812664,29.528076905470627,27.051111115349663,28.347646937650794,27.739999771118164,29.272000122070313,28.77166684468587,30.74555566575792,31.591666221618652,27.858666737874348,19.69866682688395,16.06166684627533,23.497692291553204,22.3413888613383,22.7152941086713,20.24499988555908,23.20500020980835,23.69083333015442,24.42444446351793,26.04749949773153,21.398000049591065,14.064000129699707,9.699999888737997,17.46730767763578,17.63166660732693,17.08294127969181,12.75,17.138000297546387,18.609999815622967,18.10333326127794,20.503332773844402,14.93733336130778,9.790061770929496,6.468094235258798,10.762722919697724,10.489066953082563,11.77400327701674,10.183115930098822,13.247522067427635,13.32890316425562,13.850556479901737,15.082487140705188,10.414751776320934,9.790061770929496,6.468094235258798,10.762722919697724,10.489066953082563,11.77400327701674,10.183115930098822,13.247522067427635,13.32890316425562,13.850556479901737,15.082487140705188,10.414751776320934,0,0,279.8307959121408,468.6340010676268,668.7920567769113,678.9751727070101,745.2127830441483,825.186202029682,949.8412103487976,1040.336133193029,1040.336133193029,0,0,0.9787307702578031,0.9796388917499118,0.9848235242507037,1,1,0.9897499958674113,1,1,0.06666666666666667,1,1,1,1,1,1,1,1,1,1,1,0.8007999992370606,0.5859166820844015,0.9787307702578031,0.9796388917499118,0.9848235242507037,1,1,0.9897499958674113,1,1,0.9611000029246013,1,1,1,1,0.9999999999999999,1,0.9999999999999999,1,0.9999999999999999,1,1,2021-05-14,2021-05-29,2021-06-04,2021-06-30,2021-07-18,2021-08-04,2021-08-05,2021-08-10,2021-08-16,2021-08-25,2021-08-31,2021-05-28,2021-06-03,2021-06-29,2021-07-17,2021-08-03,2021-08-04,2021-08-09,2021-08-15,2021-08-24,2021-08-30,2021-09-14,134,149,155,181,199,216,217,222,228,237,243,15,6,26,18,17,1,5,6,9,6,15,148,154,180,198,215,216,221,227,236,242,257
96,eastlansing_mi,42.6296,-84.4375,2021,2021-05-29,1,6,early1,738.2014430957083,11,2021-05-15,2021-05-29,96,2021-09-02,2021-09-12,2021-09-26,Harvested at Maturity.,2.4740000327428184,0.7119999885559082,5.5431249383836985,4.714210510253906,0.8458823421422174,NA,11.771428789411273,1.5279999732971192,2.6000000635782876,0.5050000071525573,7.248666675885518,2.4740000327428184,0.7119999885559082,5.5431249383836985,4.714210510253906,0.8458823421422174,NA,11.771428789411273,1.5279999732971192,2.6000000635782876,0.5050000071525573,7.248666675885518,21.159381930033366,24.737951278686523,19.27660995721817,18.23349410609195,20.809202306410846,NA,18.875474793570383,18.372058868408203,15.383482403225369,17.510741996765137,11.952326170603435,24.567333285013834,23.57999954223633,27.80281275510788,26.57263153477719,28.295294144574335,NA,27.727142878941127,30.66400032043457,30.38333363003201,25.05500011444092,23.840666643778484,17.6543332417806,15.722999823093414,21.888593912124634,21.620789402409603,22.24441177704755,NA,21.897142955235072,24.279000282287598,24.908889028761124,18.508500051498412,18.332333246866863,10.741333198547364,7.8660001039505,15.974375069141388,16.66894727004202,16.193529409520767,NA,16.067143031529017,17.894000244140624,19.434444427490234,11.961999988555908,12.823999849955241,8.1790703174752,6.3949058798956875,9.16165416854556,9.668922143490816,11.597057292010236,NA,12.030257249445574,14.126446618504524,14.375109489692582,9.15738780829966,7.736873267451128,8.1790703174752,6.3949058798956875,9.16165416854556,9.668922143490816,11.597057292010236,NA,12.030257249445574,14.126446618504524,14.375109489692582,9.15738780829966,7.736873267451128,0,0,293.17293339345787,476.88245411978335,674.0324280839574,NA,758.2442288300763,828.8764619225989,958.2524473298322,1049.8263254128287,1049.8263254128287,0,0,0.930046883225441,0.9704473595870169,0.9558529376983643,NA,0.9691428525107247,1,1,0.8443499994277954,0.06546666463216147,1,1,1,1,1,NA,1,1,1,1,1,0.6845999972025554,0.5582999861240387,0.930046883225441,0.9704473595870169,0.9558529376983643,NA,0.9691428525107247,1,1,0.8443499994277954,0.7776999918619792,1,1,1,0.9999999999999999,1,NA,1,0.9999999999999999,0.9999999999999999,0.9999999999999999,1,2021-05-15,2021-05-30,2021-06-04,2021-07-06,2021-07-25,NA,2021-08-11,2021-08-18,2021-08-23,2021-09-01,2021-09-11,2021-05-29,2021-06-03,2021-07-05,2021-07-24,2021-08-10,NA,2021-08-17,2021-08-22,2021-08-31,2021-09-10,2021-09-25,135,150,155,187,206,NA,223,230,235,244,254,15,5,32,19,17,0,7,5,9,10,15,149,154,186,205,222,NA,229,234,243,253,268
97,lamberton_mn,44.24095,-95.3115,2021,2021-05-28,1,7,early1,871.6135072652969,11,2021-05-14,2021-05-28,99,2021-09-04,2021-09-14,2021-09-28,Harvested at Maturity.,3.35066666106383,0.05600000023841858,0.9396875114180148,1.6142105805246454,0.768823517157751,0,0,2.3199999332427983,11.81000018119812,0,5.530666748682658,3.35066666106383,0.05600000023841858,0.9396875114180148,1.6142105805246454,0.768823517157751,0,0,2.3199999332427983,11.81000018119812,0,5.530666748682658,17.43205712636312,26.314506149291994,23.050444781780243,20.362547723870527,20.103820351993335,19.82850456237793,20.27774477005005,17.00400956471761,13.987492127852006,16.39050874710083,14.27154328028361,23.04800001780192,23.882000350952147,31.017500281333923,28.105263258281507,29.510588253245633,31,28.759999593098957,29.77500057220459,26.68272729353471,25.532999992370605,25.343333435058593,17.667666641871133,16.3680002450943,23.784531459212303,22.193421137960335,23.328235261580524,24.835000038146973,21.995833079020183,23.56166688601176,21.056818095120516,19.00750002861023,17.516000080108643,12.28733326594035,8.854000139236451,16.551562637090683,16.28157901763916,17.14588226991541,18.670000076293945,15.231666564941406,17.34833319981893,15.43090889670632,12.482000064849853,9.688666725158692,7.883632841875553,6.786848193900585,9.0514018926330575,9.51887120397116,11.568935368289136,14.440351056057,12.138978858200144,12.913095094304282,11.07643522930904,9.47123794076681,7.139166032334169,7.883632841875553,6.786848193900585,9.0514018926330575,9.51887120397116,11.568935368289136,14.440351056057,12.138978858200144,12.913095094304282,11.07643522930904,9.47123794076681,7.139166032334169,0,0,289.64486056425784,470.5034134397098,667.1753147006252,681.6156657566822,754.4495389058831,831.9281094717088,953.7688969941082,1048.4812764017763,1048.4812764017763,0,0,0.9743593722581864,0.9807368429083574,0.9928823527167825,1,0.9884166638056437,0.9575833400090535,0.9479545463215221,0.8920500040054322,0.0434666633605957,1,1,1,1,1,1,1,1,1,1,1,0.6706333287556966,0.6096000123023987,0.9743593722581864,0.9807368429083574,0.9928823527167825,1,0.9884166638056437,0.9575833400090535,0.9479545463215221,0.8920500040054322,0.7197666692733765,1,1,1,1,1,1,1,0.9999999999999999,1,0.9999999999999999,1,2021-05-14,2021-05-29,2021-06-03,2021-07-05,2021-07-24,2021-08-10,2021-08-11,2021-08-17,2021-08-23,2021-09-03,2021-09-13,2021-05-28,2021-06-02,2021-07-04,2021-07-23,2021-08-09,2021-08-10,2021-08-16,2021-08-22,2021-09-02,2021-09-12,2021-09-27,134,149,154,186,205,222,223,229,235,246,256,15,5,32,19,17,1,6,6,11,10,15,148,153,185,204,221,222,228,234,245,255,270
98,rosemount_mn,44.707,-93.101,2021,2021-05-28,1,2,early1,868.0081701167182,11,2021-05-14,2021-05-28,100,2021-09-05,2021-09-15,2021-09-29,Harvested at Maturity.,5.806666696071625,0.48600001335144044,1.438387092082731,1.3315000236034393,1.9241176475496853,0,0,1.3283333381017048,9.09333340326945,2.593999946117401,1.3940000375111896,5.806666696071625,0.48600001335144044,1.438387092082731,1.3315000236034393,1.9241176475496853,0,0,1.3283333381017048,9.09333340326945,2.593999946117401,1.3940000375111896,16.891493352254233,23.846843338012693,22.07866188787645,21.25773344039917,18.43704464856316,16.90936279296875,20.90742301940918,17.24653498331706,12.829331596692404,16.16864604949951,14.710799471537271,23.025999959309896,22.568000030517577,30.17645159075337,28.051500034332275,28.944705963134766,29.81999969482422,28.024999618530273,29.386666933695476,25.53666655222575,24.762999725341796,24.219333775838216,18.0349999666214,15.634000086784363,23.761612861387192,22.151500034332276,23.361470587113324,24.94499969482422,21.299999872843422,23.03500024477641,20.731249928474426,18.562999868392943,17.054666884740193,13.043999973932902,8.700000143051147,17.34677413202101,16.251500034332274,17.778235211091882,20.06999969482422,14.575000127156576,16.68333355585734,15.925833304723104,12.363000011444091,9.88999999364217,8.239573019351562,6.069270856187344,9.250228637591624,9.273385207792773,11.765108783423141,14.685828843167906,11.450460801084924,12.782308865238228,10.740534270958603,9.082324277293683,6.827032795623938,8.239573019351562,6.069270856187344,9.250228637591624,9.273385207792773,11.765108783423141,14.685828843167906,11.450460801084924,12.782308865238228,10.740534270958603,9.082324277293683,6.827032795623938,0,0,286.7570877653404,472.2247919211959,672.2316412393893,686.9174700825572,755.6202348890669,832.3140880804963,961.2004993319996,1052.0237421049362,1052.0237421049362,0,0,0.9724838687527564,0.9614250040054322,1,1,0.9926666657129923,0.9712500095367431,0.9348333319028219,0.8562999868392944,0.04330000241597494,1,1,1,1,1,1,1,1,1,1,1,0.7121666685740153,0.5616000056266786,0.9724838687527564,0.9614250040054322,1,1,0.9926666657129923,0.9712500095367431,0.9348333319028219,0.8562999868392944,0.6797000169754028,1,1,1,1,1,0.9999999999999998,0.9999999999999999,1,1,1,1,2021-05-14,2021-05-29,2021-06-03,2021-07-04,2021-07-24,2021-08-10,2021-08-11,2021-08-17,2021-08-23,2021-09-04,2021-09-14,2021-05-28,2021-06-02,2021-07-03,2021-07-23,2021-08-09,2021-08-10,2021-08-16,2021-08-22,2021-09-03,2021-09-13,2021-09-28,134,149,154,185,205,222,223,229,235,247,257,15,5,31,20,17,1,6,6,12,10,15,148,153,184,204,221,222,228,234,246,256,271
99,waseca_mn,44.07345,-93.53225,2021,2021-05-28,1,8,early1,905.6004424100836,11,2021-05-14,2021-05-28,102,2021-09-07,2021-09-17,2021-10-01,Harvested at Maturity.,4.2866667429606125,0.3860000014305115,2.2203124836087227,3.260499954223633,2.3364705934244046,0,0,3.2257143344197954,8.772500197092691,0.49699997901916504,1.1986666838328044,4.2866667429606125,0.3860000014305115,2.2203124836087227,3.260499954223633,2.3364705934244046,0,0,3.2257143344197954,8.772500197092691,0.49699997901916504,1.1986666838328044,16.97411823272705,26.984940338134766,22.949109002947807,19.318470001220703,19.383327147539923,17.782358169555664,22.022696177164715,16.291583469935826,14.084171454111734,16.649571418762207,14.336970488230387,22.635999806722005,22.66400032043457,30.16781234741211,26.85549964904785,28.233529483570774,27.81999969482422,27.8650000890096,28.128571374075754,25.116666475931805,24.72000026702881,25.35333340962728,17.805666478474937,15.173000192642212,23.424687400460243,21.585999846458435,22.555294177111456,22.914999961853027,20.579999923706055,22.382142884390696,20.145833293596905,17.82150011062622,17.475666681925457,12.975333150227865,7.682000064849853,16.681562453508377,16.31650004386902,16.877058870652142,18.010000228881836,13.294999758402506,16.635714394705637,15.175000111262003,10.922999954223632,9.597999954223633,7.99525740293622,5.817421962752939,9.234133294620522,9.238810250559471,11.46326154709716,12.914999961853027,10.955442421228687,12.445160874585595,10.258731808631122,8.772036928098203,7.168349654949307,7.99525740293622,5.817421962752939,9.234133294620522,9.238810250559471,11.46326154709716,12.914999961853027,10.955442421228687,12.445160874585595,10.258731808631122,8.772036928098203,7.168349654949307,0,0,295.49226542785664,480.2684704390461,675.1439167396977,688.0589167015507,753.7915712289229,840.9076973510221,964.0124790545956,1051.7328483355773,1051.7328483355773,0,0,0.973531249165535,0.9501999974250793,0.9922058806699865,1,0.9603333314259848,0.9607142925262452,0.9302499890327454,0.776150016784668,0.06666666666666667,1,1,1,1,1,1,1,1,1,1,1,0.6841333262125652,0.5173000192642212,0.973531249165535,0.9501999974250793,0.9922058806699865,1,0.9603333314259848,0.9607142925262452,0.9302499890327454,0.776150016784668,0.7093666712443034,1,1,1,1,1,1,0.9999999999999999,1,1,1,1,2021-05-14,2021-05-29,2021-06-03,2021-07-05,2021-07-25,2021-08-11,2021-08-12,2021-08-18,2021-08-25,2021-09-06,2021-09-16,2021-05-28,2021-06-02,2021-07-04,2021-07-24,2021-08-10,2021-08-11,2021-08-17,2021-08-24,2021-09-05,2021-09-15,2021-09-30,134,149,154,186,206,223,224,230,237,249,259,15,5,32,20,17,1,6,7,12,10,15,148,153,185,205,222,223,229,236,248,258,273
100,boone_ia,42.0531,-93.8773,2021,2021-05-29,2,28,early2,941.500447494564,11,2021-05-15,2021-05-29,104,2021-09-10,2021-09-18,2021-10-02,Harvested at Maturity.,5.1986666758855185,0,1.9133333497577245,2.479230761528015,3.5973332564036054,0,0,2.6116666793823238,4.9746667067209875,0.0925000011920929,3.384000039100647,5.1986666758855185,0,1.9133333497577245,2.479230761528015,3.5973332564036054,0,0,2.6116666793823238,4.9746667067209875,0.0925000011920929,3.384000039100647,14.37026154200236,27.673218154907225,21.242713680973758,21.01636446439303,18.44409612019857,15.81399917602539,22.297145571027485,16.899993419647217,14.574825032552083,17.164177536964417,14.765392176310222,22.330000114440917,24.886000061035155,30.537037037037038,28.753845948439377,28.91000010172526,31.88999938964844,29.191428593226842,30.166666666666668,27.62133331298828,28.00125002861023,27.17466672261556,17.897000098228453,17.155000019073487,23.762777752346462,22.73192310333252,23.032000064849854,27.13000011444092,21.467857156481063,23.726666768391926,21.945333258310953,20.384999990463257,18.861000045140585,13.46400008201599,9.423999977111816,16.98851846765589,16.710000258225662,17.154000027974448,22.3700008392334,13.74428571973528,17.286666870117188,16.269333203633625,12.768749952316284,10.547333367665608,8.210437849288384,7.415179879024028,9.008448065683334,9.45891380673836,11.346773130936679,15.685781701321998,11.65430594119656,13.062509732719262,11.795057772982517,10.724738716541232,8.47339345857958,8.210437849288384,7.415179879024028,9.008448065683334,9.45891380673836,11.346773130936679,15.685781701321998,11.65430594119656,13.062509732719262,11.795057772982517,10.724738716541232,8.47339345857958,0,0,243.22809777344995,489.1598567486472,659.3614537126972,675.0472354140192,756.6273770023951,835.0024353987106,1011.9283019934484,1097.726211725778,1097.726211725778,0,0,0.982092594217371,0.9918461524523221,0.986266663869222,1,0.9762857028416225,0.9886666615804036,0.9740000025431316,0.9378750145435334,0.0650333309173584,1,1,1,1,1,1,1,1,1,1,1,0.71160001039505,0.688100004196167,0.982092594217371,0.9918461524523221,0.986266663869222,1,0.9762857028416225,0.9886666615804036,0.9740000025431316,0.9378750145435334,0.7921666638056437,1,1,1,0.9999999999999999,0.9999999999999999,1,0.9999999999999999,1,0.9999999999999999,1,1,2021-05-15,2021-05-30,2021-06-04,2021-07-01,2021-07-27,2021-08-11,2021-08-12,2021-08-19,2021-08-25,2021-09-09,2021-09-17,2021-05-29,2021-06-03,2021-06-30,2021-07-26,2021-08-10,2021-08-11,2021-08-18,2021-08-24,2021-09-08,2021-09-16,2021-10-01,135,150,155,182,208,223,224,231,237,252,260,15,5,27,26,15,1,7,6,15,8,15,149,154,181,207,222,223,230,236,251,259,274
101,pontiac_il,40.82216667,-88.62016667,2021,2021-05-28,2,4,early2,835.832105982922,11,2021-05-14,2021-05-28,98,2021-09-03,2021-09-10,2021-09-24,Harvested at Maturity.,3.285333283742269,0.04500000178813934,7.8128000831604005,3.372799997329712,0.6399999936421712,30.229999542236328,7.292000007629395,0,2.8683332602183023,2.832857131958008,1.7060000101725261,3.285333283742269,0.04500000178813934,7.8128000831604005,3.372799997329712,0.6399999936421712,30.229999542236328,7.292000007629395,0,2.8683332602183023,2.832857131958008,1.7060000101725261,16.600095876057942,26.446951230367024,19.83656711578369,18.39779987335205,21.788103357950845,14.646547317504885,15.081026077270508,21.045109067644393,16.263128678003948,17.54630606515067,15.506558068593343,24.31000010172526,23.181666374206543,29.535199813842773,27.697600173950196,28.962666447957357,31.3700008392334,29.44600028991699,29.058571679251536,30.952500025431316,27.125714438302175,28.025999959309896,19.47500006357829,16.175833145777386,23.6439998626709,22.935200099945067,23.212666575113932,26.100000381469727,25.11100025177002,22.633571692875453,25.43291664123535,20.716428688594274,21.308666531244914,14.640000025431315,9.169999917348225,17.752799911499025,18.172800025939942,17.462666702270507,20.829999923706055,20.776000213623046,16.208571706499374,19.913333257039387,14.30714293888637,14.591333103179931,9.579342915298144,6.5567694306671624,9.618787955523803,9.946223053167175,11.610403633309506,14.966644091980742,14.574690166909374,12.549320414429904,14.726346971082688,10.784367476121869,10.513284148670435,9.579342915298144,6.5567694306671624,9.618787955523803,9.946223053167175,11.610403633309506,14.966644091980742,14.574690166909374,12.549320414429904,14.726346971082688,10.784367476121869,10.513284148670435,0,0,240.46969888809508,489.1252752172746,663.2813297169171,678.2479738088978,751.1214246434447,838.9666675444541,1015.6828311974464,1091.1734035302995,1091.1734035302995,0,0,0.9881599979400635,0.9947600021362305,0.9954999955495198,1,1,0.9936428615025111,1,0.9738571507590158,0.059266665776570644,1,1,1,1,1,1,1,1,1,1,1,0.7678000005086263,0.5967499812444051,0.9881599979400635,0.9947600021362305,0.9954999955495198,1,1,0.9936428615025111,1,0.9738571507590158,0.9222333351771037,1,1,1,1,0.9999999999999999,0.9999999999999998,0.9999999999999999,0.9999999999999999,1,0.9999999999999999,1,2021-05-14,2021-05-29,2021-06-04,2021-06-29,2021-07-24,2021-08-08,2021-08-09,2021-08-14,2021-08-21,2021-09-02,2021-09-09,2021-05-28,2021-06-03,2021-06-28,2021-07-23,2021-08-07,2021-08-08,2021-08-13,2021-08-20,2021-09-01,2021-09-08,2021-09-23,134,149,155,180,205,220,221,226,233,245,252,15,6,25,25,15,1,5,7,12,7,15,148,154,179,204,219,220,225,232,244,251,266
102,urbana_il,40.05325,-88.23485,2021,2021-05-27,2,5,early2,798.3783374514887,11,2021-05-13,2021-05-27,97,2021-09-01,2021-09-08,2021-09-22,Harvested at Maturity.,2.4866666118303935,1.5683333079020183,6.234400011301041,3.959999978542328,2.296874977648258,NA,9.043333490689596,0,3.512499968210856,0.9042857033865792,3.890666651725769,2.4866666118303935,1.5683333079020183,6.234400011301041,3.959999978542328,2.296874977648258,NA,9.043333490689596,0,3.512499968210856,0.9042857033865792,3.890666651725769,19.081782658894856,21.9047433535258,20.820327644348144,18.627713084220886,21.404053330421448,NA,15.237626870473227,20.274781227111816,17.50520634651184,16.16099602835519,15.949789047241211,25.432000096638998,21.240000089009605,29.530800018310547,27.975833415985107,28.55625009536743,NA,30.335000356038414,28.531667073567707,31.479166507720947,26.56857136317662,29.012666702270508,19.762666670481362,15.58833340803782,23.441200008392332,23.08958327770233,22.93874990940094,NA,25.546666781107582,22.8066668510437,25.66499988238017,20.9857143674578,22.40866667429606,14.09333324432373,9.93666672706604,17.35159999847412,18.203333139419556,17.32124972343445,NA,20.758333206176758,17.081666628519695,19.850833257039387,15.402857371738978,15.804666646321614,9.967470144828559,5.894613863738875,9.733580340474992,10.210220438985036,11.454837401048579,NA,15.050274790759433,12.784125146967172,14.933197129289308,11.021759811691727,11.320504931445122,9.967470144828559,5.894613863738875,9.733580340474992,10.210220438985036,11.454837401048579,NA,15.050274790759433,12.784125146967172,14.933197129289308,11.021759811691727,11.320504931445122,0,0,243.3395085118748,488.3847990475159,671.6621974642931,NA,761.9638462088496,838.6685970906527,1017.8669626421243,1095.0192813239664,1095.0192813239664,0,0,0.9862000007629395,0.9952083369096121,0.98690624833107,NA,1,1,1,0.9812142985207694,0.06666666666666667,1,1,1,1,1,NA,1,1,1,1,1,0.8024666690826416,0.5588333408037822,0.9862000007629395,0.9952083369096121,0.98690624833107,NA,1,1,1,0.9812142985207694,0.9818000030517579,1,1,1,1,1,NA,0.9999999999999999,1,1,0.9999999999999999,1,2021-05-13,2021-05-28,2021-06-03,2021-06-28,2021-07-22,NA,2021-08-07,2021-08-13,2021-08-19,2021-08-31,2021-09-07,2021-05-27,2021-06-02,2021-06-27,2021-07-21,2021-08-06,NA,2021-08-12,2021-08-18,2021-08-30,2021-09-06,2021-09-21,133,148,154,179,203,NA,219,225,231,243,250,15,6,25,24,16,0,6,6,12,7,15,147,153,178,202,218,NA,224,230,242,249,264
103,wanatah_in,41.4444,-86.9437,2021,2021-05-29,2,10,early2,848.929359417637,11,2021-05-15,2021-05-29,103,2021-09-09,2021-09-16,2021-09-30,Harvested at Maturity.,4.043999989827474,0,5.7055171625367525,3.4556000232696533,4.306666620572408,0,0,6.146666844685872,0.44357143129621235,0,3.1546666542689006,4.043999989827474,0,5.7055171625367525,3.4556000232696533,4.306666620572408,0,0,6.146666844685872,0.44357143129621235,0,3.1546666542689006,19.10169423421224,26.497097396850585,18.512724547550597,18.214959964752197,19.875231742858887,12.719165802001951,20.266276677449543,17.875577608744305,16.788676398141043,17.23101547786168,13.150359725952148,23.98799991607666,23.21800003051758,27.75827585417649,27.326399993896484,28.10333340962728,26.540000915527344,26.9366668065389,30.738333702087402,28.371428762163436,28.280000141688756,25.565333302815755,18.824333254496256,16.093000054359436,22.424137954054206,22.620399951934814,22.688666661580402,23.5600004196167,21.28416673342387,24.926666895548504,22.815714359283447,21.77285725729806,19.208333269755045,13.660666592915852,8.968000078201294,17.090000053931927,17.914399909973145,17.27399991353353,20.579999923706055,15.631666660308838,19.1150000890096,17.259999956403462,15.265714372907366,12.851333236694336,9.035937827117444,6.404370583849848,8.737786732373475,9.796887289143518,11.558754109540644,13.424275629217345,11.351865395440006,14.448713253281513,12.535477890535338,11.823973275452001,8.515168856113355,9.035937827117444,6.404370583849848,8.737786732373475,9.796887289143518,11.558754109540644,13.424275629217345,11.351865395440006,14.448713253281513,12.535477890535338,11.823973275452001,8.515168856113355,0,0,253.3958152388307,498.3179974674187,671.6993091105282,685.1235847397456,753.2347771123856,839.9270566320746,1015.4237470995693,1098.1915600277332,1098.1915600277332,0,0,0.9591724149112044,0.9828800010681152,0.9887000020345053,1,0.9875,1,0.9837142876216344,0.9512142930712019,0.0643999989827474,1,1,1,1,1,1,1,1,1,1,1,0.7365666611989339,0.6093000054359436,0.9591724149112044,0.9828800010681152,0.9887000020345053,1,0.9875,1,0.9837142876216344,0.9512142930712019,0.8345666694641114,1,1,0.9999999999999999,0.9999999999999999,0.9999999999999999,0.9999999999999998,1,0.9999999999999999,1,1,1,2021-05-15,2021-05-30,2021-06-04,2021-07-03,2021-07-28,2021-08-12,2021-08-13,2021-08-19,2021-08-25,2021-09-08,2021-09-15,2021-05-29,2021-06-03,2021-07-02,2021-07-27,2021-08-11,2021-08-12,2021-08-18,2021-08-24,2021-09-07,2021-09-14,2021-09-29,135,150,155,184,209,224,225,231,237,251,258,15,5,29,25,15,1,6,6,14,7,15,149,154,183,208,223,224,230,236,250,257,272
104,westlafayette_in,40.4806,-87.004125,2021,2021-05-28,2,26,early2,847.2563675036942,11,2021-05-14,2021-05-28,100,2021-09-05,2021-09-12,2021-09-26,Harvested at Maturity.,3.9760000228881838,0.125,5.720384584023402,4.955416629711787,0.2993749976158142,0,1.5749999682108562,0.5916666587193807,2.999230678264911,1.4157142639160156,3.584666681289673,3.9760000228881838,0.125,5.720384584023402,4.955416629711787,0.2993749976158142,0,1.5749999682108562,0.5916666587193807,2.999230678264911,1.4157142639160156,3.584666681289673,18.57618980407715,24.136868317921955,20.274248416607197,18.448008000850677,21.950265645980835,14.614943504333496,17.65116008122762,19.136102517445885,16.186296169574444,17.048215866088867,13.566788260142008,25.3333335240682,22.423333803812664,29.528076905470627,27.364166657129925,28.653124928474426,27.739999771118164,28.77166684468587,29.9900000890096,30.206922971285305,26.788571493966238,26.984666697184245,19.69866682688395,16.06166684627533,23.497692291553204,22.47291664282481,22.569062560796738,24.11999988555908,23.69083333015442,23.816666682561237,24.368846049675575,20.138571398598806,20.642999903361,14.064000129699707,9.699999888737997,17.46730767763578,17.581666628519695,16.48500019311905,20.5,18.609999815622967,17.643333276112873,18.53076912806584,13.488571303231376,14.30133310953776,9.790061770929496,6.468094235258798,9.5956348041657,9.750650918852477,11.270178347899286,13.78936415832985,13.2757124467786,13.582711707784732,13.672625477604683,10.404970953606707,9.693124640541871,9.790061770929496,6.468094235258798,9.5956348041657,9.750650918852477,11.270178347899286,13.78936415832985,13.2757124467786,13.582711707784732,13.672625477604683,10.404970953606707,9.693124640541871,0,0,249.4865049083082,483.50212696076767,663.8249805271562,677.614344685486,757.2686193661576,838.764889612866,1016.509020821727,1089.343817496974,1089.343817496974,0,0,0.9787307702578031,0.9847291688124339,0.9838749945163727,1,0.9897499958674113,1,0.9909615406623253,0.9334285736083985,0.06666666666666667,1,1,1,1,1,1,1,1,1,1,1,0.8007999992370606,0.5859166820844015,0.9787307702578031,0.9847291688124339,0.9838749945163727,1,0.9897499958674113,1,0.9909615406623253,0.9334285736083985,0.8570333353678385,1,1,1,1,0.9999999999999999,1,0.9999999999999999,1,1,0.9999999999999999,1,2021-05-14,2021-05-29,2021-06-04,2021-06-30,2021-07-24,2021-08-09,2021-08-10,2021-08-16,2021-08-22,2021-09-04,2021-09-11,2021-05-28,2021-06-03,2021-06-29,2021-07-23,2021-08-08,2021-08-09,2021-08-15,2021-08-21,2021-09-03,2021-09-10,2021-09-25,134,149,155,181,205,221,222,228,234,247,254,15,6,26,24,16,1,6,6,13,7,15,148,154,180,204,220,221,227,233,246,253,268
105,eastlansing_mi,42.6296,-84.4375,2021,2021-05-29,2,6,early2,788.1923022187358,11,2021-05-15,2021-05-29,109,2021-09-15,2021-09-24,2021-10-08,Harvested at Maturity.,2.4740000327428184,0.7119999885559082,5.666451548376391,3.5651851693789163,5.738125093281269,NA,1.2733333110809326,2.5680000305175783,2.0470588347491097,7.13333339161343,4.665333398183187,2.4740000327428184,0.7119999885559082,5.666451548376391,3.5651851693789163,5.738125093281269,NA,1.2733333110809326,2.5680000305175783,2.0470588347491097,7.13333339161343,4.665333398183187,21.159381930033366,24.737951278686523,19.166093641711818,19.29428842332628,19.561162531375885,NA,18.82661215464274,15.369696998596192,16.142866807825424,12.906530698140461,10.556354204813639,24.567333285013834,23.57999954223633,27.67322607963316,27.261111012211554,27.969375133514404,NA,30.261666933695476,30.920000076293945,26.31529426574707,25.28333346048991,21.918666648864747,17.6543332417806,15.722999823093414,21.76951629884781,21.971481411545366,22.071562588214874,NA,23.805000225702923,25.47800006866455,20.26764709809247,19.30444441901313,16.596333312988282,10.741333198547364,7.8660001039505,15.865806518062469,16.681851810879177,16.173750042915344,NA,17.34833351771037,20.036000061035157,14.219999930437874,13.32555537753635,11.273999977111817,8.1790703174752,6.3949058798956875,7.952853512478661,9.16354569360828,11.351222347170971,NA,13.677872172550359,15.024112810616494,10.524130026545595,9.923111103330056,6.674932776276667,8.1790703174752,6.3949058798956875,7.952853512478661,9.16354569360828,11.351222347170971,NA,13.677872172550359,15.024112810616494,10.524130026545595,9.923111103330056,6.674932776276667,0,0,246.53845888683844,493.95419261426207,675.5737501689974,NA,757.6409832042996,832.7615472573821,1011.6717577086572,1100.979757638628,1100.979757638628,0,0,0.927790331071423,0.9702962875366211,0.9546249985694886,NA,1,1,0.907382350809434,0.8666111045413547,0,1,1,1,1,1,NA,1,1,1,1,1,0.6845999972025554,0.5582999861240387,0.927790331071423,0.9702962875366211,0.9546249985694886,NA,1,1,0.907382350809434,0.8666111045413547,0.6596999963124593,1,1,1,1,0.9999999999999999,NA,1,0.9999999999999999,0.9999999999999999,0.9999999999999999,1,2021-05-15,2021-05-30,2021-06-04,2021-07-05,2021-08-01,NA,2021-08-17,2021-08-23,2021-08-28,2021-09-14,2021-09-23,2021-05-29,2021-06-03,2021-07-04,2021-07-31,2021-08-16,NA,2021-08-22,2021-08-27,2021-09-13,2021-09-22,2021-10-07,135,150,155,186,213,NA,229,235,240,257,266,15,5,31,27,16,0,6,5,17,9,15,149,154,185,212,228,NA,234,239,256,265,280
106,wooster_oh,40.7565,-81.9004,2021,2021-05-28,2,13,early2,810.435113354781,11,2021-05-14,2021-05-28,107,2021-09-12,2021-09-19,2021-10-03,Harvested at Maturity.,1.5799999793370565,2.980000019073486,2.9050000170866648,5.662000021934509,2.357333306471507,8.449999809265137,3.7899999717871347,2.428333361943563,1.8431250154972076,0.5985714367457798,3.0086666981379193,1.5799999793370565,2.980000019073486,2.9050000170866648,5.662000021934509,2.357333306471507,8.449999809265137,3.7899999717871347,2.428333361943563,1.8431250154972076,0.5985714367457798,3.0086666981379193,22.21122798919678,17.772717475891113,20.3570764541626,19.826592903137207,20.207773780822752,13.385913848876951,14.245806217193604,18.222091833750408,16.445798635482788,16.010178293500626,14.129484526316325,25.578666559855144,19.538333257039387,27.601333236694337,27.79519989013672,28.26466687520345,30.670000076293945,26.165000279744465,30.455000559488933,26.81125020980835,27.575714383806503,23.43733329772949,18.56699993610382,14.629166603088379,21.86699997584025,22.41339988708496,22.04800008138021,25.39000034332275,21.949166774749756,23.93916694323222,21.02593767642975,21.219285692487443,16.909999990463255,11.555333312352499,9.71999994913737,16.132666714986165,17.031599884033202,15.831333287556966,20.110000610351563,17.733333269755047,17.423333326975506,15.240625143051147,14.862857001168386,10.382666683197021,8.841541596568822,5.064478007728855,8.509264454826992,9.858546376444513,11.260751983158471,15.25735230871439,11.949166774749754,13.731065533939997,11.26773748523593,11.446994435316325,6.33416365035216,8.841541596568822,5.064478007728855,8.509264454826992,9.858546376444513,11.260751983158471,15.25735230871439,11.949166774749754,13.731065533939997,11.26773748523593,11.446994435316325,6.33416365035216,0,0,255.27793364480976,501.7415930559225,670.6528728032993,685.9102251120137,757.6052257605122,839.9916189641522,1020.275418727927,1100.404379775141,1100.404379775141,0,0,0.928033332824707,0.9786199932098388,0.9727000109354655,1,0.9983333428700765,1,0.9119062513113022,0.9485714299338205,0.06666666666666667,1,1,1,1,1,1,1,1,1,1,1,0.7386666607856751,0.4793333292007447,0.928033332824707,0.9786199932098388,0.9727000109354655,1,0.9983333428700765,1,0.9119062513113022,0.9485714299338205,0.6451666657129923,1,1,1,1,1,1,0.9999999999999999,0.9999999999999998,0.9999999999999999,1,1,2021-05-14,2021-05-29,2021-06-04,2021-07-04,2021-07-29,2021-08-13,2021-08-14,2021-08-20,2021-08-26,2021-09-11,2021-09-18,2021-05-28,2021-06-03,2021-07-03,2021-07-28,2021-08-12,2021-08-13,2021-08-19,2021-08-25,2021-09-10,2021-09-17,2021-10-02,134,149,155,185,210,225,226,232,238,254,261,15,6,30,25,15,1,6,6,16,7,15,148,154,184,209,224,225,231,237,253,260,275
107,arthur_il,39.70646667,-88.47023333,2021,2021-05-27,3,14,early3,961.8642197574138,11,2021-05-13,2021-05-27,108,2021-09-12,2021-09-16,2021-09-30,Harvested at Maturity.,4.704666550954183,1.7533334096272786,6.900000035762787,2.803181832486933,4.094705862157485,9.010000228881836,3.408750057220459,0.7128571101597377,7.402941198909984,0,2.5913334210713703,4.704666550954183,1.7533334096272786,6.900000035762787,2.803181832486933,4.094705862157485,9.010000228881836,3.408750057220459,0.7128571101597377,7.402941198909984,0,2.5913334210713703,19.570211029052732,21.28737211227417,19.992116621562413,19.19716670296409,20.585734479567584,13.328314781188965,18.674721598625183,18.595088822501047,15.864719334770651,16.838714122772217,14.736248302459718,25.47866694132487,21.2400000890096,29.62107147489275,28.212727026505902,29.037647022920495,29.6299991607666,29.789999961853027,31.441428320748468,28.7941177592558,30.454999923706055,27.54866663614909,19.83333346048991,15.93166677157084,23.833392875535147,23.25545451857827,23.564411696265726,25.15999984741211,24.5293750166893,25.494999885559082,23.005588194903204,24.016250014305115,20.715000025431316,14.187999979654947,10.62333345413208,18.04571427617754,18.298182010650635,18.091176369610956,20.690000534057617,19.268750071525574,19.5485714503697,17.21705863055061,17.577500104904175,13.881333414713541,10.0462886550047,6.194653211012483,8.673983640656987,9.302754576426345,11.143533334330549,13.956042489549036,13.635969159391621,14.765796078647886,12.653250610909042,13.84121067827642,9.8037949133269,10.0462886550047,6.194653211012483,8.673983640656987,9.302754576426345,11.143533334330549,13.956042489549036,13.635969159391621,14.765796078647886,12.653250610909042,13.84121067827642,9.8037949133269,0,0,242.8715419383956,447.5321426197752,636.9722093033948,650.9282517929439,760.0160050680769,863.376577618612,1078.4818380040658,1133.8466807171717,1133.8466807171717,0,0,0.9882321425846645,1,0.9915294114281149,1,1,1,0.9884705880109002,1,0.06666666666666667,1,1,1,1,1,1,1,1,1,1,1,0.8099333381652832,0.5931666771570842,0.9882321425846645,1,0.9915294114281149,1,1,1,0.9884705880109002,1,0.888866662979126,1,1,1,1,0.9999999999999999,1,1,0.9999999999999999,1,0.9999999999999998,1,2021-05-13,2021-05-28,2021-06-03,2021-07-01,2021-07-23,2021-08-09,2021-08-10,2021-08-18,2021-08-25,2021-09-11,2021-09-15,2021-05-27,2021-06-02,2021-06-30,2021-07-22,2021-08-08,2021-08-09,2021-08-17,2021-08-24,2021-09-10,2021-09-14,2021-09-29,133,148,154,182,204,221,222,230,237,254,258,15,6,28,22,17,1,8,7,17,4,15,147,153,181,203,220,221,229,236,253,257,272
108,urbana_il,40.05325,-88.23485,2021,2021-05-27,3,5,early3,1025.676751820646,11,2021-05-13,2021-05-27,110,2021-09-14,2021-09-19,2021-10-03,Harvested at Maturity.,2.4866666118303935,1.5683333079020183,6.836785696446896,2.5856521855229917,2.694117623216966,0,5.651250123977661,5.268749952316284,1.9717647328096277,0,2.4266666094462077,2.4866666118303935,1.5683333079020183,6.836785696446896,2.5856521855229917,2.694117623216966,0,5.651250123977661,5.268749952316284,1.9717647328096277,0,2.4266666094462077,19.081782658894856,21.9047433535258,20.148006302969797,19.427705515985902,20.496491376091452,19.284536361694336,18.0507892370224,17.876853346824646,16.817384495454675,17.115893745422362,13.91541010538737,25.432000096638998,21.240000089009605,29.573214326586044,27.935652276744012,28.625882429235123,32.15999984741211,28.8025004863739,31.483749628067017,28.32529427023495,30.145999908447266,27.303999837239584,19.762666670481362,15.58833340803782,23.669464298657008,22.94847820116126,23.039117588716394,26.789999961853027,23.538125157356262,25.474374771118164,22.330000120050766,23.01999979019165,20.499333254496257,14.09333324432373,9.93666672706604,17.765714270727976,17.961304125578508,17.45235274819767,21.420000076293945,18.273749828338623,19.46499991416931,16.334705969866583,15.893999671936037,13.69466667175293,9.967470144828559,5.894613863738875,8.522213035136248,9.032923662754477,10.838341733314184,14.475985073641349,13.06111370552317,14.759071410924196,12.232864943625296,12.837478445165157,9.471089327886105,9.967470144828559,5.894613863738875,8.522213035136248,9.032923662754477,10.838341733314184,14.475985073641349,13.06111370552317,14.759071410924196,12.232864943625296,12.837478445165157,9.471089327886105,0,0,238.62196498381496,446.379209227168,630.6310186935092,645.1070037671506,749.595913411336,867.6684846987296,1075.6271887403598,1139.8145809661858,1139.8145809661858,0,0,0.9876785721097674,0.9950000037317691,0.9876764690174776,1,1,1,0.9800294174867518,1,0.06666666666666667,1,1,1,1,1,1,1,1,1,1,1,0.8024666690826416,0.5588333408037822,0.9876785721097674,0.9950000037317691,0.9876764690174776,1,1,1,0.9800294174867518,1,0.8582333342234294,1,1,1,1,0.9999999999999999,0.9999999999999998,1,1,0.9999999999999999,0.9999999999999999,1,2021-05-13,2021-05-28,2021-06-03,2021-07-01,2021-07-24,2021-08-10,2021-08-11,2021-08-19,2021-08-27,2021-09-13,2021-09-18,2021-05-27,2021-06-02,2021-06-30,2021-07-23,2021-08-09,2021-08-10,2021-08-18,2021-08-26,2021-09-12,2021-09-17,2021-10-02,133,148,154,182,205,222,223,231,239,256,261,15,6,28,23,17,1,8,8,17,5,15,147,153,181,204,221,222,230,238,255,260,275
109,butlerville_in,39.0362,-85.5264,2021,2021-05-26,3,29,early3,925.3461152443944,11,2021-05-12,2021-05-26,109,2021-09-12,2021-09-17,2021-10-01,Harvested at Maturity.,1.6313332875569662,3.978333353996277,7.311785851206098,8.113912945208343,0.26588235181920666,2.700000047683716,2.4312499314546585,0.5214285680225917,3.3670588942135082,1.6199999809265138,6.593333530426025,1.6313332875569662,3.978333353996277,7.311785851206098,8.113912945208343,0.26588235181920666,2.700000047683716,2.4312499314546585,0.5214285680225917,3.3670588942135082,1.6199999809265138,6.593333530426025,21.865463129679362,18.64984655380249,19.16985137122018,18.286543555881668,22.432034660788144,10.218022346496582,15.127981781959534,19.727593558175222,16.352372197543872,14.716492843627929,13.877533562978108,25.62266680399577,21.7599999109904,28.43857138497489,28.327391085417375,29.091176313512467,26.850000381469727,30.05750036239624,31.854285376412527,28.500588248757754,28.626000213623048,25.88599993387858,18.604666701952617,16.00333336989085,22.76035714149475,23.225652134936787,22.827058820163504,23.46500015258789,25.36750018596649,25.532142775399343,22.534411794999066,22.59500026702881,19.54633329709371,11.586666599909465,10.2466668287913,17.082142898014613,18.123913184456203,16.56294132681454,20.079999923706055,20.677500009536743,19.21000017438616,16.568235341240378,16.56400032043457,13.206666660308837,8.999907888688742,6.388144217225412,8.29948962587938,9.412976585820992,10.782727056370115,12.541808208592943,14.237219322021096,14.631246411437646,12.196308607840889,12.674109359679223,8.818663778429826,8.999907888688742,6.388144217225412,8.29948962587938,9.412976585820992,10.782727056370115,12.541808208592943,14.237219322021096,14.631246411437646,12.196308607840889,12.674109359679223,8.818663778429826,0,0,232.38570952462263,448.88417099850545,632.1905309567975,644.7323391653904,758.630093741559,861.0488186216226,1068.386064954918,1131.756611753314,1131.756611753314,0,0,0.9688035692487444,0.9971304333728293,0.9948235259336584,1,1,1,0.9818823533899644,0.999699993133545,0.06666666666666667,1,1,1,1,1,1,1,1,1,1,1,0.7403000060717265,0.5601666728655498,0.9688035692487444,0.9971304333728293,0.9948235259336584,1,1,1,0.9818823533899644,0.999699993133545,0.8229666630427043,1,1,1,1,1,0.9999999999999998,1,0.9999999999999999,0.9999999999999999,0.9999999999999999,1,2021-05-12,2021-05-27,2021-06-02,2021-06-30,2021-07-23,2021-08-09,2021-08-10,2021-08-18,2021-08-25,2021-09-11,2021-09-16,2021-05-26,2021-06-01,2021-06-29,2021-07-22,2021-08-08,2021-08-09,2021-08-17,2021-08-24,2021-09-10,2021-09-15,2021-09-30,132,147,153,181,204,221,222,230,237,254,259,15,6,28,23,17,1,8,7,17,5,15,146,152,180,203,220,221,229,236,253,258,273
110,wanatah_in,41.4444,-86.9437,2021,2021-05-29,3,10,early3,1021.9733067947426,11,2021-05-15,2021-05-29,116,2021-09-22,2021-09-29,2021-10-13,Harvested at Maturity.,4.043999989827474,0,5.170624928548932,3.5308000230789185,3.68941172431497,0,5.2685715811593195,0.6700000017881393,0.7831578882117021,4.755714280264718,4.798666693766912,4.043999989827474,0,5.170624928548932,3.5308000230789185,3.68941172431497,0,5.2685715811593195,0.6700000017881393,0.7831578882117021,4.755714280264718,4.798666693766912,19.10169423421224,26.497097396850585,19.179799109697342,17.38450345993042,19.81859588623047,21.03664207458496,17.946121215820313,16.05876326560974,16.620507441068952,11.3545195715768,9.35477409362793,23.98799991607666,23.21800003051758,27.97156250476837,27.043199996948243,27.585294274722827,28.020000457763672,30.592857360839844,29.893750190734863,27.775789562024567,22.67999976021903,24.684000142415364,18.824333254496256,16.093000054359436,22.475000023841858,22.676799926757813,22.061764801249783,21.800000190734863,24.856428691319056,24.6506250500679,21.304473701276276,17.007857050214493,19.85100008646647,13.660666592915852,8.968000078201294,16.978437542915344,18.310399856567383,16.53823532777674,15.579999923706056,19.12000002179827,19.40749990940094,14.833157840527987,11.335714340209961,15.018000030517578,9.035937827117444,6.404370583849848,7.437412358148974,8.872791571913847,10.55186853283289,11.542507428681889,14.424952655118332,14.125857202732563,11.356020003878129,8.136455470319305,9.223333390553792,9.035937827117444,6.404370583849848,7.437412358148974,8.872791571913847,10.55186853283289,11.542507428681889,14.424952655118332,14.125857202732563,11.356020003878129,8.136455470319305,9.223333390553792,0,0,237.99719546076716,459.8169847586132,639.1987498167725,650.7412572454544,751.7159258312827,864.7227834531432,1080.4871635268278,1137.4423518190629,1137.4423518190629,0,0,0.9624687522649765,0.9835599994659424,0.9856176488539752,1,1,1,0.9638684247669421,0.6777857099260602,0.0627666695912679,1,1,1,1,1,1,1,1,1,1,1,0.7365666611989339,0.6093000054359436,0.9624687522649765,0.9835599994659424,0.9856176488539752,1,1,1,0.9638684247669421,0.6777857099260602,0.9338000138600667,1,1,1,1,1,0.9999999999999996,0.9999999999999999,1,0.9999999999999999,1,1,2021-05-15,2021-05-30,2021-06-04,2021-07-06,2021-07-31,2021-08-17,2021-08-18,2021-08-25,2021-09-02,2021-09-21,2021-09-28,2021-05-29,2021-06-03,2021-07-05,2021-07-30,2021-08-16,2021-08-17,2021-08-24,2021-09-01,2021-09-20,2021-09-27,2021-10-12,135,150,155,187,212,229,230,237,245,264,271,15,5,32,25,17,1,7,8,19,7,15,149,154,186,211,228,229,236,244,263,270,285
111,westlafayette_in,40.4806,-87.004125,2021,2021-05-28,3,26,early3,995.3786959809162,11,2021-05-14,2021-05-28,112,2021-09-17,2021-09-22,2021-10-06,Harvested at Maturity.,3.9760000228881838,0.125,5.126333304246267,5.056521705959154,0.6947058649624095,0,0.4437499940395355,4.70999983378819,1.0161110957463582,2.3699999809265138,5.060666660467784,3.9760000228881838,0.125,5.126333304246267,5.056521705959154,0.6947058649624095,0,0.4437499940395355,4.70999983378819,1.0161110957463582,2.3699999809265138,5.060666660467784,18.57618980407715,24.136868317921955,20.057950862248738,18.64624894183615,20.52886951670927,17.825937271118164,19.875806212425232,16.456149646214076,16.236335118611652,14.978160285949707,11.748155784606933,25.3333335240682,22.423333803812664,29.07199999491374,28.066086893496305,28.469411849975586,28.299999237060547,29.15875005722046,32.184285572596956,28.06333329942491,30.295999908447264,24.62466697692871,19.69866682688395,16.06166684627533,23.187333329518637,23.09673910555632,22.75647065218757,23.5649995803833,22.91124999523163,25.98142828260149,21.83222219679091,22.793999862670898,18.64000021616618,14.064000129699707,9.699999888737997,17.302666664123535,18.12739131761634,17.043529454399557,18.829999923706055,16.663749933242798,19.778570992606028,15.6011110941569,15.291999816894531,12.655333455403646,9.790061770929496,6.468094235258798,8.058824752088169,9.184477962344541,10.861633394167463,12.87216327885729,12.651492434652596,14.79005853359018,11.81598647825751,12.465531318464278,8.009903019602696,9.790061770929496,6.468094235258798,8.058824752088169,9.184477962344541,10.861633394167463,12.87216327885729,12.651492434652596,14.79005853359018,11.81598647825751,12.465531318464278,8.009903019602696,0,0,241.76474256264504,453.0077356965695,637.6555033974163,650.5276666762736,751.7396061534944,855.2700158886257,1067.957772497261,1130.2854290895823,1130.2854290895823,0,0,0.9738000011444092,0.9941956540812616,0.9848235242507037,1,0.9923124969005584,1,0.967583335770501,0.9993000030517578,0.06609999974568685,1,1,1,1,1,1,1,1,1,1,1,0.8007999992370606,0.5859166820844015,0.9738000011444092,0.9941956540812616,0.9848235242507037,1,0.9923124969005584,1,0.967583335770501,0.9993000030517578,0.8251000118255616,1,1,1,0.9999999999999999,0.9999999999999999,1,0.9999999999999999,1,1,1,1,2021-05-14,2021-05-29,2021-06-04,2021-07-04,2021-07-27,2021-08-13,2021-08-14,2021-08-22,2021-08-29,2021-09-16,2021-09-21,2021-05-28,2021-06-03,2021-07-03,2021-07-26,2021-08-12,2021-08-13,2021-08-21,2021-08-28,2021-09-15,2021-09-20,2021-10-05,134,149,155,185,208,225,226,234,241,259,264,15,6,30,23,17,1,8,7,18,5,15,148,154,184,207,224,225,233,240,258,263,278
112,wooster_oh,40.7565,-81.9004,2021,2021-05-28,3,13,early3,1000.6763852196898,11,2021-05-14,2021-05-28,120,2021-09-25,2021-10-03,2021-10-17,Harvested at Maturity.,1.5799999793370565,2.980000019073486,2.6409091064424226,6.000000024835269,3.0747058461694157,9.949999809265137,2.0562500208616257,2.732222239176432,2.615500032901764,0,1.4333333253860474,1.5799999793370565,2.980000019073486,2.6409091064424226,6.000000024835269,3.0747058461694157,9.949999809265137,2.0562500208616257,2.732222239176432,2.615500032901764,0,1.4333333253860474,22.21122798919678,17.772717475891113,20.701531612511836,19.101508339246113,19.205554008483887,8.612330436706543,17.624191641807556,15.472640461391872,15.035642409324646,16.311915636062622,10.177062479654948,25.578666559855144,19.538333257039387,27.916666608868223,27.335416475931805,28.017647350535672,25.5,29.77250051498413,28.117778142293293,25.619000053405763,22.929999828338623,24.564666493733725,18.56699993610382,14.629166603088379,22.09772725538774,22.148958206176758,22.02088249430937,22.44499969482422,23.77312523126602,22.696667035420734,19.81424996852875,15.346874952316284,19.40233327547709,11.555333312352499,9.71999994913737,16.278787901907258,16.96249993642171,16.024117638083066,19.38999938964844,17.773749947547913,17.275555928548176,14.009499883651733,7.763750076293945,14.24000005722046,8.841541596568822,5.064478007728855,7.408331069439642,8.742579493776411,10.71153013201805,12.292708635404168,13.614846930008486,12.761740423754189,10.258457953331172,7.588716760349274,9.0509999275207509,8.841541596568822,5.064478007728855,7.408331069439642,8.742579493776411,10.71153013201805,12.292708635404168,13.614846930008486,12.761740423754189,10.258457953331172,7.588716760349274,9.0509999275207509,0,0,244.4749252915082,454.2968331421421,636.3928453864488,648.685554021853,757.6043294619209,872.4599932757086,1077.6291523423322,1138.3388864251265,1138.3388864251265,0,0,0.93457575711337,0.9777291595935822,0.9753235424266142,1,1,0.9356111208597819,0.8841499972343445,0.5346874952316284,0.03513333479563396,1,1,1,1,1,1,1,1,1,1,1,0.7386666607856751,0.4793333292007447,0.93457575711337,0.9777291595935822,0.9753235424266142,1,1,0.9356111208597819,0.8841499972343445,0.5346874952316284,0.8914333327611288,1,1,1,0.9999999999999999,1,0.9999999999999998,1,0.9999999999999999,1,1,1,2021-05-14,2021-05-29,2021-06-04,2021-07-07,2021-07-31,2021-08-17,2021-08-18,2021-08-26,2021-09-04,2021-09-24,2021-10-02,2021-05-28,2021-06-03,2021-07-06,2021-07-30,2021-08-16,2021-08-17,2021-08-25,2021-09-03,2021-09-23,2021-10-01,2021-10-16,134,149,155,188,212,229,230,238,247,267,275,15,6,33,24,17,1,8,9,20,8,15,148,154,187,211,228,229,237,246,266,274,289
113,flora_il,38.702763,-88.518259,2021,2021-05-25,4,18,early4,1302.668738644561,11,2021-05-11,2021-05-25,126,2021-09-28,2021-10-01,2021-10-15,Harvested at Maturity.,0.3306666652361552,7.300000190734863,2.117567568010575,10.09318191354925,6.369047614790144,0,2.223750114440918,6.705999970436096,2.4323808479876745,0,1.330666689078013,0.3306666652361552,7.300000190734863,2.117567568010575,10.09318191354925,6.369047614790144,0,2.223750114440918,6.705999970436096,2.4323808479876745,0,1.330666689078013,22.77211774190267,16.631409883499146,21.267620112444902,18.409837289289996,18.948030108497257,19.208789825439453,17.96499741077423,14.830519628524781,16.08182204337347,16.641183217366535,10.92826239267985,25.341999944051107,24.114999771118164,29.419189246925146,30.17772743918679,29.55571410769508,30.88999938964844,32.38000011444092,28.883999824523926,27.873809451148624,31.306666056315105,26.778666432698568,18.806666564941406,19.68499994277954,23.313378456476574,24.862045634876598,24.0447617712475,25.174999237060547,26.567500114440918,23.775499963760375,21.08690467334929,22.506666501363117,21.337333170572915,12.271333185831706,15.255000114440918,17.207567666027998,19.546363830566406,18.53380943479992,19.459999084472656,20.755000114440918,18.667000102996827,14.299999895549956,13.706666946411133,15.895999908447266,9.187674687288204,9.701941054692863,7.208582742737255,9.42080613047515,11.40375723181536,14.30058713450326,14.85740804793367,13.246331547993423,11.448928545258726,12.433773351967336,10.470666535695393,9.187674687288204,9.701941054692863,7.208582742737255,9.42080613047515,11.40375723181536,14.30058713450326,14.85740804793367,13.246331547993423,11.448928545258726,12.433773351967336,10.470666535695393,0,0,266.7175614812784,473.97529635173174,713.4541982198542,727.7547853543575,846.6140497378269,979.0773652177612,1219.5048646681948,1256.8061847240967,1256.8061847240967,0,0,0.9612837836549089,1,1,1,1,0.9962999963760376,0.9104761861619495,1,0.06666666666666667,1,1,1,1,1,1,1,1,1,1,1,0.7241333325703939,0.7927500009536743,0.9612837836549089,1,1,1,1,0.9962999963760376,0.9104761861619495,1,0.9900666650136312,1,1,1,0.9999999999999999,1,1,0.9999999999999999,1,0.9999999999999999,1,1,2021-05-11,2021-05-26,2021-05-30,2021-07-06,2021-07-28,2021-08-18,2021-08-19,2021-08-27,2021-09-06,2021-09-27,2021-09-30,2021-05-25,2021-05-29,2021-07-05,2021-07-27,2021-08-17,2021-08-18,2021-08-26,2021-09-05,2021-09-26,2021-09-29,2021-10-14,131,146,150,187,209,230,231,239,249,270,273,15,4,37,22,21,1,8,10,21,3,15,145,149,186,208,229,230,238,248,269,272,287
114,urbana_il,40.05325,-88.23485,2021,2021-05-27,4,5,early4,1352.9906167905674,11,2021-05-13,2021-05-27,133,2021-10-07,2021-10-11,2021-10-25,Harvested at Maturity.,2.4866666118303935,1.5683333079020183,5.312105245496097,3.431600003242493,2.8557895233756616,12.489999771118164,3.2955555386013455,3.0472727688876065,1.8331817794929852,6.8649998903274545,8.651999926567077,2.4866666118303935,1.5683333079020183,5.312105245496097,3.431600003242493,2.8557895233756616,12.489999771118164,3.2955555386013455,3.0472727688876065,1.8331817794929852,6.8649998903274545,8.651999926567077,19.081782658894856,21.9047433535258,20.155215137883236,19.91115550994873,18.785657531336735,14.775294303894045,16.515926467047798,16.801281929016113,13.613993818109686,8.476231575012207,9.545911343892415,25.432000096638998,21.240000089009605,29.063947476838763,28.22759994506836,29.720000216835423,33.54999923706055,30.077777862548828,27.75363644686612,27.309999899430707,24.964999675750732,20.471333249409994,19.762666670481362,15.58833340803782,23.313157897246512,23.097999877929688,24.13842110884817,26.84999942779541,24.676111221313477,21.296818256378174,20.86954537304965,20.50249969959259,15.045666631062826,14.09333324432373,9.93666672706604,17.562368317654258,17.968399810791016,18.556842000860918,20.149999618530273,19.274444580078125,14.840000065890225,14.42909084666859,16.03999972343445,9.620000012715657,9.967470144828559,5.894613863738875,6.9109140619704394,8.641060369264219,12.433818247688558,14.596156486570834,14.143100182647174,11.390446681064368,11.144175527520884,10.50249969959259,4.6196215751632055,9.967470144828559,5.894613863738875,6.9109140619704394,8.641060369264219,12.433818247688558,14.596156486570834,14.143100182647174,11.390446681064368,11.144175527520884,10.50249969959259,4.6196215751632055,0,0,262.6147343548767,478.6412435864822,714.8837902925646,729.4799467791355,856.76784842296,982.062761914668,1227.2346235201276,1269.244622318498,1269.244622318498,0,0,0.9878947396027414,0.9916199989318848,1,1,0.9983888943990071,0.9704545497894287,0.9033409096977928,0.9938750028610229,0.06666666666666667,1,1,1,1,1,1,1,1,1,1,1,0.8024666690826416,0.5588333408037822,0.9878947396027414,0.9916199989318848,1,1,0.9983888943990071,0.9704545497894287,0.9033409096977928,0.9938750028610229,0.47519999504089355,1,1,1,1,1,1,1,1,0.9999999999999999,1,1,2021-05-13,2021-05-28,2021-06-03,2021-07-11,2021-08-05,2021-08-24,2021-08-25,2021-09-03,2021-09-14,2021-10-06,2021-10-10,2021-05-27,2021-06-02,2021-07-10,2021-08-04,2021-08-23,2021-08-24,2021-09-02,2021-09-13,2021-10-05,2021-10-09,2021-10-24,133,148,154,192,217,236,237,246,257,279,283,15,6,38,25,19,1,9,11,22,4,15,147,153,191,216,235,236,245,256,278,282,297
115,butlerville_in,39.0362,-85.5264,2021,2021-05-26,4,29,early4,1263.3415601220545,11,2021-05-12,2021-05-26,133,2021-10-06,2021-10-10,2021-10-24,Harvested at Maturity.,1.6313332875569662,3.978333353996277,6.79263164495167,5.989130393318508,1.2899999737739563,NA,3.4655556148952904,2.170833388964335,5.2095653492471445,2.560000032186508,1.337333333492279,1.6313332875569662,3.978333353996277,6.79263164495167,5.989130393318508,1.2899999737739563,NA,3.4655556148952904,2.170833388964335,5.2095653492471445,2.560000032186508,1.337333333492279,21.865463129679362,18.64984655380249,19.11237849687275,19.365169483682383,18.76882753372192,NA,16.761705504523384,17.32344377040863,13.241170717322309,9.79256808757782,11.346363894144694,25.62266680399577,21.7599999109904,28.45736829858077,28.76347815472147,29.52450008392334,NA,32.15777736239963,26.836666742960613,26.15913042814835,25.134999752044678,22.482666714986166,18.604666701952617,16.00333336989085,22.835657847555062,23.507826141689133,23.88375005722046,NA,26.112777709960938,20.551250020662945,20.142391318860263,20.301249742507935,16.511666671435037,11.586666599909465,10.2466668287913,17.21394739652935,18.2521741286568,18.243000030517578,NA,20.067778057522244,14.265833298365274,14.12565220957217,15.467499732971191,10.540666627883912,8.999907888688742,6.388144217225412,7.0168890685584095,9.057333183790853,11.97462832897373,NA,14.659971427147143,10.760215465926628,10.6331789608945,10.323354418164492,6.215155703039567,8.999907888688742,6.388144217225412,7.0168890685584095,9.057333183790853,11.97462832897373,NA,14.659971427147143,10.760215465926628,10.6331789608945,10.323354418164492,6.215155703039567,0,0,266.6417846052195,474.9604478324091,714.4530144118836,NA,846.392757256208,975.5153428473276,1220.0784589479013,1261.3718766205593,1261.3718766205593,0,0,0.9752763133299979,1,0.9955999970436096,NA,1,0.9742083311080932,0.8718912985013879,0.9933749914169312,0.06666666666666667,1,1,1,1,1,NA,1,1,1,1,1,0.7403000060717265,0.5601666728655498,0.9752763133299979,1,0.9955999970436096,NA,1,0.9742083311080932,0.8718912985013879,0.9933749914169312,0.5983333357175191,1,1,1,1,1,NA,1,1,1,0.9999999999999999,1,2021-05-12,2021-05-27,2021-06-02,2021-07-10,2021-08-02,NA,2021-08-22,2021-08-31,2021-09-12,2021-10-05,2021-10-09,2021-05-26,2021-06-01,2021-07-09,2021-08-01,2021-08-21,NA,2021-08-30,2021-09-11,2021-10-04,2021-10-08,2021-10-23,132,147,153,191,214,NA,234,243,255,278,282,15,6,38,23,20,0,9,12,23,4,15,146,152,190,213,233,NA,242,254,277,281,296
116,westlafayette_in,40.4806,-87.004125,2021,2021-05-28,4,26,early4,1409.820975801038,11,2021-05-14,2021-05-28,137,2021-10-12,2021-10-18,2021-11-01,Harvested at Maturity.,3.9760000228881838,0.125,6.0304999440908436,1.3012500206629436,2.13052625405161,5.489999771118164,0.8536363514986905,0.8090908960862593,4.279130435508231,12.268333435058594,6.78133331934611,3.9760000228881838,0.125,6.0304999440908436,1.3012500206629436,2.13052625405161,5.489999771118164,0.8536363514986905,0.8090908960862593,4.279130435508231,12.268333435058594,6.78133331934611,18.57618980407715,24.136868317921955,19.205838525295256,21.308613816897076,18.095439609728363,11.382854461669922,16.41438778963956,16.881438862193715,11.389774405437967,8.167825539906818,8.488017257054647,25.3333335240682,22.423333803812664,28.62775001525879,28.195833206176758,30.056315974185342,30.219999313354492,28.39454529502175,28.921818126331676,25.625652313232422,21.231666564941406,15.56999994913737,19.69866682688395,16.06166684627533,23.014625000953675,22.553124964237213,24.33789479105096,25.51499938964844,22.642272645776924,21.724090792916037,19.794130553369936,16.87749993801117,10.833999971548716,14.064000129699707,9.699999888737997,17.40149998664856,16.91041672229767,18.619473607916582,20.809999465942383,16.889999996532094,14.5263634595004,13.962608793507451,12.523333311080933,6.097999993960062,9.790061770929496,6.468094235258798,6.621592416379617,8.408465960012613,12.5326303132217,15.514999389648436,12.321897477130456,11.781349213849957,10.17288940381019,7.9336751046374445,1.8293554416903357,9.790061770929496,6.468094235258798,6.621592416379617,8.408465960012613,12.5326303132217,15.514999389648436,12.321897477130456,11.781349213849957,10.17288940381019,7.9336751046374445,1.8293554416903357,0,0,264.86369665518475,466.66687969548747,704.7868556466999,720.3018550363483,855.8427272847835,985.4375686371328,1219.414024924767,1267.016075552592,1267.016075552592,0,0,0.9770125019550323,0.9892499963442485,0.9967631565897088,1,0.9777727300470526,0.9688636389645663,0.885217399182527,0.6400833328564962,0.013399998346964518,1,1,1,1,1,1,1,1,1,1,1,0.8007999992370606,0.5859166820844015,0.9770125019550323,0.9892499963442485,0.9967631565897088,1,0.9777727300470526,0.9688636389645663,0.885217399182527,0.6400833328564962,0.13549999713897706,1,1,1,0.9999999999999999,1,1,0.9999999999999999,1,0.9999999999999999,0.9999999999999999,1,2021-05-14,2021-05-29,2021-06-04,2021-07-14,2021-08-07,2021-08-26,2021-08-27,2021-09-07,2021-09-18,2021-10-11,2021-10-17,2021-05-28,2021-06-03,2021-07-13,2021-08-06,2021-08-25,2021-08-26,2021-09-06,2021-09-17,2021-10-10,2021-10-16,2021-10-31,134,149,155,195,219,238,239,250,261,284,290,15,6,40,24,19,1,11,11,23,6,15,148,154,194,218,237,238,249,260,283,289,304
117,portagevilleloam_mo,36.39516667,-89.6102,2021,2021-05-18,4,20,early4,1252.506744230881,11,2021-05-04,2021-05-18,115,2021-09-10,2021-09-14,2021-09-28,Harvested at Maturity.,2.5746666272481282,0,3.756249964237213,3.860909115184437,3.5185714903331937,0,5.777000117301941,4.186250030994415,2.635882433723001,0,2.2959999402364093,2.5746666272481282,0,3.756249964237213,3.860909115184437,3.5185714903331937,0,5.777000117301941,4.186250030994415,2.635882433723001,0,2.2959999402364093,19.598132832845053,19.35867691040039,19.943072944879532,19.99110612002286,19.173580987112864,23.62171173095703,18.86778564453125,15.2644202709198,18.06546609541949,19.906530380249023,14.992578919728597,22.297333399454754,28.765000343322754,29.538125038146973,30.88227315382524,31.83619045075916,29.270000457763672,31.74800033569336,29.987500190734863,31.341765011058133,29.262499809265137,28.481333287556968,16.703999996185303,23.797500133514404,23.92046870291233,25.473636453801934,26.672380992344447,22.824999809265137,26.068000173568727,25.428125023841858,25.460588455200195,21.953750014305115,22.199666659037273,11.110666592915853,18.829999923706055,18.30281236767769,20.064999753778633,21.508571533929732,16.3799991607666,20.388000011444092,20.868749856948853,19.579411899342258,14.645000219345093,15.918000030517579,6.7972510830907025,13.797500133514404,8.508293485392326,9.349251777804996,11.548892716329155,10.884436522352424,13.317103338782214,14.920596081361431,14.280975475376493,12.039183187061546,11.160343657138348,6.7972510830907025,13.797500133514404,8.508293485392326,9.349251777804996,11.548892716329155,10.884436522352424,13.317103338782214,14.920596081361431,14.280975475376493,12.039183187061546,11.160343657138348,0,0,272.2653915325544,477.9489306442643,720.4756776871766,731.360114209529,864.5311475973512,983.8959162482428,1226.6724993296432,1274.8292320778894,1274.8292320778894,0,0,0.9538281261920929,0.9989772709933195,1,1,1,1,1,1,0.06666666666666667,1,1,1,1,1,1,1,1,1,1,1,0.6614333343505859,1,0.9538281261920929,0.9989772709933195,1,1,1,1,1,1,0.9354333368937174,1,1,1,1,1,1,0.9999999999999999,1,0.9999999999999999,1,1,2021-05-04,2021-05-19,2021-05-21,2021-06-22,2021-07-14,2021-08-04,2021-08-05,2021-08-15,2021-08-23,2021-09-09,2021-09-13,2021-05-18,2021-05-20,2021-06-21,2021-07-13,2021-08-03,2021-08-04,2021-08-14,2021-08-22,2021-09-08,2021-09-12,2021-09-27,124,139,141,173,195,216,217,227,235,252,256,15,2,32,22,21,1,10,8,17,4,15,138,140,172,194,215,216,226,234,251,255,270
118,wanatah_in,41.4444,-86.9437,2021,2021-05-29,1,10,early1,704.5016704164102,11,2021-05-15,2021-05-29,92,2021-08-29,2021-09-06,2021-09-20,Harvested at Maturity.,4.043999989827474,0,5.5153332571188605,3.3833333253860474,3.339411784620846,NA,6.663999938964843,0,5.172500133514404,0.21375000476837158,0.2159999926884969,4.043999989827474,0,5.5153332571188605,3.3833333253860474,3.339411784620846,NA,6.663999938964843,0,5.172500133514404,0.21375000476837158,0.2159999926884969,19.10169423421224,26.497097396850585,18.837987422943115,16.923474338319565,21.227417384876926,NA,14.49247932434082,19.975866862705775,17.047845482826233,16.365171313285828,17.181054242451985,23.98799991607666,23.21800003051758,27.76733334859212,26.369999885559082,28.230588239781998,NA,29.72800064086914,27.391428811209543,31.09250020980835,27.238750219345093,28.516000111897785,18.824333254496256,16.093000054359436,22.337666702270507,22.17694428231981,22.578823566436768,NA,25.30900020599365,21.792857238224574,25.33875024318695,22.116249978542328,21.63100004196167,13.660666592915852,8.968000078201294,16.908000055948893,17.98388867908054,16.927058893091537,NA,20.889999771118163,16.194285665239605,19.58500027656555,16.993749737739563,14.745999972025553,9.035937827117444,6.404370583849848,9.811791771555226,10.256542049085935,11.813363700604949,NA,14.862740444927216,11.851947814918416,14.707198171304166,11.928140799124538,10.76099469481508,9.035937827117444,6.404370583849848,9.811791771555226,10.256542049085935,11.813363700604949,NA,14.862740444927216,11.851947814918416,14.707198171304166,11.928140799124538,10.76099469481508,0,0,294.3537531466568,478.9715100302036,679.7986929404879,NA,754.112395165124,837.0760298695528,954.733615239986,1050.1587416329826,1050.1587416329826,0,0,0.9599666690826416,0.97716666592492,0.9900294135598575,NA,1,0.9892857142857143,1,0.9715000033378601,0.06666666666666667,1,1,1,1,1,NA,1,1,1,1,1,0.7365666611989339,0.6093000054359436,0.9599666690826416,0.97716666592492,0.9900294135598575,NA,1,0.9892857142857143,1,0.9715000033378601,0.9694333362579346,1,1,1,1,1,NA,0.9999999999999999,1,1,1,1,2021-05-15,2021-05-30,2021-06-04,2021-07-04,2021-07-22,NA,2021-08-08,2021-08-13,2021-08-20,2021-08-28,2021-09-05,2021-05-29,2021-06-03,2021-07-03,2021-07-21,2021-08-07,NA,2021-08-12,2021-08-19,2021-08-27,2021-09-04,2021-09-19,135,150,155,185,203,NA,220,225,232,240,248,15,5,30,18,17,0,5,7,8,8,15,149,154,184,202,219,NA,224,231,239,247,262
119,portagevilleclay_mo,36.3987,-88.6051,2021,2021-05-18,4,19,early4,1266.7949086410586,11,2021-05-04,2021-05-18,118,2021-09-13,2021-09-16,2021-09-30,Harvested at Maturity.,3.609999990463257,0,3.9345454573631287,5.371363683180376,2.6200000445048013,0,2.4677776760525174,7.822222444746229,1.3694444629881117,1.9966665903727214,2.291999944051107,3.609999990463257,0,3.9345454573631287,5.371363683180376,2.6200000445048013,0,2.4677776760525174,7.822222444746229,1.3694444629881117,1.9966665903727214,2.291999944051107,19.490045928955077,20.98020617167155,20.33437338742343,18.518743428316984,19.878312020074755,23.86227798461914,18.85672410329183,15.209003448486326,18.195881260765923,16.50171184539795,14.467539946238201,21.81666653951009,28.60333315531413,28.878788138880875,30.728636134754527,31.14428556533087,29.75,31.993333604600693,30.84111107720269,29.974999745686848,30.77666664123535,27.279999923706054,15.938333304723104,22.94500001271566,22.984697168523613,25.331136226654053,25.729285694303968,22.860000133514404,26.368333498636883,25.959444575839573,23.676110982894897,24.119999885559082,21.190333302815755,10.060000069936116,17.286666870117188,17.090606198166356,19.933636318553578,20.314285823277064,15.970000267028809,20.74333339267307,21.077778074476456,17.377222220102947,17.463333129882813,15.100666681925455,6.220380450893839,12.945000012715658,8.036547050479241,9.512361608733917,11.325204045630283,11.151020033475652,13.71000702585495,15.080033973101106,12.996642209522923,13.82486793435812,10.29659813359181,6.220380450893839,12.945000012715658,8.036547050479241,9.512361608733917,11.325204045630283,11.151020033475652,13.71000702585495,15.080033973101106,12.996642209522923,13.82486793435812,10.29659813359181,0,0,265.206052665815,474.4780080579612,712.3072930161971,723.4583130496728,846.8483762823673,982.5686820402776,1216.50824181169,1257.9828456147643,1257.9828456147643,0,0,0.9519090898109205,1,1,1,1,1,1,1,0.06666666666666667,1,1,1,1,1,1,1,1,1,1,1,0.5893333292007447,1,0.9519090898109205,1,1,1,1,1,1,1,0.9030999978383383,1,1,1,1,1,1,0.9999999999999999,1,1,1,1,2021-05-04,2021-05-19,2021-05-22,2021-06-24,2021-07-16,2021-08-06,2021-08-07,2021-08-16,2021-08-25,2021-09-12,2021-09-15,2021-05-18,2021-05-21,2021-06-23,2021-07-15,2021-08-05,2021-08-06,2021-08-15,2021-08-24,2021-09-11,2021-09-14,2021-09-29,124,139,142,175,197,218,219,228,237,255,258,15,3,33,22,21,1,9,9,18,3,15,138,141,174,196,217,218,227,236,254,257,272
120,ames_ia,42.0215,-93.7745,2022,2022-05-29,3,30,early3,1167.028863664617,11,2022-05-15,2022-05-29,121,2022-09-27,2022-10-05,2022-10-19,Harvested at Maturity.,4.04866669178009,0.6266666650772095,7.1491175609476425,2.2447826240373696,0.5083333353201548,0,1.8977777693006728,9.618889066908094,2.3586363684047353,0,0.5266666650772095,4.04866669178009,0.6266666650772095,7.1491175609476425,2.2447826240373696,0.5083333353201548,0,1.8977777693006728,9.618889066908094,2.3586363684047353,0,0.5266666650772095,20.53158925374349,22.103307723999023,20.932145090664136,18.455100598542586,20.197542402479385,17.84015655517578,17.055093977186417,17.025878058539497,14.659306699579412,15.949721336364746,11.909296798706055,22.10066661834717,27.083333333333332,29.255882150986615,29.417391320933465,29.57055558098687,26.600000381469727,27.17999988132053,28.898888905843098,25.413636337627064,21.767499923706055,17.1193333307902,15.98799995581309,21.22499990463257,22.792205733411453,23.93608696564384,23.153888993793064,21.21500015258789,21.105000072055393,22.4516667260064,19.100909081372347,13.341249946504831,9.566666648785274,9.875333293279011,15.366666475931803,16.32852931583629,18.454782610354215,16.73722240659926,15.829999923706056,15.030000262790256,16.004444546169704,12.788181825117631,4.914999969303608,2.0139999667803448,6.335341529995005,11.084531288146973,7.10976090509893,9.133327635427257,10.679454746679095,10.750305823146208,11.102864827334647,12.43767579260005,9.68991731425009,6.91487306962572,2.4269673174179096,6.335341529995005,11.084531288146973,7.10976090509893,9.133327635427257,10.679454746679095,10.750305823146208,11.102864827334647,12.43767579260005,9.68991731425009,6.91487306962572,2.4269673174179096,0,0,241.7318707733636,451.7984063881905,644.0285918284142,654.7788976515603,754.7046810975722,866.6437632309727,1079.8219441444749,1135.1409287014806,1135.1409287014806,0,0,0.9688529400264516,0.9989347810330598,0.989388887087504,1,0.9969444433848064,1,0.834613643993031,0.3397499956190586,0.04503333409627279,1,1,1,1,1,1,1,1,1,1,1,0.5619333306948344,0.9063333352406819,0.9688529400264516,0.9989347810330598,0.989388887087504,1,0.9969444433848064,1,0.834613643993031,0.3397499956190586,0.21016666491826377,1,1,1,0.9999999999999999,1,1,1,1,0.9999999999999999,1,1,2022-05-15,2022-05-30,2022-06-02,2022-07-06,2022-07-29,2022-08-16,2022-08-17,2022-08-26,2022-09-04,2022-09-26,2022-10-04,2022-05-29,2022-06-01,2022-07-05,2022-07-28,2022-08-15,2022-08-16,2022-08-25,2022-09-03,2022-09-25,2022-10-03,2022-10-18,135,150,153,187,210,228,229,238,247,269,277,15,3,34,23,18,1,9,9,22,8,15,149,152,186,209,227,228,237,246,268,276,291
121,urbana_il,40.05325,-88.23485,2022,2022-05-27,3,5,early3,1051.4268678352587,11,2022-05-13,2022-05-27,113,2022-09-17,2022-09-22,2022-10-06,Harvested at Maturity.,3.227333348989487,0,0.921935466028029,2.7577272978695957,3.2706249728798866,11.869999885559082,0.6490000009536743,3.4722222222222223,3.435789481589669,7.048000335693359,0.4726666609446208,3.227333348989487,0,0.921935466028029,2.7577272978695957,3.2706249728798866,11.869999885559082,0.6490000009536743,3.4722222222222223,3.435789481589669,7.048000335693359,0.4726666609446208,19.618885167439778,24.691171010335285,22.61994974074825,19.057598417455498,18.341796159744263,11.189138412475586,19.46748552322388,18.315610461764866,15.819788631639982,15.62774658203125,15.87244472503662,25.728666687011717,27.72333335876465,29.98967724461709,30.137272748080168,29.203750014305115,29.84000015258789,26.678000068664552,27.886667039659287,26.68684206510845,30.055999755859375,22.165333175659182,19.455666796366373,20.803333441416424,23.25419350593321,24.430000045082785,23.966250032186508,26.010000228881836,20.90000009536743,21.70222240024143,20.951315779435006,23.135999965667725,14.576666545867921,13.182666905721028,13.883333524068197,16.518709767249323,18.722727342085406,18.7287500500679,22.18000030517578,15.122000122070313,15.517777760823568,15.215789493761564,16.216000175476076,6.98799991607666,9.391410740527311,10.757278815559546,7.874156197223122,9.635991429458723,11.415930310825745,14.489095596389898,10.529060807744333,11.709819450971816,11.14766047724109,12.815063894603252,4.4847753271148605,9.391410740527311,10.757278815559546,7.874156197223122,9.635991429458723,11.415930310825745,14.489095596389898,10.529060807744333,11.709819450971816,11.14766047724109,12.815063894603252,4.4847753271148605,0,0,244.09884211391676,456.0906535620087,638.7455385352206,653.2346341316105,758.525242209054,863.9136172678003,1075.7191663353808,1139.7944858083972,1139.7944858083972,0,0,0.9887903228882821,1,1,1,0.9935499954223633,1,0.9481052549261796,1,0.06666666666666667,1,1,1,1,1,1,1,1,1,1,1,0.8462666734059652,0.8908333460489909,0.9887903228882821,1,1,1,0.9935499954223633,1,0.9481052549261796,1,0.4294666576385498,1,1,1,1,0.9999999999999999,1,1,1,1,1,1,2022-05-13,2022-05-28,2022-05-31,2022-07-01,2022-07-23,2022-08-08,2022-08-09,2022-08-19,2022-08-28,2022-09-16,2022-09-21,2022-05-27,2022-05-30,2022-06-30,2022-07-22,2022-08-07,2022-08-08,2022-08-18,2022-08-27,2022-09-15,2022-09-20,2022-10-05,133,148,151,182,204,220,221,231,240,259,264,15,3,31,22,16,1,10,9,19,5,15,147,150,181,203,219,220,230,239,258,263,278
122,westlafayette_in,40.4806,-87.004125,2022,2022-05-28,3,26,early3,1082.919830098784,11,2022-05-14,2022-05-28,116,2022-09-21,2022-09-30,2022-10-14,Harvested at Maturity.,6.6186666816473005,0,1.1134375035762787,2.971304312996242,2.5258823352701523,0,3.3920000791549683,6.211111108462016,1.7405263373726292,0.5666666560702853,0.4006666580835978,6.6186666816473005,0,1.1134375035762787,2.971304312996242,2.5258823352701523,0,3.3920000791549683,6.211111108462016,1.7405263373726292,0.5666666560702853,0.4006666580835978,19.26876907348633,23.797403971354168,22.30172771215439,17.92834810588671,18.34720785477582,22.23343849182129,18.686165714263915,18.640544785393608,15.184202997308029,14.670236163669163,14.32346280415853,24.366000111897787,29.769999821980793,29.081562280654907,29.521739213362984,29.018235262702493,24.549999237060547,26.817000007629396,28.520000245836044,26.504736950522975,22.377778159247505,20.366666539510092,18.40733346939087,22.921666463216145,22.346093699336052,23.705434861390486,23.484411604264203,18.37999963760376,20.915000009536744,21.848888927035862,20.562894745876914,15.840000179078844,12.184999923842648,12.448666826883953,16.073333104451496,15.610625118017197,17.88913050941799,17.950587945825912,12.210000038146973,15.013000011444092,15.177777608235678,14.621052541230855,9.302222198910183,4.003333308175206,8.441083114076058,12.859436619397005,7.4053880599518385,9.236306462884405,11.302369351936573,7.864534546758129,10.84228581442534,11.801409022484224,10.831173659566202,7.750875318926572,3.649063410743928,8.441083114076058,12.859436619397005,7.4053880599518385,9.236306462884405,11.302369351936573,7.864534546758129,10.84228581442534,11.801409022484224,10.831173659566202,7.750875318926572,3.649063410743928,0,0,236.97241791845883,449.4074665648003,641.547745547722,649.4122800944801,757.8351382387334,864.0478194410914,1069.8401189728495,1139.5979968431886,1139.5979968431886,0,0,0.9741250008344651,0.9967608700627866,1,0.837999963760376,0.9896499967575073,0.9981666670905219,0.9342631590993781,0.49605556329091394,0.007233333587646485,1,1,1,1,1,1,1,1,1,1,1,0.7884000047047933,0.9971666653951009,0.9741250008344651,0.9967608700627866,1,0.837999963760376,0.9896499967575073,0.9981666670905219,0.9342631590993781,0.49605556329091394,0.2409333249864479,1,1,1,1,1,1,1,0.9999999999999999,1,0.9999999999999999,1,2022-05-14,2022-05-29,2022-06-01,2022-07-03,2022-07-26,2022-08-12,2022-08-13,2022-08-23,2022-09-01,2022-09-20,2022-09-29,2022-05-28,2022-05-31,2022-07-02,2022-07-25,2022-08-11,2022-08-12,2022-08-22,2022-08-31,2022-09-19,2022-09-28,2022-10-13,134,149,152,184,207,224,225,235,244,263,272,15,3,32,23,17,1,10,9,19,9,15,148,151,183,206,223,224,234,243,262,271,286
123,columbia_mo,38.8894,-92.2081,2022,2022-05-25,3,17,early3,961.501909614347,11,2022-05-11,2022-05-25,103,2022-09-05,2022-09-10,2022-09-24,Harvested at Maturity.,4.784000015258789,0.4300000071525574,2.945555576571712,1.2295238404046922,2.7052941182080437,0.5299999713897705,1.793750047683716,5.051249962300062,0.3300000037997961,1.0079999923706056,2.472000018755595,4.784000015258789,0.4300000071525574,2.945555576571712,1.2295238404046922,2.7052941182080437,0.5299999713897705,1.793750047683716,5.051249962300062,0.3300000037997961,1.0079999923706056,2.472000018755595,19.811831347147624,21.888925790786743,20.508064058091904,20.66502387183053,18.525105364182416,18.923110961914063,17.83601140975952,17.351555943489075,18.862222099304198,14.759364318847657,15.304513835906983,25.908000055948893,24.710000038146973,30.142592748006184,32.169523965744744,32.23176462510053,35.70000076293945,32.33875012397766,28.648749589920044,30.445333353678386,27.454000091552736,28.757333501180014,20.159666728973388,19.055000066757202,24.538889001916957,26.175952457246325,26.2599998922909,29.860000610351563,26.866250157356262,23.32937479019165,24.276666577657064,22.40000009536743,22.248000049591063,14.411333401997885,13.400000095367432,18.935185255827726,20.18238094874791,20.288235159481275,24.020000457763672,21.393750190734863,18.009999990463257,18.107999801635742,17.346000099182127,15.738666598002116,9.835079303322235,8.942929072964192,9.022570720050995,9.90689512373906,10.950577314786308,12.843004099602114,13.753499493447858,12.94827601386491,13.848347153807481,12.400000095367432,10.639456847729683,9.835079303322235,8.942929072964192,9.022570720050995,9.90689512373906,10.950577314786308,12.843004099602114,13.753499493447858,12.94827601386491,13.848347153807481,12.400000095367432,10.639456847729683,0,0,243.60940944137687,451.654207039897,637.8140213912642,650.6570254908663,760.6850214384493,864.2712295493686,1071.9964368564808,1133.996437333318,1133.996437333318,0,0,0.9900370332929823,0.9953571410406203,0.9928823471069336,1,1,1,1,1,0.06666666666666667,1,1,1,1,1,1,1,1,1,1,1,0.8190666739145915,0.8101249933242798,0.9900370332929823,0.9953571410406203,0.9928823471069336,1,1,1,1,1,0.9281333351135254,1,1,1,1,1,1,1,1,1,1,1,2022-05-11,2022-05-26,2022-05-30,2022-06-26,2022-07-17,2022-08-03,2022-08-04,2022-08-12,2022-08-20,2022-09-04,2022-09-09,2022-05-25,2022-05-29,2022-06-25,2022-07-16,2022-08-02,2022-08-03,2022-08-11,2022-08-19,2022-09-03,2022-09-08,2022-09-23,131,146,150,177,198,215,216,224,232,247,252,15,4,27,21,17,1,8,8,15,5,15,145,149,176,197,214,215,223,231,246,251,266
124,ames_ia,42.0215,-93.7745,2022,2022-05-29,2,30,early2,969.5069333782828,11,2022-05-15,2022-05-29,104,2022-09-10,2022-09-19,2022-10-03,Harvested at Maturity.,4.04866669178009,0.6266666650772095,6.487999908129374,3.8245833218097687,0.5973333636919658,0,1.208571434020996,2.439999989100865,5.771333440144857,4.741111119588216,0.6146666685740153,4.04866669178009,0.6266666650772095,6.487999908129374,3.8245833218097687,0.5973333636919658,0,1.208571434020996,2.439999989100865,5.771333440144857,4.741111119588216,0.6146666685740153,20.53158925374349,22.103307723999023,21.10658458073934,18.432308594385784,21.601028315226237,24.327783584594727,16.358590534755162,16.747103146144322,16.777051162719726,14.724527570936415,14.681252606709798,22.10066661834717,27.083333333333332,28.94633305867513,30.0016667842865,29.971333185831707,31.270000457763672,26.932857240949357,27.124285561697825,28.05933329264323,25.128889083862305,23.28266658782959,15.98799995581309,21.22499990463257,22.569833143552145,24.326041718324024,23.242666625976565,22.290000438690186,21.770714487348283,20.980714321136475,21.911666679382325,18.50055572721693,15.985999935865403,9.875333293279011,15.366666475931803,16.193333228429157,18.650416652361553,16.51400006612142,13.3100004196167,16.60857173374721,14.837143080575126,15.764000066121419,11.87222237057156,8.689333283901215,6.335341529995005,11.084531288146973,8.34392084417256,10.38819747695286,11.13219865823896,11.56980558146503,11.674396061414495,11.058815122400864,11.903272119338514,9.35894264770945,5.703723927925825,6.335341529995005,11.084531288146973,8.34392084417256,10.38819747695286,11.13219865823896,11.56980558146503,11.674396061414495,11.058815122400864,11.903272119338514,9.35894264770945,5.703723927925825,0,0,250.31762532517683,499.6343647720454,666.6173446456297,678.1871502270948,759.9079226569962,837.3196285138023,1015.86871030388,1100.0991941332652,1100.0991941332652,0,0,0.9646999986966451,0.9989791651566823,0.9981999969482422,1,0.9765714304787773,0.9960714272090367,0.9994333330790202,0.8089444584316677,0.06666666666666667,1,1,1,1,1,1,1,1,1,1,1,0.5619333306948344,0.9063333352406819,0.9646999986966451,0.9989791651566823,0.9981999969482422,1,0.9765714304787773,0.9960714272090367,0.9994333330790202,0.8089444584316677,0.5449666678905487,1,1,1,0.9999999999999999,1,1,0.9999999999999999,1,1,0.9999999999999999,1,2022-05-15,2022-05-30,2022-06-02,2022-07-02,2022-07-26,2022-08-10,2022-08-11,2022-08-18,2022-08-25,2022-09-09,2022-09-18,2022-05-29,2022-06-01,2022-07-01,2022-07-25,2022-08-09,2022-08-10,2022-08-17,2022-08-24,2022-09-08,2022-09-17,2022-10-02,135,150,153,183,207,222,223,230,237,252,261,15,3,30,24,15,1,7,7,15,9,15,149,152,182,206,221,222,229,236,251,260,275
125,urbana_il,40.05325,-88.23485,2022,2022-05-27,2,5,early2,865.7481305857052,11,2022-05-13,2022-05-27,99,2022-09-03,2022-09-10,2022-09-24,Harvested at Maturity.,3.227333348989487,0,1.0585184980321816,2.6378261110057,3.488666637738546,0,1.978333314259847,0.927142858505249,4.121999994913737,3.5728572010993958,3.3540000915527344,3.227333348989487,0,1.0585184980321816,2.6378261110057,3.488666637738546,0,1.978333314259847,0.927142858505249,4.121999994913737,3.5728572010993958,3.3540000915527344,19.618885167439778,24.691171010335285,22.21807179627595,19.616480495618738,19.353891372680664,17.935705184936523,17.828920364379883,18.683548654828755,18.204892539978026,13.630717550005231,15.960137303670248,25.728666687011717,27.72333335876465,30.082592434353298,29.75913031204887,29.308000055948895,30.040000915527344,29.380000114440918,26.562857219151088,28.274000295003255,26.358571461268834,26.5473331451416,19.455666796366373,20.803333441416424,23.480370344939054,23.856086917545486,23.646333408355712,25.45500087738037,24.46666669845581,20.896428653172084,21.970000171661376,21.859999997275217,20.001333236694336,13.182666905721028,13.883333524068197,16.878148255524813,17.953043523042098,17.984666760762533,20.8700008392334,19.553333282470703,15.23000008719308,15.6660000483195,17.361428533281597,13.45533332824707,9.391410740527311,10.757278815559546,9.242198365536074,10.420389335341948,11.749295803862424,14.540794781726804,13.773927323777226,10.951246322594372,11.95393983639876,11.908230244374275,9.23573528084596,9.391410740527311,10.757278815559546,9.242198365536074,10.420389335341948,11.749295803862424,14.540794781726804,13.773927323777226,10.951246322594372,11.95393983639876,11.908230244374275,9.23573528084596,0,0,249.539355869474,489.20831058233887,665.4477476402756,679.9885424220024,762.6321063646658,839.2908306228263,1018.5999281688078,1101.9575398794277,1101.9575398794277,0,0,0.9893148157331678,0.99743478194527,1,1,1,0.9907857077462333,1,0.9972142764500209,0.06666666666666667,1,1,1,1,1,1,1,1,1,1,1,0.8462666734059652,0.8908333460489909,0.9893148157331678,0.99743478194527,1,1,1,0.9907857077462333,1,0.9972142764500209,0.8579666614532471,1,1,1,1,1,1,1,1,0.9999999999999999,1,1,2022-05-13,2022-05-28,2022-05-31,2022-06-27,2022-07-20,2022-08-04,2022-08-05,2022-08-11,2022-08-18,2022-09-02,2022-09-09,2022-05-27,2022-05-30,2022-06-26,2022-07-19,2022-08-03,2022-08-04,2022-08-10,2022-08-17,2022-09-01,2022-09-08,2022-09-23,133,148,151,178,201,216,217,223,230,245,252,15,3,27,23,15,1,6,7,15,7,15,147,150,177,200,215,216,222,229,244,251,266
126,westlafayette_in,40.4806,-87.004125,2022,2022-05-28,2,26,early2,843.2129092872078,11,2022-05-14,2022-05-28,102,2022-09-07,2022-09-15,2022-09-29,Harvested at Maturity.,6.6186666816473005,0,1.228620693601411,2.578333298365275,2.621428532259805,4.429999828338623,4.337143046515329,1.6899999891008652,3.7266666650772096,3.263750046491623,0.8039999961853027,6.6186666816473005,0,1.228620693601411,2.578333298365275,2.621428532259805,4.429999828338623,4.337143046515329,1.6899999891008652,3.7266666650772096,3.263750046491623,0.8039999961853027,19.26876907348633,23.797403971354168,22.233825815135035,18.86665517091751,18.454882826123917,12.749642372131348,17.234376907348633,19.747955594744003,17.413486035664874,14.700518608093262,15.261357752482096,24.366000111897787,29.769999821980793,28.900344651320886,29.857499996821087,29.07142870766776,31.459999084472656,26.28142820085798,27.32714298793248,27.946000162760416,24.917500019073486,24.691333643595378,18.40733346939087,22.921666463216145,22.191206849854566,23.75583340724309,23.529642786298478,26.72499942779541,21.035713945116317,21.21500015258789,21.920000012715658,19.11374992132187,17.97800014813741,12.448666826883953,16.073333104451496,15.48206904838825,17.6541668176651,17.9878568649292,21.989999771118164,15.789999689374651,15.102857317243304,15.8939998626709,13.309999823570251,11.264666652679443,8.441083114076058,12.859436619397005,8.512976270804991,10.373084038612056,12.013019620674207,15.400806845414625,10.989557424004172,11.277516205751896,11.891512069984675,9.57233484910056,7.566735726580222,8.441083114076058,12.859436619397005,8.512976270804991,10.373084038612056,12.013019620674207,15.400806845414625,10.989557424004172,11.277516205751896,11.891512069984675,9.57233484910056,7.566735726580222,0,0,246.87631185334476,495.83032878003416,664.0126034694731,679.4134103148878,756.3403122829171,835.2829257231804,1013.6556067729504,1090.2342855657548,1090.2342855657548,0,0,0.971448276782858,0.9968958338101706,1,1,0.962071418762207,1,0.9989000002543131,0.8600625038146973,0.05916666666666667,1,1,1,1,1,1,1,1,1,1,1,0.7884000047047933,0.9971666653951009,0.971448276782858,0.9968958338101706,1,1,0.962071418762207,1,0.9989000002543131,0.8600625038146973,0.6890000041325888,1,1,1,1,0.9999999999999999,1,0.9999999999999999,1,1,1,1,2022-05-14,2022-05-29,2022-06-01,2022-06-30,2022-07-24,2022-08-07,2022-08-08,2022-08-15,2022-08-22,2022-09-06,2022-09-14,2022-05-28,2022-05-31,2022-06-29,2022-07-23,2022-08-06,2022-08-07,2022-08-14,2022-08-21,2022-09-05,2022-09-13,2022-09-28,134,149,152,181,205,219,220,227,234,249,257,15,3,29,24,14,1,7,7,15,8,15,148,151,180,204,218,219,226,233,248,256,271
127,eastlansing_mi,42.6296,-84.4375,2022,2022-05-29,2,6,early2,969.8276236987024,11,2022-05-15,2022-05-29,114,2022-09-20,2022-10-02,2022-10-16,Harvested at Maturity.,3.4700000445048014,0,2.4451428856168476,1.9488461418793752,4.445624977350235,0,1.9371428745133537,1.9628571101597379,1.8000000317891438,2.9958333174387612,1.3573333144187927,3.4700000445048014,0,2.4451428856168476,1.9488461418793752,4.445624977350235,0,1.9371428745133537,1.9628571101597379,1.8000000317891438,2.9958333174387612,1.3573333144187927,18.818885548909506,21.254055976867676,22.000352151053292,19.50852661866408,17.807371973991394,22.068674087524418,18.97286810193743,16.065850257873535,14.737375762727526,11.952565670013428,12.264369519551595,22.43800017038981,30.869999885559082,27.58942860194615,28.207307815551758,27.450000286102295,27.399999618530273,27.601428985595703,27.21857179914202,25.708333227369522,18.87583343187968,18.228666559855142,16.74266676902771,25.115000247955322,20.87657139641898,22.145769357681274,21.94781270623207,20.28499984741211,21.275000163487025,21.461428914751327,19.846666547987198,13.86375007033348,11.048666648070018,11.047333367665608,19.360000610351563,14.163714190891811,16.08423089981079,16.445625126361847,13.170000076293944,14.948571341378349,15.704286030360631,13.984999868604872,8.851666708787283,3.868666736284892,6.950163510880669,14.804188400781154,7.252877201122202,9.300544764736355,10.933740194546147,10.28499984741211,11.348393649176188,11.487666432488815,10.194032255083984,6.581300797193746,2.6850144326907395,6.950163510880669,14.804188400781154,7.252877201122202,9.300544764736355,10.933740194546147,10.28499984741211,11.348393649176188,11.487666432488815,10.194032255083984,6.581300797193746,2.6850144326907395,0,0,253.8507020392771,495.6648659224222,670.6047090351605,680.8897088825726,760.3284644268059,840.7421294542277,1024.2347100457396,1103.2103196120645,1103.2103196120645,0,0,0.9003571442195347,0.9921730793439425,0.9410000085830689,1,1,1,0.8968333244323731,0.36829167703787485,0.01599999745686849,1,1,1,1,1,1,1,1,1,1,1,0.6499666770299276,1,0.9003571442195347,0.9921730793439425,0.9410000085830689,1,1,1,0.8968333244323731,0.36829167703787485,0.18339999874432883,1,1,1,0.9999999999999999,1,1,1,1,0.9999999999999999,1,1,2022-05-15,2022-05-30,2022-06-01,2022-07-06,2022-08-01,2022-08-17,2022-08-18,2022-08-25,2022-09-01,2022-09-19,2022-10-01,2022-05-29,2022-05-31,2022-07-05,2022-07-31,2022-08-16,2022-08-17,2022-08-24,2022-08-31,2022-09-18,2022-09-30,2022-10-15,135,150,152,187,213,229,230,237,244,262,274,15,2,35,26,16,1,7,7,18,12,15,149,151,186,212,228,229,236,243,261,273,288
128,crookston_mn,47.805,-96.61426667,2022,2022-05-20,0,21,early0,782.1298857506537,11,2022-05-06,2022-05-20,112,2022-09-09,2022-09-21,2022-10-05,Harvested at Maturity.,5.817999990781148,1.1662499606609344,2.879999941901157,2.941500025987625,0.1269565198732459,NA,1.8849999904632568,2.1157143456595287,0,0.9225000118215879,0.46266666253407795,5.817999990781148,1.1662499606609344,2.879999941901157,2.941500025987625,0.1269565198732459,NA,1.8849999904632568,2.1157143456595287,0,0.9225000118215879,0.46266666253407795,18.642333920796712,24.862417221069336,21.376108269942435,19.491751766204835,19.99770094000775,NA,16.735267957051594,15.861660412379674,17.917796730995178,13.54508352279663,11.109489885965983,18.634000142415363,20.707499861717224,25.739210680911416,27.949499988555907,26.01782632910687,NA,27.4350004196167,25.61000006539481,27.09999990463257,23.016666889190674,19.590000025431316,13.393666744232178,13.371874921023846,19.321842171643908,21.96574995517731,19.736521866010584,NA,21.00250021616618,19.17428568431309,19.11874994635582,16.05916678905487,13.444666721547643,8.15333334604899,6.036249980330467,12.904473662376404,15.981999921798707,13.455217402914297,NA,14.570000012715658,12.738571303231376,11.137499988079071,9.101666688919067,7.299333417663972,3.9507792537667354,4.744862174163014,6.840422365391511,9.536448866116562,9.262876901398464,NA,11.12628497760892,9.705799875582116,9.976602752090246,7.771111405448119,3.9229105703502274,3.9507792537667354,4.744862174163014,6.840422365391511,9.536448866116562,9.262876901398464,NA,11.12628497760892,9.705799875582116,9.976602752090246,7.771111405448119,3.9229105703502274,0,0,259.93604988487743,450.6650272072087,663.7111959393733,NA,730.4689058050268,798.4095049341015,878.2223269508237,971.475663816201,971.475663816201,0,0,0.8121315808672654,0.9717250037193298,0.9101304406705111,NA,1,0.8974999904632569,0.8608124941587448,0.6052083452542623,0.043333336512247723,1,1,1,1,1,NA,1,1,1,1,1,0.36103333950042726,0.39812498837709426,0.8121315808672654,0.9717250037193298,0.9101304406705111,NA,1,0.8974999904632569,0.8608124941587448,0.6052083452542623,0.36196667432785035,1,1,1,0.9999999999999999,0.9999999999999999,NA,0.9999999999999999,0.9999999999999999,1,1,1,2022-05-06,2022-05-21,2022-05-29,2022-07-06,2022-07-26,NA,2022-08-18,2022-08-24,2022-08-31,2022-09-08,2022-09-20,2022-05-20,2022-05-28,2022-07-05,2022-07-25,2022-08-17,NA,2022-08-23,2022-08-30,2022-09-07,2022-09-19,2022-10-04,126,141,149,187,207,NA,230,236,243,251,263,15,8,38,20,23,0,6,7,8,12,15,140,148,186,206,229,NA,235,242,250,262,277
129,moorhead_mn,47.0062,-96.802,2022,2022-05-22,0,25,early0,798.8101036248315,11,2022-05-08,2022-05-22,104,2022-09-03,2022-09-12,2022-09-26,Harvested at Maturity.,3.5813332716623942,1.3783333202203114,2.399428585597447,5.320000065161901,1.7978260983591494,0,4.039999961853027,1.4250000317891438,1.3125,0.32000001271565753,0.9153333266576131,3.5813332716623942,1.3783333202203114,2.399428585597447,5.320000065161901,1.7978260983591494,0,4.039999961853027,1.4250000317891438,1.3125,0.32000001271565753,0.9153333266576131,21.91955788930257,25.320056279500324,21.376929610116143,18.83056438670439,20.38177904875382,13.783995628356934,15.769978364308676,17.147687594095867,17.392605185508728,16.25936222076416,12.984095573425293,18.670000076293945,23.90500005086263,26.937714331490653,28.988823385799634,27.082173803578254,23.969999313354492,26.780000050862633,26.698333104451496,26.956249952316284,25.351111518012154,22.100666809082032,13.08166670948267,15.259166697661083,20.211999998773848,23.2249999887803,20.384130457173224,19.949999809265137,21.556666771570843,20.459999958674114,19.836249947547913,18.293889072206284,15.396666749318442,7.493333342671394,6.613333344459534,13.486285666057041,17.46117659176097,13.686087110768193,15.93000030517578,16.333333492279053,14.221666812896729,12.716249942779541,11.236666626400417,8.69266668955485,3.972751582962554,6.113691540604583,7.527193714587643,10.477294090323346,9.457780319638633,9.949999809265137,11.58063136716485,10.588881176703175,10.315685190048814,9.24111900522179,5.39392611075898,3.972751582962554,6.113691540604583,7.527193714587643,10.477294090323346,9.457780319638633,9.949999809265137,11.58063136716485,10.588881176703175,10.315685190048814,9.24111900522179,5.39392611075898,0,0,263.4517800105675,441.5657795460645,659.0947268977528,669.044726707018,738.5285149100071,802.0618019702263,884.5872834906169,967.7573545376129,967.7573545376129,0,0,0.8599571428980146,1,0.9319999985072924,0.9949999809265138,1,0.9860833326975504,0.9289375007152557,0.8013333400090535,0.030799997647603352,1,1,1,1,1,1,1,1,1,1,1,0.35950000603993737,0.5125833412011465,0.8599571428980146,1,0.9319999985072924,0.9949999809265138,1,0.9860833326975504,0.9289375007152557,0.8013333400090535,0.5396666749318441,1,1,1,1,0.9999999999999999,0.9999999999999998,1,1,0.9999999999999999,0.9999999999999999,1,2022-05-08,2022-05-23,2022-05-29,2022-07-03,2022-07-20,2022-08-12,2022-08-13,2022-08-19,2022-08-25,2022-09-02,2022-09-11,2022-05-22,2022-05-28,2022-07-02,2022-07-19,2022-08-11,2022-08-12,2022-08-18,2022-08-24,2022-09-01,2022-09-10,2022-09-25,128,143,149,184,201,224,225,231,237,245,254,15,6,35,17,23,1,6,6,8,9,15,142,148,183,200,223,224,230,236,244,253,268
130,butlerville_in,39.0362,-85.5264,2022,2022-05-26,3,29,early3,935.7612654649224,11,2022-05-12,2022-05-26,109,2022-09-12,2022-09-18,2022-10-02,Harvested at Maturity.,6.112000052134196,3.150000095367432,2.544666687647502,4.609523818606422,6.758125029504299,12.489999771118164,2.075555589463976,1.516666677263048,5.394705765387592,0.6299999952316284,1.384666657447815,6.112000052134196,3.150000095367432,2.544666687647502,4.609523818606422,6.758125029504299,12.489999771118164,2.075555589463976,1.516666677263048,5.394705765387592,0.6299999952316284,1.384666657447815,19.33456172943115,21.401557207107544,21.75778954823812,18.11203822635469,16.844555974006653,13.955397605895996,18.14219453599718,20.091286023457844,16.29360788008746,15.502825419108074,15.475470797220867,26.37733332316081,25.21750020980835,29.10900026957194,30.30428577604748,29.278125405311584,30.950000762939453,28.21999952528212,27.950000127156574,28.3417646744672,25.328333218892418,24.238000106811523,20.04800001780192,19.066250205039978,22.386666822433472,24.558571520305815,24.407500118017197,26.230000495910645,23.04944414562649,21.796666781107586,22.507647149703082,19.559166590372723,17.387333361307782,13.718666712443033,12.915000200271606,15.664333375295003,18.81285726456415,19.53687483072281,21.510000228881836,17.878888765970867,15.643333435058594,16.673529624938965,13.789999961853027,10.536666615804037,10.047855228337447,9.062503204075995,7.951263231307803,9.921114473082314,11.715813267381579,14.398680829481222,12.242761575067904,11.803520521287787,12.44032749012919,9.829590880030393,6.890411532763045,10.047855228337447,9.062503204075995,7.951263231307803,9.921114473082314,11.715813267381579,14.398680829481222,12.242761575067904,11.803520521287787,12.44032749012919,9.829590880030393,6.890411532763045,0,0,238.5378969392341,446.88130087396263,634.3343131520678,648.732993981549,758.9178481571602,865.1495328487503,1076.6351001809464,1135.612645461129,1135.612645461129,0,0,0.975299997329712,1,1,1,0.9994444423251682,1,0.9981176460490507,0.9029166618982951,0.06666666666666667,1,1,1,1,1,1,1,1,1,1,1,0.903366673787435,0.8361250162124634,0.975299997329712,1,1,1,0.9994444423251682,1,0.9981176460490507,0.9029166618982951,0.6409333451588949,1,1,1,1,1,1,1,0.9999999999999999,1,0.9999999999999999,1,2022-05-12,2022-05-27,2022-05-31,2022-06-30,2022-07-21,2022-08-06,2022-08-07,2022-08-16,2022-08-25,2022-09-11,2022-09-17,2022-05-26,2022-05-30,2022-06-29,2022-07-20,2022-08-05,2022-08-06,2022-08-15,2022-08-24,2022-09-10,2022-09-16,2022-10-01,132,147,151,181,202,218,219,228,237,254,260,15,4,30,21,16,1,9,9,17,6,15,146,150,180,201,217,218,227,236,253,259,274
131,wanatah_in,41.4444,-86.9437,2022,2022-05-29,3,10,early3,1090.2831949196702,11,2022-05-15,2022-05-29,126,2022-10-02,2022-10-11,2022-10-25,Harvested at Maturity.,2.3913333574930826,0.8466666539510092,2.626944490811891,2.970416667560736,2.820000031415154,0,0.7440000057220459,2.4850000739097595,1.5715999865531922,0.10555555423100789,1.5106666564941407,2.3913333574930826,0.8466666539510092,2.626944490811891,2.970416667560736,2.820000031415154,0,0.7440000057220459,2.4850000739097595,1.5715999865531922,0.10555555423100789,1.5106666564941407,20.38133544921875,18.434834480285645,21.725004169676037,18.386958837509155,18.600261407739975,23.57000160217285,19.230311775207518,14.966761589050293,14.446562824249268,14.625475777520073,9.690781863530477,22.657333374023438,28.426666259765625,28.079166571299236,27.704166730244953,27.50352960474351,27.649999618530273,27.50200023651123,27.625,23.279599876403807,19.87666681077745,16.99533316294352,16.814333391189574,23.358333269755047,21.631805539131165,22.50499999523163,22.398235292995675,20.024999618530273,21.287000131607055,22.406874895095825,17.359799942970277,12.220555656486088,10.687999903100232,10.971333408355713,18.290000279744465,15.184444506963095,17.305833260218304,17.292940981247845,12.399999618530272,15.07200002670288,17.18874979019165,11.440000009536742,4.564444502194722,4.3806666432569425,6.908469302621683,13.224845201377073,6.675713036113086,8.833578782692534,10.848963559612091,9.919012832495408,11.257556653906107,12.403231441150606,8.686137221436798,6.347535717999521,2.931849869053217,6.908469302621683,13.224845201377073,6.675713036113086,8.833578782692534,10.848963559612091,9.919012832495408,11.257556653906107,12.403231441150606,8.686137221436798,6.347535717999521,2.931849869053217,0,0,240.32566930007104,452.33156008469183,636.7639405980973,646.6829534305926,759.2585199696537,858.4843714988585,1075.6378020347784,1132.7656234967735,1132.7656234967735,0,0,0.9232916673024496,0.9954375008742015,0.9839999984292424,1,1,1,0.6820200009346008,0.24822223120265538,0.028600001335144044,1,1,1,1,1,1,1,1,1,1,1,0.666466670036316,1,0.9232916673024496,0.9954375008742015,0.9839999984292424,1,1,1,0.6820200009346008,0.24822223120265538,0.26599999229113264,1,1,1,1,0.9999999999999999,1,1,1,1,1,1,2022-05-15,2022-05-30,2022-06-02,2022-07-08,2022-08-01,2022-08-18,2022-08-19,2022-08-29,2022-09-06,2022-10-01,2022-10-10,2022-05-29,2022-06-01,2022-07-07,2022-07-31,2022-08-17,2022-08-18,2022-08-28,2022-09-05,2022-09-30,2022-10-09,2022-10-24,135,150,153,189,213,230,231,241,249,274,283,15,3,36,24,17,1,10,8,25,9,15,149,152,188,212,229,230,240,248,273,282,297
132,wooster_oh,40.7565,-81.9004,2022,2022-05-28,3,13,early3,1060.0707953038695,11,2022-05-14,2022-05-28,128,2022-10-03,2022-10-13,2022-10-27,Harvested at Maturity.,3.931333287556966,0,3.397428638594491,4.000000004967053,3.5738889045185513,4.659999847412109,2.093999922275543,6.9811111556159124,1.8950000130213225,0,2.597333304087321,3.931333287556966,0,3.397428638594491,4.000000004967053,3.5738889045185513,4.659999847412109,2.093999922275543,6.9811111556159124,1.8950000130213225,0,2.597333304087321,18.416019694010416,25.337608337402344,22.12882924761091,17.833603501319885,17.71259143617418,15.486686706542969,19.427627754211425,15.094304349687365,13.826293578514687,14.710895252227784,9.974622933069865,23.381999715169272,28.959999720255535,27.391142872401645,28.047916809717815,26.94277784559462,25.799999237060547,27.143000030517577,26.944444444444443,22.022307616013748,18.337999629974366,16.306666755676268,18.059999895095824,21.823333104451496,21.102857201439992,22.70083341995875,21.86944450272454,20.274999618530273,21.03349995613098,21.615555657280815,16.726923030156357,11.209499835968018,10.247666685717801,12.738000075022379,14.686666488647461,14.814571530478341,17.353750030199688,16.796111159854465,14.75,14.923999881744384,16.286666870117188,11.431538444298964,4.08100004196167,4.188666615759333,8.109832722120682,11.75352231442531,6.7721436494969955,9.040760468886914,10.445150304690625,10.1492631287096,11.072030864956407,11.644910482298004,8.120857091172498,5.885085523662344,2.228568726547559,8.109832722120682,11.75352231442531,6.7721436494969955,9.040760468886914,10.445150304690625,10.1492631287096,11.072030864956407,11.644910482298004,8.120857091172498,5.885085523662344,2.228568726547559,0,0,237.02502773239488,454.0032789856808,642.015984470112,652.1652475988216,762.8855562483857,867.6897505890677,1078.8320349595529,1137.6828901961762,1137.6828901961762,0,0,0.9132428598403931,0.99831250111262,0.9559444453981187,1,0.9991500043869018,0.9972777790493436,0.6552307665348053,0.16539998650550844,0.03210000038146973,1,1,1,1,1,1,1,1,1,1,1,0.7538666677474976,0.9733333269755046,0.9132428598403931,0.99831250111262,0.9559444453981187,1,0.9991500043869018,0.9972777790493436,0.6552307665348053,0.16539998650550844,0.17596666336059572,1,1,1,1,1,0.9999999999999998,0.9999999999999999,0.9999999999999999,1,0.9999999999999999,1,2022-05-14,2022-05-29,2022-06-01,2022-07-06,2022-07-30,2022-08-17,2022-08-18,2022-08-28,2022-09-06,2022-10-02,2022-10-12,2022-05-28,2022-05-31,2022-07-05,2022-07-29,2022-08-16,2022-08-17,2022-08-27,2022-09-05,2022-10-01,2022-10-11,2022-10-26,134,149,152,187,211,229,230,240,249,275,285,15,3,35,24,18,1,10,9,26,10,15,148,151,186,210,228,229,239,248,274,284,299
133,wanatah_in,41.4444,-86.9437,2022,2022-05-29,2,10,early2,948.9407512703953,11,2022-05-15,2022-05-29,108,2022-09-14,2022-09-22,2022-10-06,Harvested at Maturity.,2.3913333574930826,0.8466666539510092,2.0459375178907067,4.015600044727325,3.424285752432687,0,0.22624999284744263,0,3.2875000163912773,0.4962500110268593,0.5486666679382324,2.3913333574930826,0.8466666539510092,2.0459375178907067,4.015600044727325,3.424285752432687,0,0.22624999284744263,0,3.2875000163912773,0.4962500110268593,0.5486666679382324,20.38133544921875,18.434834480285645,22.365452975034714,17.524744415283205,18.915268557412283,21.999980926513672,20.198529720306396,19.57997294834682,14.834348291158676,15.955302715301514,14.047689247131347,22.657333374023438,28.426666259765625,27.781874895095825,28.205600051879884,28.424286024911062,24.579999923706055,26.16249990463257,26.834286008562362,26.63999980688095,26.94249987602234,19.931333414713542,16.814333391189574,23.358333269755047,21.240312471985817,23.047800006866456,23.190714359283447,18.77999973297119,20.478749930858612,20.79428584235055,21.096874862909317,20.17124992609024,13.53266672293345,10.971333408355713,18.290000279744465,14.698750048875809,17.88999996185303,17.957142693655832,12.979999542236328,14.794999957084656,14.75428567613874,15.553749918937683,13.399999976158142,7.134000031153361,6.908469302621683,13.224845201377073,7.602591671248566,10.070129123954853,12.028561637994288,8.692118937500124,10.571188919738006,10.876499411184447,11.204228776360303,10.590718501605838,3.545954104358753,6.908469302621683,13.224845201377073,7.602591671248566,10.070129123954853,12.028561637994288,8.692118937500124,10.571188919738006,10.876499411184447,11.204228776360303,10.590718501605838,3.545954104358753,0,0,243.28293347995415,495.03616157882544,663.4360245107456,672.1281434482457,756.6976548061498,832.8331506844409,1012.1008111062056,1096.8265591190525,1096.8265591190525,0,0,0.9137031257152558,0.9956200008392334,0.9997857127870832,0.8779999732971192,0.9816250026226043,1,0.9471875011920929,0.9203750014305115,0.06666666666666667,1,1,1,1,1,1,1,1,1,1,1,0.666466670036316,1,0.9137031257152558,0.9956200008392334,0.9997857127870832,0.8779999732971192,0.9816250026226043,1,0.9471875011920929,0.9203750014305115,0.33453333616256714,1,1,1,1,0.9999999999999999,1,1,0.9999999999999999,1,0.9999999999999999,1,2022-05-15,2022-05-30,2022-06-02,2022-07-04,2022-07-29,2022-08-12,2022-08-13,2022-08-21,2022-08-28,2022-09-13,2022-09-21,2022-05-29,2022-06-01,2022-07-03,2022-07-28,2022-08-11,2022-08-12,2022-08-20,2022-08-27,2022-09-12,2022-09-20,2022-10-05,135,150,153,185,210,224,225,233,240,256,264,15,3,32,25,14,1,8,7,16,8,15,149,152,184,209,223,224,232,239,255,263,278
134,wooster_oh,40.7565,-81.9004,2022,2022-05-28,2,13,early2,867.5753887336652,11,2022-05-14,2022-05-28,109,2022-09-14,2022-09-22,2022-10-06,Harvested at Maturity.,3.931333287556966,0,3.4131250865757465,4.403749987483025,3.784000023206075,NA,1.358888864517212,2.991428460393633,4.925882367526784,1.0975000262260437,1.3053333520889283,3.931333287556966,0,3.4131250865757465,4.403749987483025,3.784000023206075,NA,1.358888864517212,2.991428460393633,4.925882367526784,1.0975000262260437,1.3053333520889283,18.416019694010416,25.337608337402344,22.20313459634781,18.321543375651043,17.15120449066162,NA,19.511709107293022,18.326834269932338,14.900545428780948,15.313063859939575,13.443803151448568,23.381999715169272,28.959999720255535,27.18437498807907,28.30833347638448,28.190000152587892,NA,25.07111104329427,27.00999995640346,25.90470583298627,25.049999952316284,18.548666508992515,18.059999895095824,21.823333104451496,20.91859381645918,22.692083418369293,23.36700007120768,NA,19.303888850741917,21.187142780848912,20.703529414008646,19.064999997615814,12.900333261489868,12.738000075022379,14.686666488647461,14.652812644839287,17.075833360354107,18.543999989827473,NA,13.536666658189562,15.364285605294365,15.50235299503102,13.080000042915344,7.252000013987224,8.109832722120682,11.75352231442531,7.7642362294641405,10.007030491178362,12.303847224327058,NA,9.541943189185728,11.193196735947474,10.764501717443325,9.4192701916039,2.9500567022671302,8.109832722120682,11.75352231442531,7.7642362294641405,10.007030491178362,12.303847224327058,NA,9.541943189185728,11.193196735947474,10.764501717443325,9.4192701916039,2.9500567022671302,0,0,248.45555934285247,488.62429113113313,673.181999496039,NA,759.0594881987106,837.4118653503429,1020.4083945468792,1095.7625560797103,1095.7625560797103,0,0,0.9051093779504299,0.99831250111262,1,NA,0.9109444512261285,1,0.9758529382593492,0.8817499995231628,0.06666666666666667,1,1,1,1,1,NA,1,1,1,1,1,0.7538666677474976,0.9733333269755046,0.9051093779504299,0.99831250111262,1,NA,0.9109444512261285,1,0.9758529382593492,0.8817499995231628,0.27399999459584556,1,1,1,1,0.9999999999999999,NA,0.9999999999999999,1,1,0.9999999999999999,1,2022-05-14,2022-05-29,2022-06-01,2022-07-03,2022-07-27,NA,2022-08-11,2022-08-20,2022-08-27,2022-09-13,2022-09-21,2022-05-28,2022-05-31,2022-07-02,2022-07-26,2022-08-10,NA,2022-08-19,2022-08-26,2022-09-12,2022-09-20,2022-10-05,134,149,152,184,208,NA,223,232,239,256,264,15,3,32,24,15,0,9,7,17,8,15,148,151,183,207,222,NA,231,238,255,263,278
135,ames_ia,42.0215,-93.7745,2022,2022-05-29,1,30,early1,821.599462993758,11,2022-05-15,2022-05-29,92,2022-08-29,2022-09-06,2022-09-20,Harvested at Maturity.,4.04866669178009,0.6266666650772095,6.487999908129374,4.634117617326624,1.251764746273265,NA,0.1149999996026357,1.208571434020996,7.878000068664551,3.108750104904175,3.0900000095367433,4.04866669178009,0.6266666650772095,6.487999908129374,4.634117617326624,1.251764746273265,NA,0.1149999996026357,1.208571434020996,7.878000068664551,3.108750104904175,3.0900000095367433,20.53158925374349,22.103307723999023,21.10658458073934,17.510979371912338,21.705533308141373,NA,20.672983169555664,16.358590534755162,16.620843124389648,16.79719579219818,15.190158589680989,22.10066661834717,27.083333333333332,28.94633305867513,29.657647188972025,30.164117588716394,NA,30.65166664123535,26.932857240949357,27.495000076293945,28.37624979019165,26.107333374023437,15.98799995581309,21.22499990463257,22.569833143552145,24.184705958646887,23.585294078378116,NA,23.777500073115032,21.770714487348283,21.35950016975403,22.21999990940094,19.605666732788087,9.875333293279011,15.366666475931803,16.193333228429157,18.71176472832175,17.006470568039838,NA,16.90333350499471,16.60857173374721,15.224000263214112,16.06375002861023,13.104000091552734,6.335341529995005,11.084531288146973,9.480196734022957,11.340875350262838,11.707074991294828,NA,12.850405600717673,11.777703032053367,11.405217518689037,12.215451624256373,8.980573489962419,6.335341529995005,11.084531288146973,9.480196734022957,11.340875350262838,11.707074991294828,NA,12.850405600717673,11.777703032053367,11.405217518689037,12.215451624256373,8.980573489962419,0,0,284.4059020206887,477.200782975157,676.2210578271691,NA,753.3234914314752,835.7674126558487,949.8195878427392,1047.5432008367902,1047.5432008367902,0,0,0.9646999986966451,1,0.996970583410824,NA,1,0.9765714304787773,0.9972499990463257,1,0.06609999974568685,1,1,1,1,1,NA,1,1,1,1,1,0.5619333306948344,0.9063333352406819,0.9646999986966451,1,0.996970583410824,NA,1,0.9765714304787773,0.9972499990463257,1,0.8848000081380208,1,1,1,1,1,NA,1,0.9999999999999999,0.9999999999999999,1,1,2022-05-15,2022-05-30,2022-06-02,2022-07-02,2022-07-19,NA,2022-08-05,2022-08-11,2022-08-18,2022-08-28,2022-09-05,2022-05-29,2022-06-01,2022-07-01,2022-07-18,2022-08-04,NA,2022-08-10,2022-08-17,2022-08-27,2022-09-04,2022-09-19,135,150,153,183,200,NA,217,223,230,240,248,15,3,30,17,17,0,6,7,10,8,15,149,152,182,199,216,NA,222,229,239,247,262
136,wanatah_in,41.4444,-86.9437,2022,2022-05-29,1,10,early1,731.9517193361338,11,2022-05-15,2022-05-29,96,2022-09-02,2022-09-10,2022-09-24,Harvested at Maturity.,2.3913333574930826,0.8466666539510092,2.520303070770972,2.3470588010900157,4.363125074654818,NA,2.988571439470564,0.2585714203970773,2.037272800098766,0.38749998807907104,2.0706666429837544,2.3913333574930826,0.8466666539510092,2.520303070770972,2.3470588010900157,4.363125074654818,NA,2.988571439470564,0.2585714203970773,2.037272800098766,0.38749998807907104,2.0706666429837544,20.38133544921875,18.434834480285645,22.226132970867734,17.905442854937384,18.650920152664185,NA,17.943775585719518,20.048430851527623,18.41450361772017,14.819851517677307,14.74818493525187,22.657333374023438,28.426666259765625,27.87939383766868,28.23235309825224,28.643750071525574,NA,26.11142894199916,26.418571199689595,27.82090932672674,26.617499828338623,25.05999978383382,16.814333391189574,23.358333269755047,21.323030283956818,23.064117684083826,23.36156252026558,NA,21.237857137407577,20.709285599844797,21.616363698785957,21.51187491416931,18.893333196640015,10.971333408355713,18.290000279744465,14.766666730244955,17.89588226991541,18.079374969005585,NA,16.36428533281599,15,15.41181807084517,16.40625,12.726666609446207,6.908469302621683,13.224845201377073,8.669996341128362,10.869464177838367,12.469280957817316,NA,11.335295969512632,10.78462476602282,11.58694711618857,11.581201950508357,8.31652593914191,6.908469302621683,13.224845201377073,8.669996341128362,10.869464177838367,12.469280957817316,NA,11.335295969512632,10.78462476602282,11.58694711618857,11.581201950508357,8.31652593914191,0,0,286.109879257236,470.8907702804883,670.3992656055656,NA,749.746337392154,825.2387107543137,952.695129032388,1045.3447446364548,1045.3447446364548,0,0,0.9163181825117631,0.9935588247635785,1,NA,0.9659285681588309,0.995214285169329,1,0.9945625066757202,0.06666666666666667,1,1,1,1,1,NA,1,1,1,1,1,0.666466670036316,1,0.9163181825117631,0.9935588247635785,1,NA,0.9659285681588309,0.995214285169329,1,0.9945625066757202,0.8106666612625122,1,1,1,0.9999999999999999,1,NA,0.9999999999999999,0.9999999999999999,0.9999999999999999,1,1,2022-05-15,2022-05-30,2022-06-02,2022-07-05,2022-07-22,NA,2022-08-07,2022-08-14,2022-08-21,2022-09-01,2022-09-09,2022-05-29,2022-06-01,2022-07-04,2022-07-21,2022-08-06,NA,2022-08-13,2022-08-20,2022-08-31,2022-09-08,2022-09-23,135,150,153,186,203,NA,219,226,233,244,252,15,3,33,17,16,0,7,7,11,8,15,149,152,185,202,218,NA,225,232,243,251,266
137,westlafayette_in,40.4806,-87.004125,2022,2022-05-28,1,26,early1,673.2932477290651,11,2022-05-14,2022-05-28,91,2022-08-27,2022-09-04,2022-09-18,Harvested at Maturity.,6.6186666816473005,0,1.1876666704813639,2.465882357429056,1.8337499424815178,NA,6.349999856948853,4.337143046515329,1.2181818160143767,6.791249990463257,1.7406666914621989,6.6186666816473005,0,1.1876666704813639,2.465882357429056,1.8337499424815178,NA,6.349999856948853,4.337143046515329,1.2181818160143767,6.791249990463257,1.7406666914621989,19.26876907348633,23.797403971354168,22.35075289408366,18.265110717100256,19.199241518974304,NA,16.096268272399904,17.234376907348633,20.069333163174715,17.794367909431458,15.066463851928711,24.366000111897787,29.769999821980793,29.007666460673015,29.424706066355984,29.141249895095825,NA,31.288000106811523,26.28142820085798,27.433636405251242,28.828750133514404,25.90466677347819,18.40733346939087,22.921666463216145,22.24549994468689,23.392353085910575,23.45562493801117,NA,25.899999809265136,21.035713945116317,21.147272803566672,22.241249918937683,20.02933333714803,12.448666826883953,16.073333104451496,15.483333428700766,17.36000010546516,17.769999980926514,NA,20.51199951171875,15.789999689374651,14.860909201882102,15.653749704360962,14.15399990081787,8.441083114076058,12.859436619397005,9.5819883596198,11.019435616688176,12.330380823848365,NA,15.164283888654417,11.135143828473772,11.198796221284434,12.171691873473673,9.200666650136311,8.441083114076058,12.859436619397005,9.5819883596198,11.019435616688176,12.330380823848365,NA,15.164283888654417,11.135143828473772,11.198796221284434,12.171691873473673,9.200666650136311,0,0,287.459650788594,474.790056272293,672.0761494538668,NA,747.8975688971389,825.8435756964553,949.030334130584,1046.4038691183734,1046.4038691183734,0,0,0.972400000890096,0.9956176477320055,1,NA,1,0.962071418762207,1,0.9979375004768372,0.06666666666666667,1,1,1,1,1,NA,1,1,1,1,1,0.7884000047047933,0.9971666653951009,0.972400000890096,0.9956176477320055,1,NA,1,0.962071418762207,1,0.9979375004768372,0.9167333348592123,1,1,1,1,0.9999999999999999,NA,1,0.9999999999999999,1,1,1,2022-05-14,2022-05-29,2022-06-01,2022-07-01,2022-07-18,NA,2022-08-03,2022-08-08,2022-08-15,2022-08-26,2022-09-03,2022-05-28,2022-05-31,2022-06-30,2022-07-17,2022-08-02,NA,2022-08-07,2022-08-14,2022-08-25,2022-09-02,2022-09-17,134,149,152,182,199,NA,215,220,227,238,246,15,3,30,17,16,0,5,7,11,8,15,148,151,181,198,214,NA,219,226,237,245,260
138,eastlansing_mi,42.6296,-84.4375,2022,2022-05-29,1,6,early1,841.1641210065567,11,2022-05-15,2022-05-29,100,2022-09-06,2022-09-16,2022-09-30,Harvested at Maturity.,3.4700000445048014,0,2.4451428856168476,2.457777770029174,3.754705877865062,0,1.716249942779541,2.2600000202655792,1.2490908882834695,1.6890000343322753,3.4306666692097982,3.4700000445048014,0,2.4451428856168476,2.457777770029174,3.754705877865062,0,1.716249942779541,2.2600000202655792,1.2490908882834695,1.6890000343322753,3.4306666692097982,18.818885548909506,21.254055976867676,22.000352151053292,18.97481001747979,18.55563668643727,23.44658088684082,19.48171639442444,18.454279740651447,15.779066215861928,14.873791694641113,12.141946601867676,22.43800017038981,30.869999885559082,27.58942860194615,28.572777960035538,28.575294382431927,27.420000076293945,25.047499895095825,27.55166721343994,27.133636474609375,24.63400001525879,21.05199998219808,16.74266676902771,25.115000247955322,20.87657139641898,22.561111317740547,22.892058961531696,20.085000038146973,19.063125014305115,21.385000228881836,21.49090918627652,18.823999977111818,15.892999990781147,11.047333367665608,19.360000610351563,14.163714190891811,16.549444675445557,17.208823540631464,12.75,13.078750133514404,15.21833324432373,15.84818189794367,13.013999938964844,10.733999999364217,6.950163510880669,14.804188400781154,8.277764190364364,10.345156133822913,11.995175043142947,10.085000038146973,9.407853854234517,11.443447395618756,11.509382108990712,9.365854834688902,5.665992351205945,6.950163510880669,14.804188400781154,8.277764190364364,10.345156133822913,11.995175043142947,10.085000038146973,9.407853854234517,11.443447395618756,11.509382108990712,9.365854834688902,5.665992351205945,0,0,289.72174666275276,475.9345570715654,679.8525328049956,689.9375328431425,765.2003636770187,833.8610480507313,960.4642512496292,1054.1227995965182,1054.1227995965182,0,0,0.9003571442195347,0.9890833351347181,0.9989411802852856,1,0.8833750128746033,1,0.9834999951449308,0.8502499914169311,0.054799998601277676,1,1,1,1,1,1,1,1,1,1,1,0.6499666770299276,1,0.9003571442195347,0.9890833351347181,0.9989411802852856,1,0.8833750128746033,1,0.9834999951449308,0.8502499914169311,0.5441000040372213,1,1,1,1,1,0.9999999999999998,0.9999999999999999,0.9999999999999999,1,1,1,2022-05-15,2022-05-30,2022-06-01,2022-07-06,2022-07-24,2022-08-10,2022-08-11,2022-08-19,2022-08-25,2022-09-05,2022-09-15,2022-05-29,2022-05-31,2022-07-05,2022-07-23,2022-08-09,2022-08-10,2022-08-18,2022-08-24,2022-09-04,2022-09-14,2022-09-29,135,150,152,187,205,222,223,231,237,248,258,15,2,35,18,17,1,8,6,11,10,15,149,151,186,204,221,222,230,236,247,257,272
139,lamberton_mn,44.24095,-95.3115,2022,2022-05-28,1,7,early1,861.4260661154195,11,2022-05-14,2022-05-28,100,2022-09-05,2022-09-14,2022-09-28,Harvested at Maturity.,1.738666691382726,6.767500162124634,1.0378787878787878,1.8464705838876612,2.7594736343935917,NA,0,3.3814285823277066,0,1.2777777777777777,0.40333332618077594,1.738666691382726,6.767500162124634,1.0378787878787878,1.8464705838876612,2.7594736343935917,NA,0,3.3814285823277066,0,1.2777777777777777,0.40333332618077594,21.516414960225422,16.225123643875122,22.0836256200617,19.205042839050293,20.05155826869764,NA,17.701941626412527,17.055435180664063,18.665976090864703,16.932536337110733,13.954416847229004,21.086666615804038,23.577500343322754,28.816363710345644,30.279411989099838,27.979473816721065,NA,26.182856968470983,26.540000098092214,28.276363546198066,25.761111153496635,24.39733320871989,14.882999897003174,18.922500252723694,22.55333338361798,24.76235305561739,21.820263159902474,NA,20.984999997275217,20.922143050602504,21.579999923706055,18.82166674402025,17.525999975204467,8.679333178202311,14.267500162124634,16.290303056890316,19.24529412213494,15.661052503083882,NA,15.78714302607945,15.304286003112793,14.883636301214045,11.882222334543863,10.654666741689047,5.270306064556639,8.959912739101053,8.653654628603087,11.327230313057308,10.395738096281173,NA,11.018412711390779,10.959379212634904,11.581971312892978,9.68455711937613,7.0343929372207326,5.270306064556639,8.959912739101053,8.653654628603087,11.327230313057308,10.395738096281173,NA,11.018412711390779,10.959379212634904,11.581971312892978,9.68455711937613,7.0343929372207326,0,0,285.5706027439019,478.1335180658761,675.6525418952185,NA,752.7814308749539,829.4970853633982,956.8987698052208,1044.059783879606,1044.059783879606,0,0,0.9375606074477687,1,0.970973687422903,NA,0.9726428508758544,0.9729999950953893,0.9618636348030785,0.7632222202089098,0.05136666615804037,1,1,1,1,1,NA,1,1,1,1,1,0.48179999510447186,0.7776250123977662,0.9375606074477687,1,0.970973687422903,NA,0.9726428508758544,0.9729999950953893,0.9618636348030785,0.7632222202089098,0.6753999916712443,1,1,1,1,0.9999999999999999,NA,1,0.9999999999999999,1,1,1,2022-05-14,2022-05-29,2022-06-02,2022-07-05,2022-07-22,NA,2022-08-10,2022-08-17,2022-08-24,2022-09-04,2022-09-13,2022-05-28,2022-06-01,2022-07-04,2022-07-21,2022-08-09,NA,2022-08-16,2022-08-23,2022-09-03,2022-09-12,2022-09-27,134,149,153,186,203,NA,222,229,236,247,256,15,4,33,17,19,0,7,7,11,9,15,148,152,185,202,221,NA,228,235,246,255,270
140,waseca_mn,44.07345,-93.53225,2022,2022-05-28,1,8,early1,822.2915770704537,11,2022-05-14,2022-05-28,104,2022-09-09,2022-09-19,2022-10-03,Harvested at Maturity.,2.218000039458275,0.949999988079071,3.9274285959345954,1.174705855986651,6.108500075340271,NA,2.8274999260902405,1.6057143551962716,4.766666650772095,1.4839999973773956,0.4659999926884969,2.218000039458275,0.949999988079071,3.9274285959345954,1.174705855986651,6.108500075340271,NA,2.8274999260902405,1.6057143551962716,4.766666650772095,1.4839999973773956,0.4659999926884969,20.571034781138103,19.880975087483723,20.935640389578683,19.821760121513815,18.264493703842163,NA,15.30887907743454,17.102903502328054,17.60503363609314,14.701406764984132,13.682994588216145,19.956000137329102,27.963333129882813,27.48199975149972,29.04294137393727,26.623499870300293,NA,24.06125020980835,25.82285717555455,26.897500038146973,24.163000297546386,20.903999837239585,14.239666676521301,22.103333314259846,21.559285633904594,23.690588334027456,21.14224991798401,NA,19.57125014066696,20.365714141300746,20.65500009059906,18.26750020980835,14.459666550159454,8.523333215713501,16.243333498636883,15.636571516309466,18.33823529411765,15.660999965667724,NA,15.081250071525574,14.908571107046944,14.412500143051147,12.372000122070313,8.015333263079325,4.690358881954948,11.920158762129148,8.2392518791361,10.849907759379684,10.229450324813486,NA,9.60948472296819,10.452465610705955,10.902223080987236,9.19488825354755,4.578176384556393,4.690358881954948,11.920158762129148,8.2392518791361,10.849907759379684,10.229450324813486,NA,9.60948472296819,10.452465610705955,10.902223080987236,9.19488825354755,4.578176384556393,0,0,288.37381576976355,472.82224767921815,677.4112541754879,NA,754.2871319592335,827.4543912341752,958.281068206022,1050.2299507414975,1050.2299507414975,0,0,0.9074285677501134,1,0.9651249980926514,NA,0.9286250174045563,0.9770000049046108,0.9285833319028218,0.7716500043869019,0.05443332990010579,1,1,1,1,1,NA,1,1,1,1,1,0.424266672929128,0.9608333428700765,0.9074285677501134,1,0.9651249980926514,NA,0.9286250174045563,0.9770000049046108,0.9285833319028218,0.7716500043869019,0.4367333281040192,1,1,1,1,0.9999999999999999,NA,0.9999999999999999,1,1,0.9999999999999999,1,2022-05-14,2022-05-29,2022-06-01,2022-07-06,2022-07-23,NA,2022-08-12,2022-08-20,2022-08-27,2022-09-08,2022-09-18,2022-05-28,2022-05-31,2022-07-05,2022-07-22,2022-08-11,NA,2022-08-19,2022-08-26,2022-09-07,2022-09-17,2022-10-02,134,149,152,187,204,NA,224,232,239,251,261,15,3,35,17,20,0,8,7,12,10,15,148,151,186,203,223,NA,231,238,250,260,275
141,westbrook_mn,44.0258,-95.3444,2022,2022-05-28,1,31,early1,887.9235116874105,11,2022-05-14,2022-05-28,102,2022-09-07,2022-09-16,2022-09-30,Harvested at Maturity.,1.671999994913737,9.345000267028809,1.470303026112643,3.4223529591279873,3.0321051823465446,0,0,2.8371428762163435,0,1.2888889312744143,0.5506666700045267,1.671999994913737,9.345000267028809,1.470303026112643,3.4223529591279873,3.0321051823465446,0,0,2.8371428762163435,0,1.2888889312744143,0.5506666700045267,21.306313514709473,16.780507564544678,21.8127259052161,19.205521190867703,19.906786316319515,22.163820266723633,17.808114051818848,16.00820187159947,18.982560634613037,16.639938513437908,13.516770362854004,20.899333254496256,23.480000019073486,28.263030196681168,29.697646982529584,27.470000317222194,29.13999938964844,25.430000032697404,25.89999989100865,27.141666889190674,26.05444441901313,23.19400011698405,14.599333270390828,18.609999895095825,22.159242355462275,24.36264705657959,21.52921069295783,22.13499975204468,20.376428604125977,20.811428683144705,20.411666750907898,18.932777828640408,16.355333401014406,8.2993332862854,13.739999771118164,16.055454514243387,19.027647130629596,15.588421068693462,15.130000114440918,15.322857175554548,15.722857475280762,13.681666612625122,11.811111238267687,9.516666685044765,5.074733314903776,8.65954929457903,8.583780102212106,11.228431976090654,10.268204402329912,12.039569275449924,10.452289356771537,10.846856731011188,10.751289616087078,9.878874387724531,5.949882144963319,5.074733314903776,8.65954929457903,8.583780102212106,11.228431976090654,10.268204402329912,12.039569275449924,10.452289356771537,10.846856731011188,10.751289616087078,9.878874387724531,5.949882144963319,0,0,283.26474337299953,474.14808696654063,669.243970610809,681.283539886259,754.4495653836598,830.3775625007381,959.393037893783,1048.3029073833038,1048.3029073833038,0,0,0.9273333303856127,1,0.9633684258711965,1,0.952071441922869,0.9627142906188965,0.9114583373069763,0.7867777771419949,0.06666666666666667,1,1,1,1,1,1,1,1,1,1,1,0.46309998671213787,0.7692499995231629,0.9273333303856127,1,0.9633684258711965,1,0.952071441922869,0.9627142906188965,0.9114583373069763,0.7867777771419949,0.5709333364168803,1,1,1,1,0.9999999999999999,1,1,1,0.9999999999999999,1,1,2022-05-14,2022-05-29,2022-06-02,2022-07-05,2022-07-22,2022-08-10,2022-08-11,2022-08-18,2022-08-25,2022-09-06,2022-09-15,2022-05-28,2022-06-01,2022-07-04,2022-07-21,2022-08-09,2022-08-10,2022-08-17,2022-08-24,2022-09-05,2022-09-14,2022-09-29,134,149,153,186,203,222,223,230,237,249,258,15,4,33,17,19,1,7,7,12,9,15,148,152,185,202,221,222,229,236,248,257,272
142,urbana_il,40.05325,-88.23485,2022,2022-05-27,4,5,early4,1495.3862542835259,11,2022-05-13,2022-05-27,148,2022-10-22,2022-10-28,2022-11-11,Harvested at Maturity.,3.227333348989487,0,1.8482051384754672,1.4471999788284302,3.520454525947571,5.480000019073486,5.559000033140182,0.7453846014462985,1.807575807426915,6.290000041325887,1.1040000120798747,3.227333348989487,0,1.8482051384754672,1.4471999788284302,3.520454525947571,5.480000019073486,5.559000033140182,0.7453846014462985,1.807575807426915,6.290000041325887,1.1040000120798747,19.618885167439778,24.691171010335285,21.703683144006973,19.17385841369629,18.399770519950174,15.792819023132324,16.212723541259766,16.3066197175246,13.72445688825665,8.899694681167603,8.881506284077963,25.728666687011717,27.72333335876465,30.244358845246143,28.998399963378905,28.07136379588734,28.3700008392334,28.27000026702881,26.13230749276968,20.394242431178238,22.026666800181072,19.185333506266275,19.455666796366373,20.803333441416424,23.725128186054718,23.44079999923706,22.48227286338806,21.40500020980835,22.58550019264221,20.04038451268123,13.184545440204216,15.387500087420145,12.46200011173884,13.182666905721028,13.883333524068197,17.205897526863293,17.883200035095214,16.893181930888783,14.4399995803833,16.901000118255617,13.948461532592773,5.974848449230194,8.748333374659222,5.738666717211405,9.391410740527311,10.757278815559546,6.736938045745541,8.644585074811163,10.838263276922312,11.405000209808351,12.548476927293539,10.370898721934282,7.167844816027006,7.7315604496816785,3.589670997496049,9.391410740527311,10.757278815559546,6.736938045745541,8.644585074811163,10.838263276922312,11.405000209808351,12.548476927293539,10.370898721934282,7.167844816027006,7.7315604496816785,3.589670997496049,0,0,262.7405837840761,478.8552106543551,717.2970027466458,728.7020029564542,854.1867722293896,989.0084556145353,1225.547334543426,1271.9366972415162,1271.9366972415162,0,0,0.9910897438342755,1,0.9970681797374379,1,1,0.9241538341228779,0.34460605960903745,0.5570833424727122,0,1,1,1,1,1,1,1,1,1,1,1,0.8462666734059652,0.8908333460489909,0.9910897438342755,1,0.9970681797374379,1,1,0.9241538341228779,0.34460605960903745,0.5570833424727122,0.268066676457723,1,1,1,0.9999999999999999,0.9999999999999999,1,0.9999999999999999,1,1,1,1,2022-05-13,2022-05-28,2022-05-31,2022-07-09,2022-08-03,2022-08-25,2022-08-26,2022-09-05,2022-09-18,2022-10-21,2022-10-27,2022-05-27,2022-05-30,2022-07-08,2022-08-02,2022-08-24,2022-08-25,2022-09-04,2022-09-17,2022-10-20,2022-10-26,2022-11-10,133,148,151,190,215,237,238,248,261,294,300,15,3,39,25,22,1,10,13,33,6,15,147,150,189,214,236,237,247,260,293,299,314
143,butlerville_in,39.0362,-85.5264,2022,2022-05-26,4,29,early4,1346.3618329501228,11,2022-05-12,2022-05-26,139,2022-10-12,2022-10-19,2022-11-02,Harvested at Maturity.,6.112000052134196,3.150000095367432,2.4760526481427645,6.467826122822969,3.4971428485143754,9.800000190734863,3.3939999580383304,5.5954544002359565,0.7162068917833525,0.1414285727909633,2.705999978383382,6.112000052134196,3.150000095367432,2.4760526481427645,6.467826122822969,3.4971428485143754,9.800000190734863,3.3939999580383304,5.5954544002359565,0.7162068917833525,0.1414285727909633,2.705999978383382,19.33456172943115,21.401557207107544,21.227996449721488,16.98058972151383,18.515982173738024,13.42240047454834,18.81701946258545,14.47027232430198,15.739852214681692,12.457523345947266,9.56053908665975,26.37733332316081,25.21750020980835,29.706315994262695,29.360869780830715,28.605238051641557,27.540000915527344,29.048000144958497,27.221818056973543,23.4044828414917,19.62857151031494,18.685333474477133,20.04800001780192,19.066250205039978,23.060263294922677,24.184347899063773,23.23976185208275,22.83000087738037,22.83150010108948,21.875909155065365,16.161206931903443,12.290000012942723,11.922333417336146,13.718666712443033,12.915000200271606,16.41421059558266,19.007826017296832,17.874285652523948,18.1200008392334,16.61500005722046,16.530000253157183,8.917931022315189,4.9514285155705045,5.15933336019516,10.047855228337447,9.062503204075995,6.933672828694607,9.21144010175371,11.237938725951462,12.646000822301591,12.684358437702596,11.90862927098491,8.280750633517217,6.39099330162704,3.7979343129746117,10.047855228337447,9.062503204075995,6.933672828694607,9.21144010175371,11.237938725951462,12.646000822301591,12.684358437702596,11.90862927098491,8.280750633517217,6.39099330162704,3.7979343129746117,0,0,263.479567490395,475.3426898307303,711.339403075711,723.9854038980126,850.8289882750385,981.8239102558724,1221.9656786278715,1266.7026317392608,1266.7026317392608,0,0,0.9804999978918778,1,0.9997619038536435,1,1,0.9970909075303511,0.5735344899111781,0.25428571701049807,0,1,1,1,1,1,1,1,1,1,1,1,0.903366673787435,0.8361250162124634,0.9804999978918778,1,0.9997619038536435,1,1,0.9970909075303511,0.5735344899111781,0.25428571701049807,0.30193334102630615,1,1,1,1,0.9999999999999999,1,0.9999999999999999,1,0.9999999999999999,1,1,2022-05-12,2022-05-27,2022-05-31,2022-07-08,2022-07-31,2022-08-21,2022-08-22,2022-09-01,2022-09-12,2022-10-11,2022-10-18,2022-05-26,2022-05-30,2022-07-07,2022-07-30,2022-08-20,2022-08-21,2022-08-31,2022-09-11,2022-10-10,2022-10-17,2022-11-01,132,147,151,189,212,233,234,244,255,284,291,15,4,38,23,21,1,10,11,29,7,15,146,150,188,211,232,233,243,254,283,290,305
144,westlafayette_in,40.4806,-87.004125,2022,2022-05-28,4,26,early4,1448.099775981324,11,2022-05-14,2022-05-28,155,2022-10-30,2022-11-06,2022-11-20,Harvested at Maturity.,6.6186666816473005,0,1.3573809493155706,3.2166666189829507,2.1904545968229123,4.489999771118164,4.530909104780718,2.755833367506663,1.5499999429050244,2.1057143211364746,0.49733333587646483,6.6186666816473005,0,1.3573809493155706,3.2166666189829507,2.1904545968229123,4.489999771118164,4.530909104780718,2.755833367506663,1.5499999429050244,2.1057143211364746,0.49733333587646483,19.26876907348633,23.797403971354168,21.4485768477122,18.15259901682536,18.8421463099393,15.391204833984377,15.688750006935813,15.18837285041809,12.375837125276265,8.411106722695488,6.085579903920491,24.366000111897787,29.769999821980793,29.33380939846947,29.078750054041546,27.54863626306707,32.02000045776367,27.225454677234996,26.732500235239666,19.026052675749128,19.951428413391113,8.924000068505604,18.40733346939087,22.921666463216145,22.72238094466073,23.4381249944369,21.631136265668,24.34000015258789,21.78090901808305,20.082500100135803,11.980921065606372,12.986428550311498,4.58133334517479,12.448666826883953,16.073333104451496,16.110952490851993,17.797499934832256,15.713636268268932,16.65999984741211,16.33636335893111,13.432499965031942,4.9357894554636195,6.021428687231881,0.23866662184397372,8.441083114076058,12.859436619397005,6.300026506453125,8.869149580656797,10.445488089458097,13.51447183666229,11.847207833554528,10.384653410456577,6.481341002044367,6.356908020398873,1.0452537616019446,8.441083114076058,12.859436619397005,6.300026506453125,8.869149580656797,10.445488089458097,13.51447183666229,11.847207833554528,10.384653410456577,6.481341002044367,6.356908020398873,1.0452537616019446,0,0,264.6011132710313,477.4607032067945,707.2614411748727,720.7759130115351,851.095199180635,975.711040106114,1222.0019981838002,1266.5003543265923,1266.5003543265923,0,0,0.9802857149214972,0.9968958338101706,0.9879318150607023,1,0.9927727309140292,0.9011666655540467,0.2720789478381017,0.29864285503114973,0.03376666704813639,1,1,1,1,1,1,1,1,1,1,1,0.7884000047047933,0.9971666653951009,0.9802857149214972,0.9968958338101706,0.9879318150607023,1,0.9927727309140292,0.9011666655540467,0.2720789478381017,0.29864285503114973,0.10083333810170492,1,1,1,1,1,0.9999999999999996,0.9999999999999999,1,1,0.9999999999999999,1,2022-05-14,2022-05-29,2022-06-01,2022-07-13,2022-08-06,2022-08-28,2022-08-29,2022-09-09,2022-09-21,2022-10-29,2022-11-05,2022-05-28,2022-05-31,2022-07-12,2022-08-05,2022-08-27,2022-08-28,2022-09-08,2022-09-20,2022-10-28,2022-11-04,2022-11-19,134,149,152,194,218,240,241,252,264,302,309,15,3,42,24,22,1,11,12,38,7,15,148,151,193,217,239,240,251,263,301,308,323
145,columbia_mo,38.8894,-92.2081,2022,2022-05-25,4,17,early4,1379.3321802697528,11,2022-05-11,2022-05-25,126,2022-09-28,2022-10-04,2022-10-18,Harvested at Maturity.,4.784000015258789,0.4300000071525574,2.7837143182754516,2.0808333357175193,2.946000003814697,0,0.03888888926141792,0.9980000019073486,1.7657142991111392,0,1.9700000445048014,4.784000015258789,0.4300000071525574,2.7837143182754516,2.0808333357175193,2.946000003814697,0,0.03888888926141792,0.9980000019073486,1.7657142991111392,0,1.9700000445048014,19.811831347147624,21.888925790786743,20.659307302747454,19.516917149225872,17.484054851531983,19.195520401000977,20.310698403252495,16.443779850006102,15.797818433670772,16.966363112131756,12.809558423360189,25.908000055948893,24.710000038146973,30.07828587123326,33.3345832824707,31.10050001144409,28.350000381469727,29.969999737209744,29.681000328063966,28.33523822966076,23.289999961853027,21.283999951680503,20.159666728973388,19.055000066757202,24.384285817827497,27.207916577657063,25.797500085830688,22.88000011444092,23.726110882229275,23.988500118255615,21.760238125210716,14.929166634877523,13.6813333183527,14.411333401997885,13.400000095367432,18.690285764421734,21.081249872843426,20.494500160217285,17.40999984741211,17.482222027248806,18.295999908447264,15.185238020760673,6.5683333079020185,6.078666685024897,9.835079303322235,8.942929072964192,7.4873897221763475,9.054692571466123,11.778467979122624,12.122669760232776,13.333591617119673,13.545005623463393,11.450600074138528,7.5770344588761525,4.4214888109859825,9.835079303322235,8.942929072964192,7.4873897221763475,9.054692571466123,11.778467979122624,12.122669760232776,13.333591617119673,13.545005623463393,11.450600074138528,7.5770344588761525,4.4214888109859825,0,0,262.0586402761722,479.3712619913591,714.9406215738114,727.0632913340442,847.0656158881211,982.5156721227552,1222.9782736796649,1268.4404804329215,1268.4404804329215,0,0,0.992314282826015,0.9908958276112875,1,1,1,1,0.9257857163747152,0.4929166634877523,0.04979999860127767,1,1,1,1,1,1,1,1,1,1,1,0.8190666739145915,0.8101249933242798,0.992314282826015,0.9908958276112875,1,1,1,1,0.9257857163747152,0.4929166634877523,0.4077333279450735,1,1,1,1,0.9999999999999999,1,1,1,1,1,1,2022-05-11,2022-05-26,2022-05-30,2022-07-04,2022-07-28,2022-08-17,2022-08-18,2022-08-27,2022-09-06,2022-09-27,2022-10-03,2022-05-25,2022-05-29,2022-07-03,2022-07-27,2022-08-16,2022-08-17,2022-08-26,2022-09-05,2022-09-26,2022-10-02,2022-10-17,131,146,150,185,209,229,230,239,249,270,276,15,4,35,24,20,1,9,10,21,6,15,145,149,184,208,228,229,238,248,269,275,290
146,portagevilleclay_mo,36.3987,-88.6051,2022,2022-05-18,4,19,early4,1220.158922326471,11,2022-05-04,2022-05-18,117,2022-09-12,2022-09-16,2022-09-30,Harvested at Maturity.,1.281999969482422,0,2.8590909278754033,2.1982608256132705,4.219999933242798,27.68000030517578,2.790999937057495,1.3133333788977728,4.106470598894007,0.38999998569488525,0.12266666889190674,1.281999969482422,0,2.8590909278754033,2.1982608256132705,4.219999933242798,27.68000030517578,2.790999937057495,1.3133333788977728,4.106470598894007,0.38999998569488525,0.12266666889190674,19.907054646809897,18.8520450592041,20.45391910726374,21.010955852010976,15.58565068244934,12.01978588104248,18.087938022613525,18.72813235388862,16.278775495641373,19.23363733291626,17.27092736562093,27.483333587646484,31.25,29.44848494096236,33.49043497831925,32.297499656677246,30.440000534057617,31.038999557495117,29.67999988132053,30.091764450073242,27.15750026702881,28.576000467936197,21.15933348337809,25.71500015258789,23.6833333680124,26.90152189005976,27.23824977874756,26.320000648498535,25.717999839782713,24.20444435543484,24.52676467334523,20.106250166893005,21.12933367093404,14.8353333791097,20.18000030517578,17.91818179506244,20.312608801800273,22.17899990081787,22.200000762939453,20.397000122070313,18.728888829549152,18.96176489661722,13.055000066757202,13.682666873931884,11.038458623179991,15.274404763889311,8.158934997620914,9.19956358664406,11.589067330567154,13.937256828883068,13.511205266019694,13.959895213092496,14.030613540420813,10.55144590508938,9.820868219967682,11.038458623179991,15.274404763889311,8.158934997620914,9.19956358664406,11.589067330567154,13.937256828883068,13.511205266019694,13.959895213092496,14.030613540420813,10.55144590508938,9.820868219967682,0,0,269.24485492149023,480.83481741430353,712.6161640256468,726.5534208545298,861.6654735147267,987.3045304325592,1225.8249606197128,1268.03074424007,1268.03074424007,0,0,0.9718636353810628,0.9866739065750786,1,1,1,1,1,0.9501250147819519,0.06666666666666667,1,1,1,1,1,1,1,1,1,1,1,0.9020000108083089,1,0.9718636353810628,0.9866739065750786,1,1,1,1,1,0.9501250147819519,0.8648666747411092,1,1,1,0.9999999999999999,0.9999999999999999,1,0.9999999999999999,0.9999999999999999,0.9999999999999999,0.9999999999999999,1,2022-05-04,2022-05-19,2022-05-21,2022-06-23,2022-07-16,2022-08-05,2022-08-06,2022-08-16,2022-08-25,2022-09-11,2022-09-15,2022-05-18,2022-05-20,2022-06-22,2022-07-15,2022-08-04,2022-08-05,2022-08-15,2022-08-24,2022-09-10,2022-09-14,2022-09-29,124,139,141,174,197,217,218,228,237,254,258,15,2,33,23,20,1,10,9,17,4,15,138,140,173,196,216,217,227,236,253,257,272
147,portagevilleloam_mo,36.39516667,-89.6102,2022,2022-05-18,4,20,early4,1179.5272065055196,11,2022-05-04,2022-05-18,116,2022-09-11,2022-09-15,2022-09-29,Harvested at Maturity.,2.907999928792318,0,3.2303030418627188,1.854545463215221,5.536500000953675,7.440000057220459,5.365000081062317,1.9177777767181396,3.7252941131591797,0.5600000023841858,0,2.907999928792318,0,3.2303030418627188,1.854545463215221,5.536500000953675,7.440000057220459,5.365000081062317,1.9177777767181396,3.7252941131591797,0.5600000023841858,0,20.22778860727946,18.490427017211914,20.343207706104625,20.741173484108664,15.95357961654663,8.903122901916504,17.728433895111085,17.988687833150227,17.456100463867188,16.925784826278687,17.475283050537108,28.054666646321614,31.645000457763672,29.926666606556285,33.79954520138827,32.69449996948242,27.84000015258789,31.146000480651857,29.40777799818251,30.6564702426686,27.125,29.4,21.931666755676268,26.46000051498413,24.23545453042695,27.491818037900057,27.5814998626709,25.039999961853027,26.09300031661987,24.20500002966987,24.954999867607565,20.81249988079071,21.926999950408938,15.808666865030924,21.27500057220459,18.544242454297613,21.184090874411844,22.468499755859376,22.239999771118164,21.04000015258789,19.002222061157227,19.25352949254653,14.499999761581421,14.453999900817871,11.526552449638844,15.691733541524409,8.244110512137182,9.27378773450154,11.614115395098729,12.764282831623072,13.782008782008848,13.928484025260236,14.354257307115022,11.077099120238424,10.543327768056393,11.526552449638844,15.691733541524409,8.244110512137182,9.27378773450154,11.614115395098729,12.764282831623072,13.782008782008848,13.928484025260236,14.354257307115022,11.077099120238424,10.543327768056393,0,0,272.05564690052694,476.0789770595609,708.3612849615354,721.1255677931584,858.9456556132468,984.302011840589,1228.3243860615444,1272.632782542498,1272.632782542498,0,0,0.965848479126439,0.9781363660638983,1,1,1,1,1,0.9799999952316284,0.06666666666666667,1,1,1,1,1,1,1,1,1,1,1,0.9056333287556967,1,0.965848479126439,0.9781363660638983,1,1,1,1,1,0.9799999952316284,0.9281000010172527,1,1,1,1,1,1,1,1,0.9999999999999999,1,1,2022-05-04,2022-05-19,2022-05-21,2022-06-23,2022-07-15,2022-08-04,2022-08-05,2022-08-15,2022-08-24,2022-09-10,2022-09-14,2022-05-18,2022-05-20,2022-06-22,2022-07-14,2022-08-03,2022-08-04,2022-08-14,2022-08-23,2022-09-09,2022-09-13,2022-09-28,124,139,141,174,196,216,217,227,236,253,257,15,2,33,22,20,1,10,9,17,4,15,138,140,173,195,215,216,226,235,252,256,271
148,urbana_il,40.05325,-88.23485,2023,2023-05-27,3,5,early3,1070.8663795607615,11,2023-05-13,2023-05-27,116,2023-09-20,2023-09-26,2023-10-10,Harvested at Maturity.,0.4326666593551636,0,1.7040624916553497,2.008695628332055,4.210588143152349,3.8299999237060542,0.41999999682108563,2.2049999237060547,1.0642857267743064,5.116666475931804,3.1286667505900065,0.4326666593551636,0,1.7040624916553497,2.008695628332055,4.210588143152349,3.8299999237060542,0.41999999682108563,2.2049999237060547,1.0642857267743064,5.116666475931804,3.1286667505900065,23.471226946512857,25.432867685953777,21.209804326295853,21.27890914419423,18.7279873455272,14.97074031829834,20.014600223965115,17.194140195846558,16.95620954604376,14.878473281860352,12.680429267883301,25.980000178019207,30.373334248860676,28.84125018119812,28.930434766023055,29.035294027889478,29.350000381469727,27.523333231608074,31.481250286102295,26.201428640456427,27.56333351135254,24.722000122070313,18.66833348274231,22.09333372116089,21.877968817949295,23.03434774150019,23.542941093444824,23.605000495910645,21.43833329942491,25.835000097751617,19.62880952017648,20.181666771570843,18.11700003941854,11.356666787465413,13.8133331934611,14.91468745470047,17.138260716977328,18.05058815900017,17.860000610351563,15.353333367241753,20.18874990940094,13.056190399896531,12.800000031789143,11.511999956766765,8.718331456052065,11.780214580082895,7.464635816837546,9.076445762506756,11.066847057280174,12.719867973347943,11.289729718906807,14.09705564789027,10.150309947645663,10.647020047182838,7.762723555996617,8.718331456052065,11.780214580082895,7.464635816837546,9.076445762506756,11.066847057280174,12.719867973347943,11.289729718906807,14.09705564789027,10.150309947645663,10.647020047182838,7.762723555996617,0,0,238.86834613880143,447.6265986764567,635.7629986502199,648.4828666235678,750.090434093729,862.8668792768511,1076.02338817741,1139.9055084605068,1139.9055084605068,0,0,0.9521250054240227,1,1,1,0.9784444438086616,1,0.8612142948877244,0.9526666800181072,0.06666666666666667,1,1,1,1,1,1,1,1,1,1,1,0.8262333472569784,1,0.9521250054240227,1,1,1,0.9784444438086616,1,0.8612142948877244,0.9526666800181072,0.7384999974568685,1,1,1,1,1,1,1,1,1,1,1,2023-05-13,2023-05-28,2023-05-31,2023-07-02,2023-07-25,2023-08-11,2023-08-12,2023-08-21,2023-08-29,2023-09-19,2023-09-25,2023-05-27,2023-05-30,2023-07-01,2023-07-24,2023-08-10,2023-08-11,2023-08-20,2023-08-28,2023-09-18,2023-09-24,2023-10-09,133,148,151,183,206,223,224,233,241,262,268,15,3,32,23,17,1,9,8,21,6,15,147,150,182,205,222,223,232,240,261,267,282
149,westlafayette_in,40.4806,-87.004125,2023,2023-05-28,3,26,early3,1040.1921734430766,11,2023-05-14,2023-05-28,120,2023-09-25,2023-10-01,2023-10-15,Harvested at Maturity.,0.8693333148956299,0,1.8032352731508368,3.9143477730129077,7.600555578867595,0,0.6877777841356065,0,0.49952381459020434,0.9583333333333334,2.4653333465258283,0.8693333148956299,0,1.8032352731508368,3.9143477730129077,7.600555578867595,0,0.6877777841356065,0,0.49952381459020434,0.9583333333333334,2.4653333465258283,23.551440302530924,24.921016693115234,21.30580983442419,20.355366043422535,16.904640780554878,14.124353408813477,19.5573091506958,18.78457408481174,15.980244250524612,12.56035820643107,11.872904602686564,24.721333312988282,31.246665954589844,28.23294106651755,29.118260756782863,27.80111100938585,23.229999542236328,29.536666870117188,27.071111255221897,26.135238102504186,25.603333791097008,22.02933343251546,17.331666628519695,22.986666361490887,21.34397048809949,22.933043459187385,22.43583329518636,19.65499973297119,23.10388904147678,20.644999980926514,19.514761902037122,19.051666895548504,15.279666682084402,9.941999944051107,14.726666768391928,14.454999909681431,16.747826161591902,17.07055558098687,16.079999923706055,16.671111212836372,14.21888870663113,12.894285701570057,12.5,8.529999931653341,7.449286902953784,12.525809578339258,7.015280976008272,8.986481512993505,10.755137024639865,9.366001416544748,12.49470199855024,11.126654590586158,10.119329435097605,9.549305048778653,5.389030550646782,7.449286902953784,12.525809578339258,7.015280976008272,8.986481512993505,10.755137024639865,9.366001416544748,12.49470199855024,11.126654590586158,10.119329435097605,9.549305048778653,5.389030550646782,0,0,238.51955318428128,445.208627983132,638.8010944266496,648.1670958431944,760.6194138301465,860.7593051454219,1073.2652232824717,1130.5610535751437,1130.5610535751437,0,0,0.9252058807541342,1,1,0.9654999732971192,0.9677222304873996,0.9124999947018094,0.840095242999849,0.9051666895548502,0.06653333028157551,1,1,1,1,1,1,1,1,1,1,1,0.7286333274841309,1,0.9252058807541342,1,1,0.9654999732971192,0.9677222304873996,0.9124999947018094,0.840095242999849,0.9051666895548502,0.5004999975363413,1,1,1,1,0.9999999999999999,1,0.9999999999999999,0.9999999999999999,0.9999999999999999,0.9999999999999999,1,2023-05-14,2023-05-29,2023-06-01,2023-07-05,2023-07-28,2023-08-15,2023-08-16,2023-08-25,2023-09-03,2023-09-24,2023-09-30,2023-05-28,2023-05-31,2023-07-04,2023-07-27,2023-08-14,2023-08-15,2023-08-24,2023-09-02,2023-09-23,2023-09-29,2023-10-14,134,149,152,186,209,227,228,237,246,267,273,15,3,34,23,18,1,9,9,21,6,15,148,151,185,208,226,227,236,245,266,272,287
150,columbia_mo,38.8894,-92.2081,2023,2023-05-25,3,17,early3,864.601647917692,11,2023-05-11,2023-05-25,105,2023-09-07,2023-09-13,2023-09-27,Harvested at Maturity.,3.8540000041325886,0,2.68535715341568,4.069999926469543,8.333750101272017,NA,6.7049999833106995,4.144444359673394,0.3050000071525574,0.5616666475931803,0.7039999922116598,3.8540000041325886,0,2.68535715341568,4.069999926469543,8.333750101272017,NA,6.7049999833106995,4.144444359673394,0.3050000071525574,0.5616666475931803,0.7039999922116598,19.7323860168457,26.760878562927246,22.365311350141255,20.25296467000788,17.081256985664368,NA,14.919134974479675,18.930288208855522,18.01488983631134,16.674592812856037,15.807684071858723,25.78533312479655,26.852499961853027,30.05178553717477,32.149545322765,31.98437488079071,NA,29.09375023841858,28.848888821072048,31.40625011920929,26.108333269755047,27.386666615804035,20.004999860127768,18.931249856948853,23.296428442001343,25.73477250879461,26.558437407016754,NA,24.433124899864197,23.40111101998223,25.612500101327896,20.22333335876465,20.5896666208903,14.224666595458984,11.009999752044678,16.541071346827916,19.31999969482422,21.132499933242798,NA,19.772499561309814,17.953333218892414,19.818750083446503,14.338333447774252,13.792666625976562,10.004613303734462,8.9359975616619,8.631448240819317,9.815439420364585,11.686300368699959,NA,13.098403288896524,12.428003215510394,13.60873910673894,10.360033179598053,9.903644795269171,10.004613303734462,8.9359975616619,8.631448240819317,9.815439420364585,11.686300368699959,NA,13.098403288896524,12.428003215510394,13.60873910673894,10.360033179598053,9.903644795269171,0,0,241.6805507429408,457.6202179909616,644.601023890161,NA,749.388250201333,861.2402791409265,1078.9801048487495,1141.140303926338,1141.140303926338,0,0,0.9809464301381793,1,0.9829062461853028,NA,1,1,0.9834999889135361,0.98474999268849694,0.06666666666666667,1,1,1,1,1,NA,1,1,1,1,1,0.8813333225250244,0.8653749823570251,0.9809464301381793,1,0.9829062461853028,NA,1,1,0.9834999889135361,0.98474999268849694,0.9547333304087321,1,1,1,0.9999999999999999,1,NA,1,1,0.9999999999999999,1,1,2023-05-11,2023-05-26,2023-05-30,2023-06-27,2023-07-19,NA,2023-08-04,2023-08-12,2023-08-21,2023-09-06,2023-09-12,2023-05-25,2023-05-29,2023-06-26,2023-07-18,2023-08-03,NA,2023-08-11,2023-08-20,2023-09-05,2023-09-11,2023-09-26,131,146,150,178,200,NA,216,224,233,249,255,15,4,28,22,16,0,8,9,16,6,15,145,149,177,199,215,NA,223,232,248,254,269
151,novelty_mo,39.9428,-92.0534,2023,2023-05-27,3,32,early3,1014.3076164121068,11,2023-05-13,2023-05-27,114,2023-09-18,2023-09-24,2023-10-08,Harvested at Maturity.,1.4300000190734863,0,1.7767742045464054,1.0441666444142659,6.236250028014183,0,1.4966666433546278,5.3737499713897705,0.32600000500679016,0,0.35000001192092894,1.4300000190734863,0,1.7767742045464054,1.0441666444142659,6.236250028014183,0,1.4966666433546278,5.3737499713897705,0.32600000500679016,0,0.35000001192092894,21.440948168436687,27.64729181925456,22.479423153784968,20.90506939093272,15.685047566890717,21.120939254760746,18.649243142869736,16.072936058044434,18.51858034133911,16.254368782043457,13.548647816975912,24.827333450317383,28.97333335876465,29.712580711610855,29.913333574930828,30.20812499523163,29.440000534057617,27.577777862548828,32.81125020980835,27.382999992370607,26.78166675567627,27.385332997639974,18.18033340771993,19.84666681289673,22.483870967741936,23.51520844300588,25.09656250476837,23.25,21.681111070844864,27.344375252723694,20.269749999046326,19.363333463668823,20.209999791781108,11.533333365122477,10.720000267028809,15.255161223873015,17.117083311080933,19.985000014305115,17.059999465942383,15.784444279140896,21.877500295639038,13.156500005722046,11.945000171661377,13.034666585922242,8.25295152940472,9.818688166993857,7.781635087861617,9.107510429175402,11.305305478579283,12.27800486533196,11.256448203985428,14.061966328291593,10.533983076887429,9.938922302085162,9.326136190705299,8.25295152940472,9.818688166993857,7.781635087861617,9.107510429175402,11.305305478579283,12.27800486533196,11.256448203985428,14.061966328291593,10.533983076887429,9.938922302085162,9.326136190705299,0,0,241.23068772371013,459.8109380239198,640.6958256811885,652.9738305465204,754.2818643823892,866.7775950087221,1077.4572565464705,1137.0907903589816,1137.0907903589816,0,0,0.9715645174826345,0.9988958358764648,0.987437504529953,1,0.9945000012715658,0.9883749961853028,0.9161250019073487,0.8957500060399374,0.06666666666666667,1,1,1,1,1,1,1,1,1,1,1,0.7806000026067098,0.9348333358764649,0.9715645174826345,0.9988958358764648,0.987437504529953,1,0.9945000012715658,0.9883749961853028,0.9161250019073487,0.8957500060399374,0.8613666637738546,1,1,1,1,0.9999999999999999,1,1,1,1,1,1,2023-05-13,2023-05-28,2023-05-31,2023-07-01,2023-07-25,2023-08-10,2023-08-11,2023-08-20,2023-08-28,2023-09-17,2023-09-23,2023-05-27,2023-05-30,2023-06-30,2023-07-24,2023-08-09,2023-08-10,2023-08-19,2023-08-27,2023-09-16,2023-09-22,2023-10-07,133,148,151,182,206,222,223,232,240,260,266,15,3,31,24,16,1,9,8,20,6,15,147,150,181,205,221,222,231,239,259,265,280
152,moorhead_mn,47.0062,-96.802,2023,2023-05-22,0,25,early0,849.2518056563916,11,2023-05-08,2023-05-22,100,2023-08-30,2023-09-06,2023-09-20,Harvested at Maturity.,1.4666666527589163,1.7266666094462078,2.2686206739524315,1.9696000158786773,2.7725000083446503,2.5899999141693115,2.992857115609305,0,0,0.19285714626312256,0.2393333395322164,1.4666666527589163,1.7266666094462078,2.2686206739524315,1.9696000158786773,2.7725000083446503,2.5899999141693115,2.992857115609305,0,0,0.19285714626312256,0.2393333395322164,22.916937764485677,20.106067975362144,20.093955829225738,21.41527282714844,21.742884969711305,16.08102798461914,16.15829999106271,17.357170740763348,16.077057157244,18.438169479370117,15.75900313059489,24.653999900817873,27.883333206176758,29.375172516395306,25.625199813842773,29.07649984359741,28.43000030517578,25.06857136317662,26.064999898274742,26.941428320748464,31.18857111249651,23.456666692097983,16.877666616439818,20.364999930063885,22.571034530113483,19.43639986038208,22.026749849319458,20.954999923706055,19.162142821720668,19.931666612625122,21.237857001168386,23.155714103153773,15.88866670926412,9.101333332061767,12.84666665395101,15.766896543831662,13.247599906921387,14.976999855041504,13.479999542236328,13.25571428026472,13.798333326975506,15.534285681588308,15.122857093811035,8.320666726430257,7.162364903041324,10.296241466925542,9.340975676457099,7.404905908790754,10.536916187110224,10.751765590822398,9.403269731320236,10.16118370259901,11.384299740031787,12.114143087070328,5.654505754633545,7.162364903041324,10.296241466925542,9.340975676457099,7.404905908790754,10.536916187110224,10.751765590822398,9.403269731320236,10.16118370259901,11.384299740031787,12.114143087070328,5.654505754633545,0,0,270.88829461725584,456.0109423370248,666.7492660792291,677.5010316700515,743.3239197892932,804.2910220048873,883.9811201851098,968.780121794602,968.780121794602,0,0,0.9706551716245454,0.87171999168396,0.9825249910354614,1,0.8869285651615688,0.9029166618982951,0.9752142769949776,0.9748571395874024,0.06636666615804038,1,1,1,1,1,1,1,1,1,1,1,0.6828333298365276,0.9353333314259847,0.9706551716245454,0.87171999168396,0.9825249910354614,1,0.8869285651615688,0.9029166618982951,0.9752142769949776,0.9748571395874024,0.584933336575826,1,1,1,1,0.9999999999999999,1,1,1,1,0.9999999999999999,1,2023-05-08,2023-05-23,2023-05-26,2023-06-24,2023-07-19,2023-08-08,2023-08-09,2023-08-16,2023-08-22,2023-08-29,2023-09-05,2023-05-22,2023-05-25,2023-06-23,2023-07-18,2023-08-07,2023-08-08,2023-08-15,2023-08-21,2023-08-28,2023-09-04,2023-09-19,128,143,146,175,200,220,221,228,234,241,248,15,3,29,25,20,1,7,6,7,7,15,142,145,174,199,219,220,227,233,240,247,262
153,shelly_mn,47.4264,-96.8317,2023,2023-05-21,0,9,early0,814.6719951033813,11,2023-05-07,2023-05-21,104,2023-09-02,2023-09-11,2023-09-25,Harvested at Maturity.,1.1460000157356263,4.147500038146973,1.5827586527528434,2.349615358389341,1.2000000136239188,1.350000023841858,1.7742856911250522,0,0.5037500113248825,0.5488888952467177,2.5786667029062906,1.1460000157356263,4.147500038146973,1.5827586527528434,2.349615358389341,1.2000000136239188,1.350000023841858,1.7742856911250522,0,0.5037500113248825,0.5488888952467177,2.5786667029062906,21.968684037526447,20.073378086090088,20.36537058600064,21.70294028062087,20.57402497246152,18.908193588256836,17.09377098083496,15.77267042795817,17.231162786483765,16.325881428188747,12.959014066060384,23.49466698964437,28.097500324249268,29.017241379310345,25.418846130371094,28.552857171921502,22.520000457763672,25.604285648890905,25.396666844685875,26.682499885559082,27.71999994913737,23.14533348083496,16.18733350435893,19.766250133514404,22.25068972028535,19.094807670666622,21.48238095783052,16.515000343322754,19.29785714830671,19.792499939600628,19.896249890327454,20.194999906751846,16.059333411852517,8.880000019073487,11.434999942779541,15.484138061260355,12.770769210962149,14.411904743739537,10.510000228881836,12.991428647722516,14.18833303451538,13.109999895095825,12.66999986436632,8.973333342870077,6.5167979301289725,9.757580060900747,9.03516104509445,7.095131693493876,10.169491149846268,6.464149055306126,9.67660862733296,10.068780012885728,10.350919893230499,10.242997329809269,6.104875002930264,6.5167979301289725,9.757580060900747,9.03516104509445,7.095131693493876,10.169491149846268,6.464149055306126,9.67660862733296,10.068780012885728,10.350919893230499,10.242997329809269,6.104875002930264,0,0,262.0196703077391,446.4930943385798,660.0524084853515,666.5165575406577,734.2528179319884,794.6654980093026,877.4728571551467,969.65983312343,969.65983312343,0,0,0.9593275842995479,0.8505192270645728,0.9697380928766159,0.6515000343322754,0.8769285678863525,0.8933333317438762,0.9256249964237213,0.7929444471995036,0.03230000019073486,1,1,1,1,1,1,1,1,1,1,1,0.616300015449524,0.9290000081062317,0.9593275842995479,0.8505192270645728,0.9697380928766159,0.6515000343322754,0.8769285678863525,0.8933333317438762,0.9256249964237213,0.7929444471995036,0.6023000105222066,1,1,0.9999999999999999,0.9999999999999999,1,1,0.9999999999999999,1,1,0.9999999999999999,1,2023-05-07,2023-05-22,2023-05-26,2023-06-24,2023-07-20,2023-08-10,2023-08-11,2023-08-18,2023-08-24,2023-09-01,2023-09-10,2023-05-21,2023-05-25,2023-06-23,2023-07-19,2023-08-09,2023-08-10,2023-08-17,2023-08-23,2023-08-31,2023-09-09,2023-09-24,127,142,146,175,201,222,223,230,236,244,253,15,4,29,26,21,1,7,6,8,9,15,141,145,174,200,221,222,229,235,243,252,267
154,thiefriverfalls_mn,48.1283,-96.2427,2023,2023-05-18,0,33,early0,829.7251029589224,11,2023-05-04,2023-05-18,118,2023-09-13,2023-09-24,2023-10-08,Harvested at Maturity.,1.074666674931844,0,3.1894117944380818,1.3944444568068892,2.744166662295659,0,0.6512500047683716,0.10000000397364299,1.2289999961853026,2.397272662682967,3.6873332977294924,1.074666674931844,0,3.1894117944380818,1.3944444568068892,2.744166662295659,0,0.6512500047683716,0.10000000397364299,1.2289999961853026,2.397272662682967,3.6873332977294924,21.905058670043946,25.1922132174174,20.07655612160178,22.850379590634947,18.843485792477924,21.152484893798828,13.145767569541931,18.34686883290609,15.217040157318115,13.969820456071334,8.088211297988892,21.66800003051758,24.25166670481364,27.082352862638587,24.751851823594837,26.416249990463257,28.010000228881836,23.06375002861023,27.119999567667644,24.486999893188475,22.349999861283735,20.395333353678385,14.828000005086263,15.953333338101704,20.58161760077757,18.100185200020118,19.526874949534733,19.49499988555908,18.463125109672546,19.72583317756653,17.334499967098235,15.084090839732777,15.481000077724458,7.987999979654948,7.6549999713897705,14.080882338916554,11.448518576445403,12.637499908606213,10.979999542236328,13.862500190734863,12.331666787465414,10.182000041007996,7.818181818181818,10.566666801770529,5.414084580503107,6.511907077515621,7.8576442235014525,6.419412535290497,8.909829961013976,9.494999885559082,8.846659390015155,10.178832490094502,8.736648275795131,7.410663036984476,5.495297532385538,5.414084580503107,6.511907077515621,7.8576442235014525,6.419412535290497,8.909829961013976,9.494999885559082,8.846659390015155,10.178832490094502,8.736648275795131,7.410663036984476,5.495297532385538,0,0,267.1599035990493,440.4840420518927,654.3199611162281,663.8149610017872,734.5882361219085,795.6612310624755,883.0277138204269,964.5450072272562,964.5450072272562,0,0,0.9122205839437597,0.7857962979210747,0.8640416651964188,0.9494999885559082,0.8054374992847443,0.8739999930063884,0.6142499911785126,0.5084090839732777,0.04989999771118165,1,1,1,1,1,1,1,1,1,1,1,0.4909666665395101,0.5953333338101705,0.9122205839437597,0.7857962979210747,0.8640416651964188,0.9494999885559082,0.8054374992847443,0.8739999930063884,0.6142499911785126,0.5084090839732777,0.5633666674296062,1,1,1,0.9999999999999999,0.9999999999999999,0.9999999999999998,0.9999999999999999,0.9999999999999999,0.9999999999999999,0.9999999999999999,1,2023-05-04,2023-05-19,2023-05-25,2023-06-28,2023-07-25,2023-08-18,2023-08-19,2023-08-27,2023-09-02,2023-09-12,2023-09-23,2023-05-18,2023-05-24,2023-06-27,2023-07-24,2023-08-17,2023-08-18,2023-08-26,2023-09-01,2023-09-11,2023-09-22,2023-10-07,124,139,145,179,206,230,231,239,245,255,266,15,6,34,27,24,1,8,6,10,11,15,138,144,178,205,229,230,238,244,254,265,280
155,butlerville_in,39.0362,-85.5264,2023,2023-05-26,3,29,early3,925.4874962030368,11,2023-05-12,2023-05-26,113,2023-09-16,2023-09-23,2023-10-07,Harvested at Maturity.,1.546666677792867,0,3.4075757734703296,4.2104545560750095,3.5212499871850014,14.800000190734863,3.0588888857099743,0,0.3284210609762292,0.24285714966910227,1.4179999987284342,1.546666677792867,0,3.4075757734703296,4.2104545560750095,3.5212499871850014,14.800000190734863,3.0588888857099743,0,0.3284210609762292,0.24285714966910227,1.4179999987284342,22.49586836496989,25.433393955230713,19.983252149639707,19.509590712460604,19.019891619682312,12.30116844177246,17.78932179345025,18.735447066170828,17.785505897120427,18.2505681174142,13.84768460591634,24.798666763305665,26.90499973297119,27.676666606556285,29.091818376020953,29.515625,26.709999084472656,27.304444630940754,32.2228570665632,27.47421063874897,25.66857147216797,27.150666809082033,17.84400002161662,18.992499828338623,21.073030298406426,23.39045466076244,23.855000108480453,22.52999973297119,21.822777907053627,26.108571188790457,21.155526437257464,17.754285710198538,20.03066676457723,10.889333279927571,11.079999923706055,14.46939399025657,17.689090945503928,18.194375216960907,18.350000381469727,16.341111183166504,19.99428531101772,14.836842235765959,9.839999948229108,12.91066672007243,7.941754509421984,8.992499828338623,7.365186782254901,9.706368650752099,11.701237913664094,11.791303404039745,11.649027175502818,14.869486487133162,11.234445930252264,9.013171266397409,9.298000113169353,7.941754509421984,8.992499828338623,7.365186782254901,9.706368650752099,11.701237913664094,11.791303404039745,11.649027175502818,14.869486487133162,11.234445930252264,9.013171266397409,9.298000113169353,0,0,243.05116381441172,456.5912741309579,643.8110807495834,655.6023841536231,760.4436287331486,864.5300341430806,1077.9845068178736,1141.076705682655,1141.076705682655,0,0,0.9456818147139116,1,1,1,0.9909444438086615,1,0.9582105260146292,0.7664999995912825,0.06666666666666667,1,1,1,1,1,1,1,1,1,1,1,0.7578333314259847,0.8489999771118164,0.9456818147139116,1,1,1,0.9909444438086615,1,0.9582105260146292,0.7664999995912825,0.9536333433787029,1,1,1,0.9999999999999999,1,1,1,1,0.9999999999999999,1,1,2023-05-12,2023-05-27,2023-05-31,2023-07-03,2023-07-25,2023-08-10,2023-08-11,2023-08-20,2023-08-27,2023-09-15,2023-09-22,2023-05-26,2023-05-30,2023-07-02,2023-07-24,2023-08-09,2023-08-10,2023-08-19,2023-08-26,2023-09-14,2023-09-21,2023-10-06,132,147,151,184,206,222,223,232,239,258,265,15,4,33,22,16,1,9,7,19,7,15,146,150,183,205,221,222,231,238,257,264,279
156,wanatah_in,41.4444,-86.9437,2023,2023-05-29,3,10,early3,1003.382654561896,11,2023-05-15,2023-05-29,130,2023-10-06,2023-10-18,2023-11-01,Harvested at Maturity.,0.15,5.723333517710368,3.182631634567913,4.385833382606506,5.451579035897004,NA,0.6010000228881835,1.5830000281333922,2.967916672428449,8.451666707793873,2.6486666838328046,0.15,5.723333517710368,3.182631634567913,4.385833382606506,5.451579035897004,NA,0.6010000228881835,1.5830000281333922,2.967916672428449,8.451666707793873,2.6486666838328046,25.034325408935548,20.33911069234212,19.54526308963173,20.612976988156635,16.89101515318218,NA,17.231886196136475,15.343721675872803,13.690520465373993,7.904556850592295,7.774643405278524,23.521333185831708,31.683333079020183,26.24026323619642,28.09750008583069,26.249473672164115,NA,26.945999908447266,26.750000190734863,23.8454167842865,15.00083327293396,15.451999918619792,16.09366658528646,23.908332983652752,20.370657971030788,22.078541616598766,21.172368400975277,NA,21.443500089645386,21.02900013923645,18.063541740179062,11.034999946753183,10.86066662867864,8.66599998474121,16.13333288828532,14.501052705865158,16.05958314736684,16.095263129786442,NA,15.941000270843507,15.308000087738037,12.281666696071625,7.069166620572408,6.269333338737487,6.366208682923714,13.307617948148648,6.255932991835418,8.665789098346023,10.282612663828688,NA,11.096768402293325,11.13935313748777,8.758206444237132,5.392626201934368,2.8384614554146927,6.366208682923714,13.307617948148648,6.255932991835418,8.665789098346023,10.282612663828688,NA,11.096768402293325,11.13935313748777,8.758206444237132,5.392626201934368,2.8384614554146927,0,0,237.7254536897459,445.7043920500504,641.0740326627955,NA,752.0417166857288,863.4352480606067,1073.6322027222975,1138.3437171455105,1138.3437171455105,0,0,0.8850921091280486,0.9956458310286204,0.970631574329577,NA,0.8986000108718872,0.8987000036239624,0.7761666705211004,0.1311249911785126,0.005200001398722331,1,1,1,1,1,NA,1,1,1,1,1,0.6093666585286459,1,0.8850921091280486,0.9956458310286204,0.970631574329577,NA,0.8986000108718872,0.8987000036239624,0.7761666705211004,0.1311249911785126,0.23689999818801882,1,1,1,1,0.9999999999999999,NA,1,0.9999999999999999,0.9999999999999999,0.9999999999999999,1,2023-05-15,2023-05-30,2023-06-02,2023-07-10,2023-08-03,NA,2023-08-22,2023-09-01,2023-09-11,2023-10-05,2023-10-17,2023-05-29,2023-06-01,2023-07-09,2023-08-02,2023-08-21,NA,2023-08-31,2023-09-10,2023-10-04,2023-10-16,2023-10-31,135,150,153,191,215,NA,234,244,254,278,290,15,3,38,24,19,0,10,10,24,12,15,149,152,190,214,233,NA,243,253,277,289,304
157,urbana_il,40.05325,-88.23485,2023,2023-05-27,2,5,early2,855.6686682785254,11,2023-05-13,2023-05-27,101,2023-09-05,2023-09-12,2023-09-26,Harvested at Maturity.,0.4326666593551636,0,0.8558620584422144,3.1629166454076767,3.2433332920074465,NA,3.8228569967406134,0.5399999959128243,1.4035713842936925,2.097142900739397,2.4239999214808146,0.4326666593551636,0,0.8558620584422144,3.1629166454076767,3.2433332920074465,NA,3.8228569967406134,0.5399999959128243,1.4035713842936925,2.097142900739397,2.4239999214808146,23.471226946512857,25.432867685953777,21.898456803683576,20.20206868648529,19.892947260538737,NA,17.698062351771764,19.917290687561035,18.42415877750942,13.841694014413017,16.285832277933757,25.980000178019207,30.373334248860676,28.854138078360723,28.78166675567627,29.855333201090495,NA,27.801428386143275,27.001428604125977,30.016428674970353,26.520000185285294,26.00200017293294,18.66833348274231,22.09333372116089,21.742069014187518,23.011874953905743,24.033999919891357,NA,22.46785715648106,20.867857115609304,23.506428616387502,21.534999915531703,18.70666675567627,11.356666787465413,13.8133331934611,14.629999950014312,17.242083152135212,18.21266663869222,NA,17.134285926818848,14.734285627092634,16.996428557804652,16.54999964577811,11.411333338419595,8.718331456052065,11.780214580082895,8.547681993322032,10.161566659057229,12.16092749422033,NA,12.327019389214552,10.985237438484601,12.627995875315156,11.534082532872471,8.093059135245085,8.718331456052065,11.780214580082895,8.547681993322032,10.161566659057229,12.16092749422033,NA,12.327019389214552,10.985237438484601,12.627995875315156,11.534082532872471,8.093059135245085,0,0,247.88277780633888,491.7603776237124,674.1742900370173,NA,760.4634257615193,837.3600878309114,1014.1520300853236,1094.8906078154307,1094.8906078154307,0,0,0.947172419778232,1,1,NA,1,0.9722857134682792,0.9730714287076677,0.9367857319968087,0.0637999979654948,1,1,1,1,1,NA,1,1,1,1,1,0.8262333472569784,1,0.947172419778232,1,1,NA,1,0.9722857134682792,0.9730714287076677,0.9367857319968087,0.8414000097910563,1,1,1,1,1,NA,0.9999999999999999,0.9999999999999999,0.9999999999999999,1,1,2023-05-13,2023-05-28,2023-05-31,2023-06-29,2023-07-23,NA,2023-08-07,2023-08-14,2023-08-21,2023-09-04,2023-09-11,2023-05-27,2023-05-30,2023-06-28,2023-07-22,2023-08-06,NA,2023-08-13,2023-08-20,2023-09-03,2023-09-10,2023-09-25,133,148,151,180,204,NA,219,226,233,247,254,15,3,29,24,15,0,7,7,14,7,15,147,150,179,203,218,NA,225,232,246,253,268
158,wanatah_in,41.4444,-86.9437,2023,2023-05-29,2,10,early2,882.11489466083,11,2023-05-15,2023-05-29,116,2023-09-22,2023-09-30,2023-10-14,Harvested at Maturity.,0.15,5.723333517710368,3.044117707540007,4.719230816914485,5.6293750908225775,13.510000228881836,0,0.7512500286102295,2.1404999971389773,0.7049999833106995,8.696000067392985,0.15,5.723333517710368,3.044117707540007,4.719230816914485,5.6293750908225775,13.510000228881836,0,0.7512500286102295,2.1404999971389773,0.7049999833106995,8.696000067392985,25.034325408935548,20.33911069234212,19.784143447875977,20.008439981020413,16.856887698173523,15.250428199768066,19.75064182281494,16.791849493980408,14.92692346572876,12.264287769794464,11.188618087768555,23.521333185831708,31.683333079020183,26.356764793395996,27.703846271221455,26.20687508583069,25.59000015258789,28.741665840148926,25.736250162124634,24.075000190734862,23.851250171661377,20.758666547139484,16.09366658528646,23.908332983652752,20.376911836511947,21.87653846007127,21.250000029802322,19.84500026702881,22.684999624888103,20.39000016450882,18.446750152111054,18.9006250500679,15.040666596094768,8.66599998474121,16.13333288828532,14.3970588796279,16.049230648921085,16.293124973773956,14.100000381469728,16.62833340962728,15.043750166893005,12.818500113487243,13.949999928474426,9.322666645050049,6.366208682923714,13.307617948148648,7.347462108681383,9.419683406551833,10.739095779947187,9.845000267028809,12.377326006994645,10.303324436675757,9.176024618228377,9.123625157181174,5.267378151179551,6.366208682923714,13.307617948148648,7.347462108681383,9.419683406551833,10.739095779947187,9.845000267028809,12.377326006994645,10.303324436675757,9.176024618228377,9.123625157181174,5.267378151179551,0,0,249.8137116951671,494.7254802655147,666.55101274467,676.3960130116988,750.6599690536666,833.0865645470727,1016.6070569116404,1089.59605816909,1089.59605816909,0,0,0.875676472046796,0.990615386229295,0.9871562480926513,0.984500026702881,0.94383331934611,0.8732500135898591,0.742575010061264,0.8788749992847443,0.051866664886474616,1,1,1,1,1,1,1,1,1,1,1,0.6093666585286459,1,0.875676472046796,0.990615386229295,0.9871562480926513,0.984500026702881,0.94383331934611,0.8732500135898591,0.742575010061264,0.8788749992847443,0.4810999886194865,1,1,1,0.9999999999999999,0.9999999999999999,1,1,0.9999999999999999,1,1,1,2023-05-15,2023-05-30,2023-06-02,2023-07-06,2023-08-01,2023-08-17,2023-08-18,2023-08-24,2023-09-01,2023-09-21,2023-09-29,2023-05-29,2023-06-01,2023-07-05,2023-07-31,2023-08-16,2023-08-17,2023-08-23,2023-08-31,2023-09-20,2023-09-28,2023-10-13,135,150,153,187,213,229,230,236,244,264,272,15,3,34,26,16,1,6,8,20,8,15,149,152,186,212,228,229,235,243,263,271,286
159,westlafayette_in,40.4806,-87.004125,2023,2023-05-28,2,26,early2,781.000592587231,11,2023-05-14,2023-05-28,104,2023-09-09,2023-09-18,2023-10-02,Harvested at Maturity.,0.8693333148956299,0,1.8725806224730708,3.887083282073339,8.070000022649765,NA,1.7350000143051147,0,0.33933334350585936,0.33666667424970204,0.5413333257039388,0.8693333148956299,0,1.8725806224730708,3.887083282073339,8.070000022649765,NA,1.7350000143051147,0,0.33933334350585936,0.33666667424970204,0.5413333257039388,23.551440302530924,24.921016693115234,21.5380377000378,20.084609985351563,17.95145970582962,NA,16.798847556114197,19.48336181640625,17.274832693735757,16.91157563527425,14.596039708455404,24.721333312988282,31.246665954589844,28.019354789487778,28.946666479110718,28.489999890327454,NA,26.394999980926514,30.82400016784668,28.48266665140788,24.48888905843099,26.137333552042644,17.331666628519695,22.986666361490887,21.025322506504676,22.836874941984814,22.82562494277954,NA,21.083750069141388,24.4770001411438,22.41766659418742,17.633888986375595,18.935333410898846,9.941999944051107,14.726666768391928,14.031290223521571,16.727083404858906,17.16124999523163,NA,15.772500157356262,18.130000114440918,16.35266653696696,10.778888914320204,11.733333269755045,7.449286902953784,12.525809578339258,7.948068096920978,10.037117602745655,11.42747337279518,NA,11.240180897322086,13.89813419048071,12.256737005809546,8.725665365438992,8.515760500400066,7.449286902953784,12.525809578339258,7.948068096920978,10.037117602745655,11.42747337279518,NA,11.240180897322086,13.89813419048071,12.256737005809546,8.725665365438992,8.515760500400066,0,0,246.3901110045503,487.2809334704462,670.120507435169,NA,760.0419546137457,829.5326255661492,1013.3836806532923,1091.914668942243,1091.914668942243,0,0,0.9179677401819537,1,1,NA,0.9593750059604644,1,0.9474999968210857,0.7633888986375598,0.042233336766560874,1,1,1,1,1,NA,1,1,1,1,1,0.7286333274841309,1,0.9179677401819537,1,1,NA,0.9593750059604644,1,0.9474999968210857,0.7633888986375598,0.8800333404541016,1,1,1,1,0.9999999999999999,NA,1,1,1,1,1,2023-05-14,2023-05-29,2023-06-01,2023-07-02,2023-07-26,NA,2023-08-11,2023-08-19,2023-08-24,2023-09-08,2023-09-17,2023-05-28,2023-05-31,2023-07-01,2023-07-25,2023-08-10,NA,2023-08-18,2023-08-23,2023-09-07,2023-09-16,2023-10-01,134,149,152,183,207,NA,223,231,236,251,260,15,3,31,24,16,0,8,5,15,9,15,148,151,182,206,222,NA,230,235,250,259,274
160,eastlansing_mi,42.6296,-84.4375,2023,2023-05-29,2,6,early2,887.6837507020293,11,2023-05-15,2023-05-29,125,2023-10-01,2023-10-12,2023-10-26,Harvested at Maturity.,0.4259999910990397,0,2.330277807182736,5.475555525885688,5.4955555068122015,0,4.505000151693821,1.7414285114833288,1.5865217084470002,5.249090788039294,3.822000074386597,0.4259999910990397,0,2.330277807182736,5.475555525885688,5.4955555068122015,0,4.505000151693821,1.7414285114833288,1.5865217084470002,5.249090788039294,3.822000074386597,26.01547253926595,24.296791076660156,20.250511831707424,20.141439296581126,17.01677065425449,17.343021392822266,17.658981919288635,17.67109830038888,13.222556663596112,11.274563637646763,7.708312575022379,22.740666516621907,31.363333384195965,26.960277716318767,27.55592586376049,25.691111034817165,23.690000534057617,25.521250247955322,28.247142246791295,21.45999991375467,20.150909077037465,13.9486665725708,14.082333242893219,22.71499999364217,20.13541666004393,21.43981476183291,20.220555384953816,18.78000020980835,19.68500006198883,21.459999663489207,16.249565155609794,14.630000049417669,9.654999939600627,5.42399996916453,14.066666603088379,13.31055560376909,15.323703659905327,14.749999735090467,13.869999885559082,13.848749876022339,14.672857080187116,11.039130397464918,9.109091021797873,5.361333306630453,5.11540176562955,12.386310976709922,6.881863063288807,9.059122470494122,9.84556495434271,8.780000209808351,10.206073717495054,11.890464692459789,7.413506486017808,7.644702081448381,1.3642418396716318,5.11540176562955,12.386310976709922,6.881863063288807,9.059122470494122,9.84556495434271,8.780000209808351,10.206073717495054,11.890464692459789,7.413506486017808,7.644702081448381,1.3642418396716318,0,0,247.7470702783971,492.3433769817384,669.5635461599072,678.3435463697156,759.9921361096759,843.2253889568943,1013.7360381353038,1097.8277610312362,1097.8277610312362,0,0,0.864041660229365,0.9856666635583948,0.9348333279291788,0.878000020980835,0.8319374918937683,0.8798571348190307,0.6231521679007489,0.5252272779291326,0.0016333325703938798,1,1,1,1,1,1,1,1,1,1,1,0.4094999913374583,1,0.864041660229365,0.9856666635583948,0.9348333279291788,0.878000020980835,0.8319374918937683,0.8798571348190307,0.6231521679007489,0.5252272779291326,0.0750666618347168,1,1,1,1,1,1,1,0.9999999999999999,0.9999999999999999,0.9999999999999999,1,2023-05-15,2023-05-30,2023-06-02,2023-07-08,2023-08-04,2023-08-22,2023-08-23,2023-08-31,2023-09-07,2023-09-30,2023-10-11,2023-05-29,2023-06-01,2023-07-07,2023-08-03,2023-08-21,2023-08-22,2023-08-30,2023-09-06,2023-09-29,2023-10-10,2023-10-25,135,150,153,189,216,234,235,243,250,273,284,15,3,36,27,18,1,8,7,23,11,15,149,152,188,215,233,234,242,249,272,283,298
161,wanatah_in,41.4444,-86.9437,2023,2023-05-29,1,10,early1,751.4874663410386,11,2023-05-15,2023-05-29,100,2023-09-06,2023-09-17,2023-10-01,Harvested at Maturity.,0.15,5.723333517710368,3.044117707540007,3.483684163344534,6.860588457654504,0,5.432500004768372,0,0.546363657171076,3.1336363337256694,0.9320000092188517,0.15,5.723333517710368,3.044117707540007,3.483684163344534,6.860588457654504,0,5.432500004768372,0,0.546363657171076,3.1336363337256694,0.9320000092188517,25.034325408935548,20.33911069234212,19.784143447875977,20.055758877804404,18.652297580943387,17.767505645751953,16.499354600906372,18.932345962524415,17.94629244370894,13.384487412192605,13.05083220799764,23.521333185831708,31.683333079020183,26.356764793395996,27.052105451885023,27.720588347491095,27.8799991607666,25.148749828338623,31.671999359130858,26.459091013128106,23.008182005448774,23.26533342997233,16.09366658528646,23.908332983652752,20.376911836511947,21.288947406568024,22.21441176358391,23.085000038146973,20.005624890327454,25.605999755859376,20.305454687638715,18.170000141317193,17.92033338546753,8.66599998474121,16.13333288828532,14.3970588796279,15.525789361251029,16.70823517967673,18.290000915527344,14.862499952316284,19.54000015258789,14.151818362149324,13.331818277185613,12.575333340962729,6.366208682923714,13.307617948148648,8.294929570787913,9.6932927908611,11.563899982620452,13.085000038146973,10.20188585984856,14.228436913437843,10.620696697123485,8.88885852048126,7.498353081689676,6.366208682923714,13.307617948148648,8.294929570787913,9.6932927908611,11.563899982620452,13.085000038146973,10.20188585984856,14.228436913437843,10.620696697123485,8.88885852048126,7.498353081689676,0,0,282.0276054067889,466.2001684331498,662.7864681376976,675.8714681758446,757.4865550546331,828.6287396218223,945.4564032901808,1043.2338470154748,1043.2338470154748,0,0,0.875676472046796,0.9872631625125283,0.9976764678955078,1,0.9349374890327453,1,0.8968636426058683,0.7222272851250389,0.04226667086283366,1,1,1,1,1,1,1,1,1,1,1,0.6093666585286459,1,0.875676472046796,0.9872631625125283,0.9976764678955078,1,0.9349374890327453,1,0.8968636426058683,0.7222272851250389,0.7860666688283285,1,1,1,0.9999999999999999,1,0.9999999999999998,1,1,1,1,1,2023-05-15,2023-05-30,2023-06-02,2023-07-06,2023-07-25,2023-08-11,2023-08-12,2023-08-20,2023-08-25,2023-09-05,2023-09-16,2023-05-29,2023-06-01,2023-07-05,2023-07-24,2023-08-10,2023-08-11,2023-08-19,2023-08-24,2023-09-04,2023-09-15,2023-09-30,135,150,153,187,206,223,224,232,237,248,259,15,3,34,19,17,1,8,5,11,11,15,149,152,186,205,222,223,231,236,247,258,273
162,westlafayette_in,40.4806,-87.004125,2023,2023-05-28,1,26,early1,716.4527869570601,11,2023-05-14,2023-05-28,93,2023-08-29,2023-09-06,2023-09-20,Harvested at Maturity.,0.8693333148956299,0,1.915937477722764,5.081176393172321,2.1775000393390656,61.38999938964844,6.878333409627278,1.307142870766776,0,0,0.699333340426286,0.8693333148956299,0,1.915937477722764,5.081176393172321,2.1775000393390656,61.38999938964844,6.878333409627278,1.307142870766776,0,0,0.699333340426286,23.551440302530924,24.921016693115234,21.240993827581406,19.701135803671445,21.600067496299744,9.950071334838867,13.407103697458902,17.24272278376988,17.34534984164768,20.778665781021118,15.514580504099527,24.721333312988282,31.246665954589844,28.05218744277954,28.808235056260052,29.76562488079071,25.290000915527344,26.453333218892414,26.092857088361466,30.287778006659615,28.00624990463257,25.018000157674155,17.331666628519695,22.986666361490887,21.13890617340803,22.8411763976602,23.189999967813492,21.80500030517578,21.806666612625122,20.760000024523055,24.80500004026625,20.432499945163727,18.679666741689047,9.941999944051107,14.726666768391928,14.225624904036522,16.874117739060345,16.614375054836273,18.31999969482422,17.16000000635783,15.42714296068464,19.322222073872883,12.858749985694885,12.341333325703939,7.449286902953784,12.525809578339258,9.00773469035263,10.881013340887245,12.051129133999071,11.80500030517578,11.806666612625122,10.949674068158867,14.064452437535921,10.754557933282106,7.668509788954656,7.449286902953784,12.525809578339258,9.00773469035263,10.881013340887245,12.051129133999071,11.80500030517578,11.806666612625122,10.949674068158867,14.064452437535921,10.754557933282106,7.668509788954656,0,0,288.2475100912841,473.2247368863671,666.0428030303523,677.847803335528,748.6878030112788,825.3355214883909,951.9155934262142,1037.9520568924709,1037.9520568924709,0,0,0.9205312483012676,1,1,1,1,0.953571435383388,1,0.9015624940395356,0.06666666666666667,1,1,1,1,1,1,1,1,1,1,1,0.7286333274841309,1,0.9205312483012676,1,1,1,1,0.953571435383388,1,0.9015624940395356,0.7883333428700765,1,1,1,1,1,1,1,0.9999999999999999,1,1,1,2023-05-14,2023-05-29,2023-06-01,2023-07-03,2023-07-20,2023-08-05,2023-08-06,2023-08-12,2023-08-19,2023-08-28,2023-09-05,2023-05-28,2023-05-31,2023-07-02,2023-07-19,2023-08-04,2023-08-05,2023-08-11,2023-08-18,2023-08-27,2023-09-04,2023-09-19,134,149,152,184,201,217,218,224,231,240,248,15,3,32,17,16,1,6,7,9,8,15,148,151,183,200,216,217,223,230,239,247,262
163,eastlansing_mi,42.6296,-84.4375,2023,2023-05-29,1,6,early1,829.9488893814757,11,2023-05-15,2023-05-29,108,2023-09-14,2023-09-26,2023-10-10,Harvested at Maturity.,0.4259999910990397,0,2.330277807182736,5.601499938964844,6.1583333015441895,10.210000038146973,1.708750009536743,4.505000151693821,2.0899999539057412,0,5.273333205779394,0.4259999910990397,0,2.330277807182736,5.601499938964844,6.1583333015441895,10.210000038146973,1.708750009536743,4.505000151693821,2.0899999539057412,0,5.273333205779394,26.01547253926595,24.296791076660156,20.250511831707424,20.33236174583435,17.624664968914455,8.052197456359863,19.627039790153503,17.714336037635803,14.384736975034079,16.202848593393963,10.49675375620524,22.740666516621907,31.363333384195965,26.960277716318767,27.492499923706056,26.693333201938206,20.420000076293945,26.39750027656555,24.47000002861023,24.96833308537801,22.577499866485596,20.6339999516805,14.082333242893219,22.71499999364217,20.13541666004393,21.321499943733215,21.19472206963433,17.769999980926514,19.9825000166893,18.59999993443489,19.59541654586792,16.024999916553497,15.695999987920125,5.42399996916453,14.066666603088379,13.31055560376909,15.150499963760376,15.696110937330458,15.119999885559082,13.56749975681305,12.729999840259552,14.222500006357828,9.472499966621399,10.758000024159749,5.11540176562955,12.386310976709922,7.848177926929769,9.63449299469243,10.808735353865817,7.769999980926515,10.255329566527159,9.500513969408722,10.015657326992354,7.698017265462876,5.768707082826495,5.11540176562955,12.386310976709922,7.848177926929769,9.63449299469243,10.808735353865817,7.769999980926515,10.255329566527159,9.500513969408722,10.015657326992354,7.698017265462876,5.768707082826495,0,0,282.5344053694717,475.2242652633202,669.781501632905,677.5515016138315,759.5941381460487,835.5982499013185,955.7861378252268,1048.162345010781,1048.162345010781,0,0,0.864041660229365,0.9878249955177307,0.9811111105812921,0.7769999980926514,0.8905624926090241,0.7726874858140946,0.8042916695276896,0.5990416586399079,0.04179999987284343,1,1,1,1,1,1,1,1,1,1,1,0.4094999913374583,1,0.864041660229365,0.9878249955177307,0.9811111105812921,0.7769999980926514,0.8905624926090241,0.7726874858140946,0.8042916695276896,0.5990416586399079,0.5935333315531413,1,1,1,0.9999999999999999,0.9999999999999999,1,1,1,1,0.9999999999999999,1,2023-05-15,2023-05-30,2023-06-02,2023-07-08,2023-07-28,2023-08-15,2023-08-16,2023-08-24,2023-09-01,2023-09-13,2023-09-25,2023-05-29,2023-06-01,2023-07-07,2023-07-27,2023-08-14,2023-08-15,2023-08-23,2023-08-31,2023-09-12,2023-09-24,2023-10-09,135,150,153,189,209,227,228,236,244,256,268,15,3,36,20,18,1,8,8,12,12,15,149,152,188,208,226,227,235,243,255,267,282
164,lamberton_mn,44.24095,-95.3115,2023,2023-05-28,1,7,early1,823.663960450489,11,2023-05-14,2023-05-28,99,2023-09-04,2023-09-14,2023-09-28,Harvested at Maturity.,0.4493333419164022,12.119999885559082,2.290625035762787,1.104347825050354,3.0652940413531136,NA,1.8614285268953867,0,0,0.2060000032186508,0.7766666809717814,0.4493333419164022,12.119999885559082,2.290625035762787,1.104347825050354,3.0652940413531136,NA,1.8614285268953867,0,0,0.2060000032186508,0.7766666809717814,23.49363972345988,19.487586975097656,20.227040946483612,21.753627486850906,18.210843030144186,NA,16.646492549351283,19.63880157470703,18.352730560302735,16.304462146759032,12.928305180867513,25.25533332824707,30.109999656677246,28.923437535762787,27.119565300319508,29.63411746305578,NA,26.388571330479213,32.01666673024496,29.480999755859376,27.071999931335448,24.585333379109702,18.04433337847392,23.202500104904175,22.585468769073486,20.68891307582026,23.54617629331701,NA,20.654999937329976,24.68666664759318,22.54849991798401,20.174999952316284,17.93300002415975,10.833333428700765,16.295000553131104,16.247500002384186,14.258260851321014,17.45823512357824,NA,14.921428544180733,17.356666564941406,15.616000080108643,13.277999973297119,11.280666669209799,8.260346625196537,13.127918082708124,9.123648399867891,8.383931627943491,11.790538921882074,NA,10.677957646277843,12.403949406722187,12.209755889636874,9.958932844846844,7.653127802527745,8.260346625196537,13.127918082708124,9.123648399867891,8.383931627943491,11.790538921882074,NA,10.677957646277843,12.403949406722187,12.209755889636874,9.958932844846844,7.653127802527745,0,0,291.95674879577257,484.78717623847285,685.226337910468,NA,759.9720414344129,834.395737874746,956.4932967711148,1056.0826252195832,1056.0826252195832,0,0,0.9758281230926513,0.911304347411446,0.9991176436929142,NA,0.9364999975476946,0.9839166720708211,0.9659499979019165,0.790199990272522,0.030566670099894208,1,1,1,1,1,NA,1,1,1,1,1,0.7614000018437703,1,0.9758281230926513,0.911304347411446,0.9991176436929142,NA,0.9364999975476946,0.9839166720708211,0.9659499979019165,0.790199990272522,0.7779666709899903,1,1,1,1,0.9999999999999999,NA,0.9999999999999999,1,0.9999999999999999,0.9999999999999999,1,2023-05-14,2023-05-29,2023-05-31,2023-07-02,2023-07-25,NA,2023-08-11,2023-08-18,2023-08-24,2023-09-03,2023-09-13,2023-05-28,2023-05-30,2023-07-01,2023-07-24,2023-08-10,NA,2023-08-17,2023-08-23,2023-09-02,2023-09-12,2023-09-27,134,149,151,183,206,NA,223,230,236,246,256,15,2,32,23,17,0,7,6,10,10,15,148,150,182,205,222,NA,229,235,245,255,270
165,rosemount_mn,44.707,-93.101,2023,2023-05-27,1,2,early1,827.5447323999305,11,2023-05-13,2023-05-27,101,2023-09-05,2023-09-16,2023-09-30,Harvested at Maturity.,1.5113333702087401,0.9733333587646484,1.6321211872678816,2.5890909135341644,3.435294144293841,NA,3.4637500047683716,0,0,1.506363651969216,6.4953334132830305,1.5113333702087401,0.9733333587646484,1.6321211872678816,2.5890909135341644,3.435294144293841,NA,3.4637500047683716,0,0,1.506363651969216,6.4953334132830305,23.676148732503254,23.714779535929363,21.523661295572918,20.07753038406372,17.851693826563217,NA,16.528219878673553,17.08764664332072,18.077495574951172,13.309244199232621,10.746709744135538,23.190666898091635,29.353333791097004,28.629090800429836,27.230909087441184,29.104705810546875,NA,25.586250066757202,30.70666726430257,28.545000076293945,24.385454698042437,23.234666442871095,16.538333495457966,21.410000165303547,22.2456060033856,20.82045455412431,23.220294082865994,NA,20.005625069141388,24.633333841959637,22.00900011062622,18.62272730740634,18.299999904632568,9.8860000928243,13.466666539510092,15.862121206341367,14.41000002080744,17.335882355185117,NA,14.425000071525574,18.5600004196167,15.473000144958496,12.859999916770242,13.365333366394044,6.72204894418478,11.347556073363622,8.822951354099159,8.406998013896256,11.659239992308228,NA,10.190367476112646,13.16163126713435,11.57205325594604,9.045817075963454,7.919666608174642,6.72204894418478,11.347556073363622,8.822951354099159,8.406998013896256,11.659239992308228,NA,10.190367476112646,13.16163126713435,11.57205325594604,9.045817075963454,7.919666608174642,0,0,291.1573946852723,476.11135099098993,674.3184308602298,NA,755.841370669131,834.8111582719372,950.5316908313976,1050.0356786669954,1050.0356786669954,0,0,0.960666663718946,0.9430454514243386,1,NA,0.9293750047683716,1,0.971749997138977,0.719545451077548,0.038033329645792646,1,1,1,1,1,NA,1,1,1,1,1,0.6482000144322714,0.9608333428700765,0.960666663718946,0.9430454514243386,1,NA,0.9293750047683716,1,0.971749997138977,0.719545451077548,0.8119333235422771,1,1,1,1,0.9999999999999999,NA,0.9999999999999999,0.9999999999999999,0.9999999999999999,1,1,2023-05-13,2023-05-28,2023-05-31,2023-07-03,2023-07-25,NA,2023-08-11,2023-08-19,2023-08-25,2023-09-04,2023-09-15,2023-05-27,2023-05-30,2023-07-02,2023-07-24,2023-08-10,NA,2023-08-18,2023-08-24,2023-09-03,2023-09-14,2023-09-29,133,148,151,184,206,NA,223,231,237,247,258,15,3,33,22,17,0,8,6,10,11,15,147,150,183,205,222,NA,230,236,246,257,272
166,waseca_mn,44.07345,-93.53225,2023,2023-05-28,1,8,early1,763.7295866863816,11,2023-05-14,2023-05-28,101,2023-09-06,2023-09-17,2023-10-01,Harvested at Maturity.,0.2993333419164022,5.943333148956299,1.4765625149011612,1.037391317927319,4.651176424587474,NA,2.259999953210354,0,0,1.3218181783502752,2.705333358049393,0.2993333419164022,5.943333148956299,1.4765625149011612,1.037391317927319,4.651176424587474,NA,2.259999953210354,0,0,1.3218181783502752,2.705333358049393,24.302144050598145,19.770394643147785,21.13132268190384,21.694143419680387,17.987752886379468,NA,18.105918884277344,15.938974189758301,18.548810438676313,14.862794269214977,11.603302733103435,23.730666478474934,30.640000025431316,28.36968743801117,26.853913099869438,28.70411771886489,NA,25.24999976158142,31.666000366210938,29.250000173395332,23.12636375427246,24.88866678873698,16.674666547775267,23.39833339055379,22.100781217217445,20.38804354874984,22.837647073409137,NA,19.34749984741211,26.257000160217284,22.475000034679066,17.1509091203863,19.262666734059653,9.618666617075602,16.15666675567627,15.831874996423721,13.922173997630244,16.971176427953385,NA,13.444999933242798,20.847999954223635,15.699999895962803,11.175454486500133,13.636666679382325,6.924863752304117,13.243924206050238,8.904291006487565,8.23459572678319,11.717152939634229,NA,9.59201422059089,14.472562421936988,11.670209675339136,8.314867564984343,8.748096607076327,6.924863752304117,13.243924206050238,8.904291006487565,8.23459572678319,11.717152939634229,NA,9.59201422059089,14.472562421936988,11.670209675339136,8.314867564984343,8.748096607076327,0,0,284.9373122076021,474.3330139236154,673.5246138973973,NA,750.2607276621245,822.6235397718095,950.99584620054,1042.4593894153677,1042.4593894153677,0,0,0.9635312467813492,0.904847820945408,0.9999411751242245,NA,0.8827499985694885,1,0.9710454507307573,0.6545454675501043,0.04286666552225749,1,1,1,1,1,NA,1,1,1,1,1,0.6584333276748657,1,0.9635312467813492,0.904847820945408,0.9999411751242245,NA,0.8827499985694885,1,0.9710454507307573,0.6545454675501043,0.8634666633605957,1,1,1,0.9999999999999999,0.9999999999999999,NA,0.9999999999999999,0.9999999999999999,1,0.9999999999999999,1,2023-05-14,2023-05-29,2023-06-01,2023-07-03,2023-07-26,NA,2023-08-12,2023-08-20,2023-08-25,2023-09-05,2023-09-16,2023-05-28,2023-05-31,2023-07-02,2023-07-25,2023-08-11,NA,2023-08-19,2023-08-24,2023-09-04,2023-09-15,2023-09-30,134,149,152,184,207,NA,224,232,237,248,259,15,3,32,23,17,0,8,5,11,11,15,148,151,183,206,223,NA,231,236,247,258,273
167,urbana_il,40.05325,-88.23485,2023,2023-05-27,4,5,early4,1473.8504462880285,11,2023-05-13,2023-05-27,146,2023-10-20,2023-10-26,2023-11-09,Harvested at Maturity.,0.4326666593551636,0,2.359047600201198,0.39999999689019244,3.4114284941128323,17.639999389648438,1.5172727541490032,0.40428571190152846,3.7551723841963143,1.559999982515971,3.6520000457763673,0.4326666593551636,0,2.359047600201198,0.39999999689019244,3.4114284941128323,17.639999389648438,1.5172727541490032,0.40428571190152846,3.7551723841963143,1.559999982515971,3.6520000457763673,23.471226946512857,25.432867685953777,20.955988475254603,21.567277452220086,18.00116929553804,12.567277908325195,18.240167010914195,16.179950373513357,12.16021598618606,10.178994258244833,8.498346042633056,25.980000178019207,30.373334248860676,28.856190636044456,29.580434716266133,28.664761861165363,33.83000183105469,28.53727254000577,24.730000223432267,23.28482775852598,19.669999758402508,15.720666631062825,18.66833348274231,22.09333372116089,22.190357185545423,23.54826079244199,23.074761867523193,28.38000106811523,21.885454394600607,18.328214372907365,16.73724144491656,13.035833239555359,9.840999978780747,11.356666787465413,13.8133331934611,15.524523735046387,17.516086868617847,17.484761873881023,22.93000030517578,15.233636249195445,11.926428522382464,10.189655131307141,6.401666720708211,3.9613333264986674,8.718331456052065,11.780214580082895,6.37394566895962,8.79499397253274,11.176007336565181,15.48654608130455,11.928901268137585,9.17781645066738,8.588083331140362,6.238008772998551,2.504612659287751,8.718331456052065,11.780214580082895,6.37394566895962,8.79499397253274,11.176007336565181,15.48654608130455,11.928901268137585,9.17781645066738,8.588083331140362,6.238008772998551,2.504612659287751,0,0,267.70571809630405,469.9905794645572,704.686733532426,720.1732796137306,851.3911935632441,979.8806238725876,1228.9350404756578,1266.3630931136497,1266.3630931136497,0,0,0.9635238136563983,1,0.9907619044894264,1,0.9657272729006681,0.8068928718566895,0.622793107608269,0.3035833239555359,0.04793333371480306,1,1,1,1,1,1,1,1,1,1,1,0.8262333472569784,1,0.9635238136563983,1,0.9907619044894264,1,0.9657272729006681,0.8068928718566895,0.622793107608269,0.3035833239555359,0.23756666978200278,1,1,1,1,1,1,1,1,0.9999999999999999,1,1,2023-05-13,2023-05-28,2023-05-31,2023-07-12,2023-08-04,2023-08-25,2023-08-26,2023-09-06,2023-09-20,2023-10-19,2023-10-25,2023-05-27,2023-05-30,2023-07-11,2023-08-03,2023-08-24,2023-08-25,2023-09-05,2023-09-19,2023-10-18,2023-10-24,2023-11-08,133,148,151,193,216,237,238,249,263,292,298,15,3,42,23,21,1,11,14,29,6,15,147,150,192,215,236,237,248,262,291,297,312
168,butlerville_in,39.0362,-85.5264,2023,2023-05-26,4,29,early4,1425.5386679186572,11,2023-05-12,2023-05-26,140,2023-10-13,2023-10-20,2023-11-03,Harvested at Maturity.,1.546666677792867,0,3.334634170299623,3.7200000078781787,4.073499977588654,0,0,0.5200000132123629,0.8834615395619319,2.0228571551186696,3.356666628519694,1.546666677792867,0,3.334634170299623,3.7200000078781787,4.073499977588654,0,0,0.5200000132123629,0.8834615395619319,2.0228571551186696,3.356666628519694,22.49586836496989,25.433393955230713,19.80169284634474,19.860363379768703,17.864074611663817,20.40352439880371,19.119162212718617,16.413249651590984,14.782426320589506,8.243229389190674,8.854345273971557,24.798666763305665,26.90499973297119,27.968536516515222,29.485652343086574,28.48500003814697,32.369998931884766,29.18000030517578,26.914166768391926,24.992692433870754,18.14857142312186,17.30333325068156,17.84400002161662,18.992499828338623,21.56951220442609,23.69108701788861,22.877500081062315,25.5649995803833,22.748181906613436,20.83833348751068,17.678653918779812,12.87357144696372,11.604000000158946,10.889333279927571,11.079999923706055,15.170487892336961,17.89652169269064,17.27000012397766,18.760000228881836,16.31636350805109,14.762500206629435,10.364615403688871,7.5985714708055765,5.904666749636332,7.941754509421984,8.992499828338623,6.46059118389966,9.229832089763683,11.27735784125142,14.39841919825077,12.422895714982532,11.014613779835402,9.146147277006794,6.3010037874777405,3.553927044442594,7.941754509421984,8.992499828338623,6.46059118389966,9.229832089763683,11.27735784125142,14.39841919825077,12.422895714982532,11.014613779835402,9.146147277006794,6.3010037874777405,3.553927044442594,0,0,264.88423853988616,477.1703766044509,702.717533429479,717.1159526277297,853.7678054925376,985.9431708505624,1223.7430000527395,1267.850026565084,1267.850026565084,0,0,0.9562804850136362,1,0.9959249997138977,1,0.9709999994798141,0.9380833347638449,0.741942315376722,0.2910000000681196,0.015333334604899088,1,1,1,1,1,1,1,1,1,1,1,0.7578333314259847,0.8489999771118164,0.9562804850136362,1,0.9959249997138977,1,0.9709999994798141,0.9380833347638449,0.741942315376722,0.2910000000681196,0.316599999666214,1,1,1,1,1,1,1,0.9999999999999999,1,1,1,2023-05-12,2023-05-27,2023-05-31,2023-07-11,2023-08-03,2023-08-23,2023-08-24,2023-09-04,2023-09-16,2023-10-12,2023-10-19,2023-05-26,2023-05-30,2023-07-10,2023-08-02,2023-08-22,2023-08-23,2023-09-03,2023-09-15,2023-10-11,2023-10-18,2023-11-02,132,147,151,192,215,235,236,247,259,285,292,15,4,41,23,20,1,11,12,26,7,15,146,150,191,214,234,235,246,258,284,291,306
169,westlafayette_in,40.4806,-87.004125,2023,2023-05-28,4,26,early4,1454.9412360950805,11,2023-05-14,2023-05-28,153,2023-10-28,2023-11-05,2023-11-19,Harvested at Maturity.,0.8693333148956299,0,3.2184090465307236,4.860000014305115,1.7185714358375186,0,0.47181819582527335,0.3785714251654489,1.865624999627471,4.368749976158142,0,0.8693333148956299,0,3.2184090465307236,4.860000014305115,1.7185714358375186,0,0.47181819582527335,0.3785714251654489,1.865624999627471,4.368749976158142,0,23.551440302530924,24.921016693115234,20.812128500504926,19.719653884569805,17.11085760025751,20.50299835205078,16.803238478573885,16.80031340462821,10.747095011174679,7.220242410898209,9.34527759552002,24.721333312988282,31.246665954589844,28.37363624572754,28.72291652361552,28.12333343142555,25.489999771118164,27.684545516967773,25.39857155936105,21.123125076293945,11.29750007390976,16.47066650390625,17.331666628519695,22.986666361490887,21.6828408295458,22.747499962647755,22.656904788244336,18.667499780654907,21.391818219965156,17.875357185091293,14.889843778684735,6.849999997764826,8.941999925176303,9.941999944051107,14.726666768391928,14.992045413364064,16.772083401679993,17.190476145063126,11.84499979019165,15.099090922962535,10.352142810821533,8.656562481075525,2.402499921619892,1.413333346446355,7.449286902953784,12.525809578339258,6.008888435179361,8.557612403186646,11.431396988535568,8.667499780654907,11.465578366192362,9.021170376258663,7.513756635476765,5.636875033378601,1.8615638110783324,7.449286902953784,12.525809578339258,6.008888435179361,8.557612403186646,11.431396988535568,8.667499780654907,11.465578366192362,9.021170376258663,7.513756635476765,5.636875033378601,1.8615638110783324,0,0,264.39109114789187,469.7737888243714,709.8331255836184,727.1681251449282,853.2894871730442,979.5858724406656,1220.026084775922,1265.1210850429509,1265.1210850429509,0,0,0.9422045442191037,1,0.9787380967821394,0.8667499780654908,0.9275454607876864,0.7776428631373815,0.4781093763187528,0.125,0.0027333307266235356,1,1,1,1,1,1,1,1,1,1,1,0.7286333274841309,1,0.9422045442191037,1,0.9787380967821394,0.8667499780654908,0.9275454607876864,0.7776428631373815,0.4781093763187528,0.125,0.06566666126251221,1,1,1,1,1,1,0.9999999999999999,1,0.9999999999999999,1,1,2023-05-14,2023-05-29,2023-06-01,2023-07-15,2023-08-08,2023-08-29,2023-08-31,2023-09-11,2023-09-25,2023-10-27,2023-11-04,2023-05-28,2023-05-31,2023-07-14,2023-08-07,2023-08-28,2023-08-30,2023-09-10,2023-09-24,2023-10-26,2023-11-03,2023-11-18,134,149,152,196,220,241,243,254,268,300,308,15,3,44,24,21,2,11,14,32,8,15,148,151,195,219,240,242,253,267,299,307,322
170,columbia_mo,38.8894,-92.2081,2023,2023-05-25,4,17,early4,1291.9131231690385,11,2023-05-11,2023-05-25,128,2023-09-30,2023-10-03,2023-10-17,Harvested at Maturity.,3.8540000041325886,0,2.5538889037238226,3.8682608021342237,9.909523829462982,0,0.5422222349378798,0,0.6331818076697263,0,3.0899999856948854,3.8540000041325886,0,2.5538889037238226,3.8682608021342237,9.909523829462982,0,0.5422222349378798,0,0.6331818076697263,0,3.0899999856948854,19.7323860168457,26.760878562927246,22.165126005808514,19.422978028007176,15.373460815066384,23.073827743530273,16.88025082482232,19.343766975402833,16.055557641116057,14.51850700378418,10.740731938680012,25.78533312479655,26.852499961853027,30.844722006056045,31.894347729890242,29.13904771350679,27.729999542236328,33.35333336724175,29.61800022125244,27.29545445875688,32.73333231608073,21.96733309427897,20.004999860127768,18.931249856948853,24.06388873524136,25.761738943017047,24.548095203581312,20.959999561309814,28.121111128065323,23.180000162124635,20.61840902675282,25.19166628519694,15.814333168665568,14.224666595458984,11.009999752044678,17.283055464426678,19.62913015614385,19.957142693655832,14.1899995803833,22.88888888888889,16.742000102996826,13.941363594748758,17.650000254313152,9.661333243052164,10.004613303734462,8.9359975616619,7.342954652743105,9.070250683930748,11.434610718700572,10.44128089381518,14.290990950455596,12.614001504002214,10.816040638952092,13.77502379740874,5.455267545744777,10.004613303734462,8.9359975616619,7.342954652743105,9.070250683930748,11.434610718700572,10.44128089381518,14.290990950455596,12.614001504002214,10.816040638952092,13.77502379740874,5.455267545744777,0,0,264.34636749875176,472.9621332291591,713.0889583218711,723.5302392156863,852.1491577697867,978.2891728098087,1216.242066866755,1257.5671382589812,1257.5671382589812,0,0,0.9851805567741394,0.9938478262528129,0.9937142826261974,1,0.9729999860127767,0.9978999948501587,0.9649772687391801,1,0.06666666666666667,1,1,1,1,1,1,1,1,1,1,1,0.8813333225250244,0.8653749823570251,0.9851805567741394,0.9938478262528129,0.9937142826261974,1,0.9729999860127767,0.9978999948501587,0.9649772687391801,1,0.5287666622797649,1,1,1,0.9999999999999999,1,1,1,0.9999999999999999,1,1,1,2023-05-11,2023-05-26,2023-05-30,2023-07-05,2023-07-28,2023-08-18,2023-08-19,2023-08-28,2023-09-07,2023-09-29,2023-10-02,2023-05-25,2023-05-29,2023-07-04,2023-07-27,2023-08-17,2023-08-18,2023-08-27,2023-09-06,2023-09-28,2023-10-01,2023-10-16,131,146,150,186,209,230,231,240,250,272,275,15,4,36,23,21,1,9,10,22,3,15,145,149,185,208,229,230,239,249,271,274,289
171,novelty_mo,39.9428,-92.0534,2023,2023-05-27,4,32,early4,1501.7513307926974,11,2023-05-13,2023-05-27,140,2023-10-14,2023-10-21,2023-11-04,Harvested at Maturity.,1.4300000190734863,0,1.7814634122499606,2.255416671435038,3.3110000014305117,0,3.9081817973743784,0.46571429286684307,0.5741666778922081,0.9871428353445871,3.891333309809367,1.4300000190734863,0,1.7814634122499606,2.255416671435038,3.3110000014305117,0,3.9081817973743784,0.46571429286684307,0.5741666778922081,0.9871428353445871,3.891333309809367,21.440948168436687,27.64729181925456,21.754186188302388,19.90152116616567,17.090195894241333,17.22381591796875,18.691147544167258,17.076353890555247,13.7350093126297,8.937790768487112,8.318418884277344,24.827333450317383,28.97333335876465,29.45048797421339,31.28125,28.956500244140624,36.75,29.30181815407493,26.017857142857142,26.41249982515971,17.381428173610143,15.820666392644247,18.18033340771993,19.84666681289673,22.561951299993005,24.982291638851166,23.491250109672546,30.93000030517578,22.589545379985463,19.01785717691694,18.839999911685783,11.979285512651716,9.958999839425086,11.533333365122477,10.720000267028809,15.673414625772615,18.68333327770233,18.025999975204467,25.110000610351563,15.877272605895996,12.017857210976736,11.26749999821186,6.5771428516932895,4.097333286205927,8.25295152940472,9.818688166993857,6.515609197767117,8.910248819207087,11.284708832147071,14.09970213241577,11.902017438767714,9.707217669075302,9.963133437147892,5.736749064947239,3.4396321769856413,8.25295152940472,9.818688166993857,6.515609197767117,8.910248819207087,11.284708832147071,14.09970213241577,11.902017438767714,9.707217669075302,9.963133437147892,5.736749064947239,3.4396321769856413,0,0,267.13997710845183,480.98594876942207,706.6801254123634,720.7798275447792,851.7020193712242,987.6030667382784,1226.7182692298277,1266.8755126844585,1266.8755126844585,0,0,0.9778536610487031,0.9916250030199687,0.9975250005722046,0.906999969482422,0.9819999998266047,0.85621429170881,0.7740833339591822,0.1979285512651716,0.03046666463216146,1,1,1,1,1,1,1,1,1,1,1,0.7806000026067098,0.9348333358764649,0.9778536610487031,0.9916250030199687,0.9975250005722046,0.906999969482422,0.9819999998266047,0.85621429170881,0.7740833339591822,0.1979285512651716,0.33249998807907105,1,1,1,1,1,1,1,1,1,1,1,2023-05-13,2023-05-28,2023-05-31,2023-07-11,2023-08-04,2023-08-24,2023-08-25,2023-09-05,2023-09-19,2023-10-13,2023-10-20,2023-05-27,2023-05-30,2023-07-10,2023-08-03,2023-08-23,2023-08-24,2023-09-04,2023-09-18,2023-10-12,2023-10-19,2023-11-03,133,148,151,192,216,236,237,248,262,286,293,15,3,41,24,20,1,11,14,24,7,15,147,150,191,215,235,236,247,261,285,292,307
172,portagevilleloam_mo,36.39516667,-89.6102,2023,2023-05-18,4,20,early4,1225.0019988213487,11,2023-05-04,2023-05-18,117,2023-09-12,2023-09-16,2023-09-30,Harvested at Maturity.,4.249999972184499,8.816666920979818,0.5431249737739563,2.762727303938432,6.132000160217285,21.219999313354492,6.351111094156901,0,2.9772222306993275,0,0,4.249999972184499,8.816666920979818,0.5431249737739563,2.762727303938432,6.132000160217285,21.219999313354492,6.351111094156901,0,2.9772222306993275,0,0,17.47589282989502,18.285706837972004,22.832606554031372,19.240636478770863,18.518388414382933,12.558515548706056,16.867741372850205,20.82094249725342,17.3319001727634,17.590720653533936,16.992190170288087,28.067333094278972,25.706666310628254,30.205312371253967,32.90727259896018,31.888000202178954,29.200000762939453,29.853333367241753,31.630999946594237,30.705555491977268,27.69000005722046,30.041333643595376,22.42899986902873,20.214999834696453,23.586249858140945,26.864772536537863,26.71925015449524,25.210000038146973,25.438888867696125,25.514499855041507,24.851111067665947,21.3087500333786,22.71833346684774,16.790666643778483,14.723333358764648,16.967187345027924,20.822272474115547,21.550500106811523,21.219999313354492,21.0244443681505,19.39799976348877,18.99666664335463,14.927500009536743,15.395333290100098,12.387915460483233,10.214999834696453,8.491902620164382,9.41253621583072,11.749697792935796,12.90856002980905,13.51479843827398,13.597029787971344,13.60259379780458,11.352979083618521,11.637563987606367,12.387915460483233,10.214999834696453,8.491902620164382,9.41253621583072,11.749697792935796,12.90856002980905,13.51479843827398,13.597029787971344,13.60259379780458,11.352979083618521,11.637563987606367,0,0,271.74088384526016,478.8166805935361,713.8106364522521,726.7191964820611,848.352382426527,984.3226803062404,1229.1693686667224,1274.5812850011964,1274.5812850011964,0,0,1,0.9965681812979958,1,1,1,1,0.9962222258249919,1,0.06666666666666667,1,1,1,1,1,1,1,1,1,1,1,0.9383999983469645,0.9578333218892416,1,0.9965681812979958,1,1,1,1,0.9962222258249919,1,0.9989666684468588,1,1,1,0.9999999999999999,1,1,0.9999999999999999,1,0.9999999999999999,1,1,2023-05-04,2023-05-19,2023-05-22,2023-06-23,2023-07-15,2023-08-04,2023-08-05,2023-08-14,2023-08-24,2023-09-11,2023-09-15,2023-05-18,2023-05-21,2023-06-22,2023-07-14,2023-08-03,2023-08-04,2023-08-13,2023-08-23,2023-09-10,2023-09-14,2023-09-29,124,139,142,174,196,216,217,226,236,254,258,15,3,32,22,20,1,9,10,18,4,15,138,141,173,195,215,216,225,235,253,257,272
