ID,...1,Site,Latitude,Longitude,Genetics,Planting,ID_Loc,Year,Mat,Yield_Sim,MaxStage,StartDate,PlantingDate_Sim,DTM_Sim,MatDate_Sim,HarvestDate_Sim,EndDate,Result,Rain_1,Rain_2,Rain_3,Rain_4,Rain_5,Rain_6,Rain_7,Rain_8,Rain_9,Rain_10,Rain_11,AccRain_1,AccRain_2,AccRain_3,AccRain_4,AccRain_5,AccRain_6,AccRain_7,AccRain_8,AccRain_9,AccRain_10,AccRain_11,Radn_1,Radn_2,Radn_3,Radn_4,Radn_5,Radn_6,Radn_7,Radn_8,Radn_9,Radn_10,Radn_11,MaxT_1,MaxT_2,MaxT_3,MaxT_4,MaxT_5,MaxT_6,MaxT_7,MaxT_8,MaxT_9,MaxT_10,MaxT_11,MeanT_1,MeanT_2,MeanT_3,MeanT_4,MeanT_5,MeanT_6,MeanT_7,MeanT_8,MeanT_9,MeanT_10,MeanT_11,MinT_1,MinT_2,MinT_3,MinT_4,MinT_5,MinT_6,MinT_7,MinT_8,MinT_9,MinT_10,MinT_11,ThermalTime_1,ThermalTime_2,ThermalTime_3,ThermalTime_4,ThermalTime_5,ThermalTime_6,ThermalTime_7,ThermalTime_8,ThermalTime_9,ThermalTime_10,ThermalTime_11,AccTT_1,AccTT_2,AccTT_3,AccTT_4,AccTT_5,AccTT_6,AccTT_7,AccTT_8,AccTT_9,AccTT_10,AccTT_11,AccEmTT_1,AccEmTT_2,AccEmTT_3,AccEmTT_4,AccEmTT_5,AccEmTT_6,AccEmTT_7,AccEmTT_8,AccEmTT_9,AccEmTT_10,AccEmTT_11,FracGrowthRate_1,FracGrowthRate_2,FracGrowthRate_3,FracGrowthRate_4,FracGrowthRate_5,FracGrowthRate_6,FracGrowthRate_7,FracGrowthRate_8,FracGrowthRate_9,FracGrowthRate_10,FracGrowthRate_11,NutrientStress_1,NutrientStress_2,NutrientStress_3,NutrientStress_4,NutrientStress_5,NutrientStress_6,NutrientStress_7,NutrientStress_8,NutrientStress_9,NutrientStress_10,NutrientStress_11,TempStress_1,TempStress_2,TempStress_3,TempStress_4,TempStress_5,TempStress_6,TempStress_7,TempStress_8,TempStress_9,TempStress_10,TempStress_11,WaterStress_1,WaterStress_2,WaterStress_3,WaterStress_4,WaterStress_5,WaterStress_6,WaterStress_7,WaterStress_8,WaterStress_9,WaterStress_10,WaterStress_11,Period_Start_Date_1,Period_Start_Date_2,Period_Start_Date_3,Period_Start_Date_4,Period_Start_Date_5,Period_Start_Date_6,Period_Start_Date_7,Period_Start_Date_8,Period_Start_Date_9,Period_Start_Date_10,Period_Start_Date_11,Period_End_Date_1,Period_End_Date_2,Period_End_Date_3,Period_End_Date_4,Period_End_Date_5,Period_End_Date_6,Period_End_Date_7,Period_End_Date_8,Period_End_Date_9,Period_End_Date_10,Period_End_Date_11,Period_Start_DOY_1,Period_Start_DOY_2,Period_Start_DOY_3,Period_Start_DOY_4,Period_Start_DOY_5,Period_Start_DOY_6,Period_Start_DOY_7,Period_Start_DOY_8,Period_Start_DOY_9,Period_Start_DOY_10,Period_Start_DOY_11,Duration_1,Duration_2,Duration_3,Duration_4,Duration_5,Duration_6,Duration_7,Duration_8,Duration_9,Duration_10,Duration_11,Period_End_DOY_1,Period_End_DOY_2,Period_End_DOY_3,Period_End_DOY_4,Period_End_DOY_5,Period_End_DOY_6,Period_End_DOY_7,Period_End_DOY_8,Period_End_DOY_9,Period_End_DOY_10,Period_End_DOY_11
1,1,crookston_mn,47.805,-96.61426667,-0.5,2019-05-17,1,2019,mid00,807.5722060084279,11,2019-05-03,2019-05-17,108,2019-09-02,2019-09-15,2019-09-29,Harvested at Maturity.,0.6606666655590137,3.334545502777804,1.9431249703629874,5.198181782171807,0.9327777990450462,0.00999999977648258,4.983333398588002,1.9542857389897108,2.5255556168655553,4.996923145050039,4.264000044142207,0.6606666655590137,3.334545502777804,1.9431249703629874,5.198181782171807,0.9327777990450462,0.00999999977648258,4.983333398588002,1.9542857389897108,2.5255556168655553,4.996923145050039,4.264000044142207,20.838666470845542,17.657272815704346,21.765937596559525,23.48318204012784,24.03611119588216,20.049999237060547,12.874999920527141,22.4514285496303,16.683333449893528,11.166923192831186,13.857333374023437,16.12266667683919,17.914545666087758,25.366250157356262,27.800454486500133,29.41444460550944,26.06999969482422,23.763333320617676,24.99428585597447,23.406666649712456,19.477692237267128,22.802000172932942,9.46066665450732,12.220000115307895,18.555156342685223,22.304318276318636,22.65111123190986,19.85999965667725,18.984999815622967,18.34357145854405,17.734444432788425,14.56999995158269,16.897333431243897,2.7986666321754456,6.525454564528032,11.744062528014183,16.80818206613714,15.887777858310276,13.649999618530272,14.206666310628256,11.69285706111363,12.062222215864393,9.662307665898249,10.99266668955485,2.0792862489302455,3.066920744057135,6.810427340857251,10.162384791900537,11.533318938162198,9.859999656677248,9.09747099681,9.063119717467682,8.586438507145642,6.561712635404788,6.8858168245832125,2.0792862489302455,3.066920744057135,6.810427340857251,10.162384791900537,11.533318938162198,9.859999656677248,9.09747099681,9.063119717467682,8.586438507145642,6.561712635404788,6.8858168245832125,0,0,217.933674907432,441.5061403292439,649.1058812161634,658.9658808728407,713.5507068537007,776.9925448759745,854.2704914402855,939.5727557005476,939.5727557005476,0,0,0.7787968836724758,0.9915681795640425,0.9724444521798028,0.9859999656677246,0.8408333142598471,0.8202142919812884,0.7461666663487753,0.4569999951582689,0.03506666819254557,1,1,1,1,1,1,1,1,1,1,1,0.11586666742960612,0.23440910035913642,0.7787968836724758,0.9915681795640425,0.9724444521798028,0.9859999656677246,0.8408333142598471,0.8202142919812884,0.7461666663487753,0.4569999951582689,0.6301000102361044,1,1,1,0.9999999999999999,0.9999999999999999,1,1,0.9999999999999999,1,0.9999999999999999,1,2019-05-03T12:00:00Z,2019-05-18T12:00:00Z,2019-05-29T12:00:00Z,2019-06-30T12:00:00Z,2019-07-22T12:00:00Z,2019-08-09T12:00:00Z,2019-08-10T12:00:00Z,2019-08-16T12:00:00Z,2019-08-23T12:00:00Z,2019-09-01T12:00:00Z,2019-09-14T12:00:00Z,2019-05-17T12:00:00Z,2019-05-28T12:00:00Z,2019-06-29T12:00:00Z,2019-07-21T12:00:00Z,2019-08-08T12:00:00Z,2019-08-09T12:00:00Z,2019-08-15T12:00:00Z,2019-08-22T12:00:00Z,2019-08-31T12:00:00Z,2019-09-13T12:00:00Z,2019-09-28T12:00:00Z,123,138,149,181,203,221,222,228,235,244,257,15,11,32,22,18,1,6,7,9,13,15,137,148,180,202,220,221,227,234,243,256,271
2,2,roseau_mn,48.1623,-96.0419,-0.5,2019-05-18,2,2019,mid00,735.4288161911022,11,2019-05-04,2019-05-18,113,2019-09-08,2019-09-19,2019-10-03,Harvested at Maturity.,0.795999999716878,2.8590909080071882,1.8490625056438148,4.145833356694008,1.5694737085386326,NA,2.377142908317702,3.4714286667960033,1.6663636622781104,5.374545504423705,6.961333324263493,0.795999999716878,2.8590909080071882,1.8490625056438148,4.145833356694008,1.5694737085386326,NA,2.377142908317702,3.4714286667960033,1.6663636622781104,5.374545504423705,6.961333324263493,20.959333229064942,21.20909092643044,22.16750018298626,24.071249961853027,22.112105193891022,NA,17.307142530168807,17.20000001362392,14.59000015258789,11.396363735198975,10.239999898274739,15.059999910990397,18.3227275501598,24.657812476158142,27.15708335240682,28.2352631217555,NA,23.93142863682338,23.71000017438616,21.317272879860617,20.66818176616322,18.053333155314128,8.936999960740408,12.441818302327937,18.194687515497208,21.563958406448364,21.867631585974443,NA,18.069285801478795,18.410714285714285,15.390454617413608,15.5936363176866,12.987333254019418,2.8140000104904175,6.560909054496071,11.731562554836273,15.970833460489908,15.500000050193385,NA,12.207142966134208,13.111428397042411,9.463636354966598,10.519090869209982,7.921333352724711,1.6979284143271545,3.298020805439082,6.5194948110036846,9.625849473946904,11.159788504966814,NA,8.641519597485237,8.904489142425572,7.127227036462047,7.642115241511301,3.5270873291431863,1.6979284143271545,3.298020805439082,6.5194948110036846,9.625849473946904,11.159788504966814,NA,8.641519597485237,8.904489142425572,7.127227036462047,7.642115241511301,3.5270873291431863,0,0,208.62383395211788,439.64422132684354,651.6802029212132,NA,712.17084010361,774.5022641005892,852.9017615016716,936.9650291582958,936.9650291582958,0,0,0.7483281299471856,0.9835625012715657,0.94589473824752,NA,0.8069285801478795,0.8117142881665911,0.5390454617413608,0.4872272643175992,0.06666666666666667,1,1,1,1,1,NA,1,1,1,1,1,0.09329999923706055,0.2582727388902144,0.7483281299471856,0.9835625012715657,0.94589473824752,NA,0.8069285801478795,0.8117142881665911,0.5390454617413608,0.4872272643175992,0.3730333256721497,1,1,1,1,0.9999999999999999,NA,1,0.9999999999999999,1,0.9999999999999999,1,2019-05-04T12:00:00Z,2019-05-19T12:00:00Z,2019-05-30T12:00:00Z,2019-07-01T12:00:00Z,2019-07-25T12:00:00Z,NA,2019-08-13T12:00:00Z,2019-08-20T12:00:00Z,2019-08-27T12:00:00Z,2019-09-07T12:00:00Z,2019-09-18T12:00:00Z,2019-05-18T12:00:00Z,2019-05-29T12:00:00Z,2019-06-30T12:00:00Z,2019-07-24T12:00:00Z,2019-08-12T12:00:00Z,NA,2019-08-19T12:00:00Z,2019-08-26T12:00:00Z,2019-09-06T12:00:00Z,2019-09-17T12:00:00Z,2019-10-02T12:00:00Z,124,139,150,182,206,NA,225,232,239,250,261,15,11,32,24,19,0,7,7,11,11,15,138,149,181,205,224,NA,231,238,249,260,275
3,3,thiefriverfalls_mn,48.1283,-96.2427,-0.5,2019-05-18,3,2019,mid00,745.874389102746,11,2019-05-04,2019-05-18,113,2019-09-08,2019-09-19,2019-10-03,Harvested at Maturity.,0.795999999716878,2.8590909080071882,1.8490625056438148,4.145833356694008,0.9822222288284037,12.140000343322754,2.377142908317702,3.4714286667960033,1.6663636622781104,5.374545504423705,6.961333324263493,0.795999999716878,2.8590909080071882,1.8490625056438148,4.145833356694008,0.9822222288284037,12.140000343322754,2.377142908317702,3.4714286667960033,1.6663636622781104,5.374545504423705,6.961333324263493,20.959333229064942,21.20909092643044,22.16750018298626,24.071249961853027,22.964444372389053,6.769999980926514,17.307142530168807,17.20000001362392,14.59000015258789,11.396363735198975,10.239999898274739,15.059999910990397,18.3227275501598,24.657812476158142,27.15708335240682,28.68611102634006,20.1200008392334,23.93142863682338,23.71000017438616,21.317272879860617,20.66818176616322,18.053333155314128,8.936999960740408,12.441818302327937,18.194687515497208,21.563958406448364,22.121944427490234,17.290000438690186,18.069285801478795,18.410714285714285,15.390454617413608,15.5936363176866,12.987333254019418,2.8140000104904175,6.560909054496071,11.731562554836273,15.970833460489908,15.557777828640408,14.460000038146973,12.207142966134208,13.111428397042411,9.463636354966598,10.519090869209982,7.921333352724711,1.6979284143271545,3.298020805439082,6.5255120400770465,9.633507359146195,11.379916720656752,7.290000438690184,8.641519597485237,8.904489142425572,7.127227036462047,7.642115241511301,3.5270873291431863,1.6979284143271545,3.298020805439082,6.5255120400770465,9.633507359146195,11.379916720656752,7.290000438690184,8.641519597485237,8.904489142425572,7.127227036462047,7.642115241511301,3.5270873291431863,0,0,208.81638528246543,440.0205619019741,644.8590628737957,652.1490633124859,712.6397004948826,774.9711244918618,853.3706218929442,937.4338895495684,937.4338895495684,0,0,0.7483281299471856,0.9835625012715657,0.9579444434907701,0.7290000438690186,0.8069285801478795,0.8117142881665911,0.5390454617413608,0.4872272643175992,0.06666666666666667,1,1,1,1,1,1,1,1,1,1,1,0.09329999923706055,0.2582727388902144,0.7483281299471856,0.9835625012715657,0.9579444434907701,0.7290000438690186,0.8069285801478795,0.8117142881665911,0.5390454617413608,0.4872272643175992,0.3730333256721497,1,1,1,1,0.9999999999999999,0.9999999999999998,1,1,0.9999999999999999,0.9999999999999999,1,2019-05-04T12:00:00Z,2019-05-19T12:00:00Z,2019-05-30T12:00:00Z,2019-07-01T12:00:00Z,2019-07-25T12:00:00Z,2019-08-12T12:00:00Z,2019-08-13T12:00:00Z,2019-08-20T12:00:00Z,2019-08-27T12:00:00Z,2019-09-07T12:00:00Z,2019-09-18T12:00:00Z,2019-05-18T12:00:00Z,2019-05-29T12:00:00Z,2019-06-30T12:00:00Z,2019-07-24T12:00:00Z,2019-08-11T12:00:00Z,2019-08-12T12:00:00Z,2019-08-19T12:00:00Z,2019-08-26T12:00:00Z,2019-09-06T12:00:00Z,2019-09-17T12:00:00Z,2019-10-02T12:00:00Z,124,139,150,182,206,224,225,232,239,250,261,15,11,32,24,18,1,7,7,11,11,15,138,149,181,205,223,224,231,238,249,260,275
4,4,casselton_nd,46.8866,-97.2386,-0.5,2019-05-17,4,2019,mid00,735.2034115028516,11,2019-05-03,2019-05-17,106,2019-08-31,2019-09-11,2019-09-25,Harvested at Maturity.,0.8693333510309458,4.424166738986969,2.626666670975586,6.034761802515104,1.4221052588208725,0,4.5566667554279165,5.215000062560042,2.3966666739434004,4.559999979185787,4.17399999735256,0.8693333510309458,4.424166738986969,2.626666670975586,6.034761802515104,1.4221052588208725,0,4.5566667554279165,5.215000062560042,2.3966666739434004,4.559999979185787,4.17399999735256,20.836666774749755,17.18166673183441,22.101000022888183,22.418095316205704,22.823684140255576,27.13999938964844,13.065000057220459,20.578333377838135,18.941111193762886,14.368181813846935,14.381333160400391,16.163999811808267,17.805833260218304,25.269666544596355,27.750476383027575,28.024210678903682,25.56999969482422,25.00499979654948,25.583333333333336,23.75,22.265454639088023,24.421333503723144,9.673333247440556,12.020833293596905,18.60149994691213,22.560000169844855,21.813947476838763,18.329999923706055,19.959999879201252,19.078333377838135,18.190000004238552,16.39681818268516,18.4120001633962,3.182666683072845,6.235833326975505,11.933333349227905,17.369523956662132,15.60368427477385,11.09000015258789,14.914999961853027,12.573333422342937,12.630000008477104,10.528181726282293,12.402666823069255,2.11875219971965,3.1076339334929983,6.999944460367669,10.595944104964003,11.15036143088906,8.329999923706055,9.972968830771247,9.519940308254956,8.830794522273541,7.763000717671893,7.9888870648944375,2.11875219971965,3.1076339334929983,6.999944460367669,10.595944104964003,11.15036143088906,8.329999923706055,9.972968830771247,9.519940308254956,8.830794522273541,7.763000717671893,7.9888870648944375,0,0,209.99833381103,432.5131600152742,644.3700272021663,652.7000271258723,712.5378401104998,769.6574819600296,849.1346326604914,934.5276405548822,934.5276405548822,0,0,0.7928833349545797,0.9934999988192604,0.9658684253692628,0.8329999923706055,0.9409166574478149,0.8840833425521851,0.7925555494096544,0.6354545441540805,0.04330000241597494,1,1,1,1,1,1,1,1,1,1,1,0.12093332846959433,0.2569583276907603,0.7928833349545797,0.9934999988192604,0.9658684253692628,0.8329999923706055,0.9409166574478149,0.8840833425521851,0.7925555494096544,0.6354545441540805,0.7499000056584676,1,1,1,1,1,0.9999999999999998,0.9999999999999999,0.9999999999999999,1,1,1,2019-05-03T12:00:00Z,2019-05-18T12:00:00Z,2019-05-30T12:00:00Z,2019-06-29T12:00:00Z,2019-07-20T12:00:00Z,2019-08-08T12:00:00Z,2019-08-09T12:00:00Z,2019-08-15T12:00:00Z,2019-08-21T12:00:00Z,2019-08-30T12:00:00Z,2019-09-10T12:00:00Z,2019-05-17T12:00:00Z,2019-05-29T12:00:00Z,2019-06-28T12:00:00Z,2019-07-19T12:00:00Z,2019-08-07T12:00:00Z,2019-08-08T12:00:00Z,2019-08-14T12:00:00Z,2019-08-20T12:00:00Z,2019-08-29T12:00:00Z,2019-09-09T12:00:00Z,2019-09-24T12:00:00Z,123,138,150,180,201,220,221,227,233,242,253,15,12,30,21,19,1,6,6,9,11,15,137,149,179,200,219,220,226,232,241,252,267
5,5,ottawa_ont,45.3712,-75.72575,-0.5,2019-05-22,5,2019,mid00,693.7927346662393,11,2019-05-08,2019-05-22,116,2019-09-15,2019-09-25,2019-10-09,Harvested at Maturity.,3.7493332867821056,2.8266666407386465,3.5353124881512485,1.6463636634024705,2.0577272512865337,NA,0.8242856971919537,2.975714308874948,2.8916666309038797,2.1709999717772006,2.884666665146748,3.7493332867821056,2.8266666407386465,3.5353124881512485,1.6463636634024705,2.0577272512865337,NA,0.8242856971919537,2.975714308874948,2.8916666309038797,2.1709999717772006,2.884666665146748,16.52333335876465,15.995000044504803,22.596562564373016,23.058181762695313,20.166363846171986,NA,20.164285932268417,17.138571739196777,14.673333406448364,14.729000043869018,10.337333393096923,15.610666656494141,17.732500076293945,23.338749825954437,26.298636349764738,25.142727158286355,NA,24.681428909301758,23.05714280264718,20.365833282470703,23.253000259399414,16.766666475931803,10.007333314418792,12.622500042120615,17.85374991223216,20.90181816707958,19.89431801709262,NA,18.80357163293021,17.730000019073486,14.63916673262914,16.827500104904175,11.173333221673966,4.403999972343445,7.512500007947287,12.368749998509884,15.50499998439442,14.645908875898881,NA,12.925714356558665,12.402857235499791,8.912500182787577,10.401999950408936,5.579999967416128,1.9236868310107789,3.226748788405955,6.722963773982507,9.824216376426401,9.79837679644453,NA,9.250454744398594,8.397356098457745,6.724173350780954,8.18506773877293,2.3951228337238484,1.9236868310107789,3.226748788405955,6.722963773982507,9.824216376426401,9.79837679644453,NA,9.250454744398594,8.397356098457745,6.724173350780954,8.18506773877293,2.3951228337238484,0,0,215.13484076744015,431.2676010488209,646.8318905706005,NA,711.5850737813907,770.366566470595,851.0566466799665,932.907324067696,932.907324067696,0,0,0.7280937492847442,0.9496136361902411,0.915318174795671,NA,0.8647857325417655,0.7730000019073486,0.4639166732629141,0.678400011062622,0.025333331425984703,1,1,1,1,1,NA,1,1,1,1,1,0.1003000020980835,0.2651666720708211,0.7280937492847442,0.9496136361902411,0.915318174795671,NA,0.8647857325417655,0.7730000019073486,0.4639166732629141,0.678400011062622,0.19156665960947675,1,1,1,1,1,NA,1,0.9999999999999999,1,1,1,2019-05-08T12:00:00Z,2019-05-23T12:00:00Z,2019-06-04T12:00:00Z,2019-07-06T12:00:00Z,2019-07-28T12:00:00Z,NA,2019-08-19T12:00:00Z,2019-08-26T12:00:00Z,2019-09-02T12:00:00Z,2019-09-14T12:00:00Z,2019-09-24T12:00:00Z,2019-05-22T12:00:00Z,2019-06-03T12:00:00Z,2019-07-05T12:00:00Z,2019-07-27T12:00:00Z,2019-08-18T12:00:00Z,NA,2019-08-25T12:00:00Z,2019-09-01T12:00:00Z,2019-09-13T12:00:00Z,2019-09-23T12:00:00Z,2019-10-08T12:00:00Z,128,143,155,187,209,NA,231,238,245,257,267,15,12,32,22,22,0,7,7,12,10,15,142,154,186,208,230,NA,237,244,256,266,281
6,6,lapocatiere_que,47.357,-70.023,-0.5,2019-06-06,6,2019,mid00,0,5.879312252945133,2019-05-23,2019-06-06,NA,NA,2019-11-08,2019-11-22,Dead from Frost.,3.0233333154271045,3.439000027999282,2.6972222328703435,2.8881481787258827,3.3588888839485103,NA,NA,NA,NA,NA,1.7678571646767003,3.0233333154271045,3.439000027999282,2.6972222328703435,2.8881481787258827,3.3588888839485103,NA,NA,NA,NA,NA,1.7678571646767003,20.560000085830687,18.041000175476075,21.97194441159566,18.179629643758137,10.334197560946146,NA,NA,NA,NA,NA,5.0007142680031915,15.184000015258789,18.52100028991699,21.711388905843098,22.319629739831996,13.851851882757964,NA,NA,NA,NA,NA,-2.7849999676857675,10.592666693528493,13.506000137329101,17.173194408416748,18.23907415955155,10.096049399839508,NA,NA,NA,NA,NA,-5.58499999610441,6.001333371798197,8.490999984741212,12.634999910990397,14.158518579271105,6.340246916921051,NA,NA,NA,NA,NA,-8.385000024523054,1.8222297650555273,3.84906484315604,5.98258854576159,7.950310238172505,2.402263035607692,NA,NA,NA,NA,NA,0,1.8222297650555273,3.84906484315604,5.98258854576159,7.950310238172505,2.402263035607692,NA,NA,NA,NA,NA,0,0,0,215.37318764741727,430.0315640780749,624.6148699622984,NA,NA,NA,NA,NA,0,0,0,0.7005694429079692,0.7871111110404686,0.21578395278365525,NA,NA,NA,NA,NA,0,1,1,1,1,1,NA,NA,NA,NA,NA,1,0.10179999828338623,0.35060001373291017,0.7005694429079692,0.7871111110404686,0.21578395278365525,NA,NA,NA,NA,NA,0,1,1,1,0.9999999999999999,1,NA,NA,NA,NA,NA,1,2019-05-23T12:00:00Z,2019-06-07T12:00:00Z,2019-06-17T12:00:00Z,2019-07-23T12:00:00Z,2019-08-19T12:00:00Z,NA,NA,NA,NA,NA,2019-11-08T12:00:00Z,2019-06-06T12:00:00Z,2019-06-16T12:00:00Z,2019-07-22T12:00:00Z,2019-08-18T12:00:00Z,2019-11-07T12:00:00Z,NA,NA,NA,NA,NA,2019-11-21T12:00:00Z,143,158,168,204,231,NA,NA,NA,NA,NA,312,15,10,36,27,81,0,0,0,0,0,14,157,167,203,230,311,NA,NA,NA,NA,NA,325
7,7,stmathieudebeloeil_que,45.5834,-73.2422,-0.5,2019-06-07,7,2019,mid00,659.3216455449021,11,2019-05-24,2019-06-07,97,2019-09-12,2019-09-23,2019-10-07,Harvested at Maturity.,1.872666668643554,3.020000026250879,2.488076893039621,2.3259999897331,3.015263156083069,1.899999976158142,1.5699999809265137,3.6971428705645457,4.751818231391636,1.178181803361936,5.1473332663377125,1.872666668643554,3.020000026250879,2.488076893039621,2.3259999897331,3.015263156083069,1.899999976158142,1.5699999809265137,3.6971428705645457,4.751818231391636,1.178181803361936,5.1473332663377125,18.756000073750812,23.260000069936115,22.696923145881065,21.355499935150146,20.450526187294408,17.06999969482422,16.77199993133545,18.718571254185267,15.278181769631125,15.942727175625889,9.219333362579345,18.631999969482422,22.200000127156574,24.929615314190205,27.142999935150147,26.412631285818,26.239999771118164,26.794000244140626,24.699999945504324,20.97909095070579,21.838181582364168,17.652666727701824,13.345333345731099,16.11583348115285,19.70730765049274,22.164999866485594,21.09526300430298,22.14000034332275,21.184000110626222,18.83785711015974,15.459545438939875,15.438636324622415,12.544333385427793,8.058666721979778,10.03166683514913,14.484999986795279,17.186999797821045,15.777894722787957,18.040000915527344,15.573999977111816,12.97571427481515,9.939999927173961,9.03909106688066,7.436000043153762,3.939562372326652,6.229073171913623,8.165577168551575,11.052217531837654,10.965616614321318,12.140000343322754,11.23431957835436,9.307876991528273,7.015824405951934,7.366258068385179,3.0969351181646934,3.939562372326652,6.229073171913623,8.165577168551575,11.052217531837654,10.965616614321318,12.140000343322754,11.23431957835436,9.307876991528273,7.015824405951934,7.366258068385179,3.0969351181646934,0,0,212.3050063823409,433.349357019094,641.6960726911991,653.8360730345219,710.0076709262936,775.1628098669916,852.3368783324627,933.3657170846994,933.3657170846994,0,0,0.8746153794802153,0.984925000667572,0.9484473680195056,1,0.965299997329712,0.8789285727909634,0.5459545438939875,0.5438636324622415,0.06666666666666667,1,1,1,1,1,1,1,1,1,1,1,0.33800000429153443,0.6023333430290222,0.8746153794802153,0.984925000667572,0.9484473680195056,1,0.965299997329712,0.8789285727909634,0.5459545438939875,0.5438636324622415,0.3138000027338664,1,1,1,0.9999999999999999,1,1,1,1,1,1,1,2019-05-24T12:00:00Z,2019-06-08T12:00:00Z,2019-06-14T12:00:00Z,2019-07-10T12:00:00Z,2019-07-30T12:00:00Z,2019-08-18T12:00:00Z,2019-08-19T12:00:00Z,2019-08-24T12:00:00Z,2019-08-31T12:00:00Z,2019-09-11T12:00:00Z,2019-09-22T12:00:00Z,2019-06-07T12:00:00Z,2019-06-13T12:00:00Z,2019-07-09T12:00:00Z,2019-07-29T12:00:00Z,2019-08-17T12:00:00Z,2019-08-18T12:00:00Z,2019-08-23T12:00:00Z,2019-08-30T12:00:00Z,2019-09-10T12:00:00Z,2019-09-21T12:00:00Z,2019-10-06T12:00:00Z,144,159,165,191,211,230,231,236,243,254,265,15,6,26,20,19,1,5,7,11,11,15,158,164,190,210,229,230,235,242,253,264,279
8,8,casselton_nd,46.8866,-97.2386,0.5,2019-05-17,4,2019,mid0,893.0869668795231,11,2019-05-03,2019-05-17,120,2019-09-14,2019-09-22,2019-10-06,Harvested at Maturity.,0.8693333510309458,4.424166738986969,3.092750003375113,4.721110989029209,3.128500019013882,NA,2.490000061225146,2.6975000081583858,7.07750003815939,1.4287499557249248,5.279333341618379,0.8693333510309458,4.424166738986969,3.092750003375113,4.721110989029209,3.128500019013882,NA,2.490000061225146,2.6975000081583858,7.07750003815939,1.4287499557249248,5.279333341618379,20.836666774749755,17.18166673183441,22.15325002670288,23.211111121707493,19.043499994277955,NA,22.367500066757202,17.959999978542328,12.632499992847443,15.523749828338623,9.14666657447815,16.163999811808267,17.805833260218304,25.881999921798705,27.642222510443794,26.935499954223634,NA,25.46250009536743,23.478749990463257,21.456666787465412,26.87625026702881,15.923999913533528,9.673333247440556,12.020833293596905,19.50099998116493,22.161389085981583,21.185249996185302,NA,18.662500083446503,17.995625019073486,16.02416668335597,20.342500239610672,11.039333342512448,3.182666683072845,6.235833326975505,13.120000040531158,16.680555661519367,15.435000038146972,NA,11.862500071525574,12.512500047683716,10.591666579246521,13.808750212192535,6.154666771491368,2.11875219971965,3.1076339334929983,7.031431181698272,9.859866430030893,10.496987192415055,NA,9.302560029120743,8.730097190719844,7.435850615479052,10.975231725857778,2.1836151304096854,2.11875219971965,3.1076339334929983,7.031431181698272,9.859866430030893,10.496987192415055,NA,9.302560029120743,8.730097190719844,7.435850615479052,10.975231725857778,2.1836151304096854,0,0,281.2572472679309,458.7348430084871,668.6745868567881,NA,743.095067089754,812.9358446155127,902.1660520012612,989.9679058081238,989.9679058081238,0,0,0.8412500005960465,0.9836111148198445,0.9476999950408935,NA,0.848437511920929,0.7698124945163727,0.598541667064031,0.8630625039339066,0.056900002161661786,1,1,1,1,1,NA,1,1,1,1,1,0.12093332846959433,0.2569583276907603,0.8412500005960465,0.9836111148198445,0.9476999950408935,NA,0.848437511920929,0.7698124945163727,0.598541667064031,0.8630625039339066,0.23266666730244956,1,1,1,1,1,NA,0.9999999999999999,1,1,1,1,2019-05-03T12:00:00Z,2019-05-18T12:00:00Z,2019-05-30T12:00:00Z,2019-07-09T12:00:00Z,2019-07-27T12:00:00Z,NA,2019-08-16T12:00:00Z,2019-08-24T12:00:00Z,2019-09-01T12:00:00Z,2019-09-13T12:00:00Z,2019-09-21T12:00:00Z,2019-05-17T12:00:00Z,2019-05-29T12:00:00Z,2019-07-08T12:00:00Z,2019-07-26T12:00:00Z,2019-08-15T12:00:00Z,NA,2019-08-23T12:00:00Z,2019-08-31T12:00:00Z,2019-09-12T12:00:00Z,2019-09-20T12:00:00Z,2019-10-05T12:00:00Z,123,138,150,190,208,NA,228,236,244,256,264,15,12,40,18,20,0,8,8,12,8,15,137,149,189,207,227,NA,235,243,255,263,278
9,9,ottawa_ont,45.3712,-75.72575,0.5,2019-05-22,5,2019,mid0,795.8945154234339,11,2019-05-08,2019-05-22,128,2019-09-27,2019-10-14,2019-10-28,Harvested at Maturity.,3.7493332867821056,2.8266666407386465,3.3519047633079544,1.1623529485043358,1.7326086713406055,0,3.1900000042385526,3.1263636242259634,1.5109090513803742,2.4935294107040935,5.446666656807065,3.7493332867821056,2.8266666407386465,3.3519047633079544,1.1623529485043358,1.7326086713406055,0,3.1900000042385526,3.1263636242259634,1.5109090513803742,2.4935294107040935,5.446666656807065,16.52333335876465,15.995000044504803,22.875952425457182,22.165294086231906,19.71956543300463,24.030000686645508,16.54222255282932,14.111818226900969,14.851818171414463,10.545882477479822,7.81199996471405,15.610666656494141,17.732500076293945,23.902618907746813,27.032941145055435,24.48913043478261,24.600000381469727,22.691111034817165,20.46636356006969,22.591818376020953,16.325293933644016,13.107999992370605,10.007333314418792,12.622500042120615,18.446071360792434,21.721470468184528,19.067826063736625,17.90000009536743,17.511111153496635,14.548636371439153,16.293636452067982,10.634705787195879,8.306666658694546,4.403999972343445,7.512500007947287,12.989523813838051,16.40999979131362,13.646521692690643,11.199999809265137,12.331111272176107,8.630909182808615,9.995454528115012,4.944117640747743,3.5053333250184853,1.9236868310107789,3.226748788405955,6.669302981436543,10.3131107339208,8.962116128204563,7.900000095367431,8.222199715579219,6.716714360272071,7.840508568752625,5.449419742547239,0.7835459768647669,1.9236868310107789,3.226748788405955,6.669302981436543,10.3131107339208,8.962116128204563,7.900000095367431,8.222199715579219,6.716714360272071,7.840508568752625,5.449419742547239,0.7835459768647669,0,0,280.11072522033476,455.43360769698825,661.5622786456933,669.4622787410607,743.4620761812737,817.3459341442666,903.5915284005456,996.2316640238486,996.2316640238486,0,0,0.7811904759634108,0.963558822519639,0.8869782592939294,0.7900000095367432,0.7511111153496637,0.45486363714391537,0.6254091002724388,0.1294705825693467,0,1,1,1,1,1,1,1,1,1,1,1,0.1003000020980835,0.2651666720708211,0.7811904759634108,0.963558822519639,0.8869782592939294,0.7900000095367432,0.7511111153496637,0.45486363714391537,0.6254091002724388,0.1294705825693467,0.023266665140787762,1,1,1,0.9999999999999999,1,1,1,1,0.9999999999999999,0.9999999999999999,1,2019-05-08T12:00:00Z,2019-05-23T12:00:00Z,2019-06-04T12:00:00Z,2019-07-16T12:00:00Z,2019-08-02T12:00:00Z,2019-08-25T12:00:00Z,2019-08-26T12:00:00Z,2019-09-04T12:00:00Z,2019-09-15T12:00:00Z,2019-09-26T12:00:00Z,2019-10-13T12:00:00Z,2019-05-22T12:00:00Z,2019-06-03T12:00:00Z,2019-07-15T12:00:00Z,2019-08-01T12:00:00Z,2019-08-24T12:00:00Z,2019-08-25T12:00:00Z,2019-09-03T12:00:00Z,2019-09-14T12:00:00Z,2019-09-25T12:00:00Z,2019-10-12T12:00:00Z,2019-10-27T12:00:00Z,128,143,155,197,214,237,238,247,258,269,286,15,12,42,17,23,1,9,11,11,17,15,142,154,196,213,236,237,246,257,268,285,300
10,10,woodstock_ont,43.14542,-80.78348,0.5,2019-06-14,8,2019,mid0,714.7383029160163,11,2019-05-31,2019-06-14,88,2019-09-10,2019-09-19,2019-10-03,Harvested at Maturity.,2.5453333750367166,1.2919999651610852,3.0996296381646835,3.138571438778724,1.4776470760869629,NA,4.19666666785876,2.1828571456883634,3.2819999754428864,4.956666678190231,3.2406666927039622,2.5453333750367166,1.2919999651610852,3.0996296381646835,3.138571438778724,1.4776470760869629,NA,4.19666666785876,2.1828571456883634,3.2819999754428864,4.956666678190231,3.2406666927039622,22.17999986012777,17.379999923706055,24.314444294682257,21.91428600038801,21.97705863503849,NA,20.473333676656086,19.6028573853629,15.18199987411499,13.035555627610949,13.52333345413208,21.467333221435545,22.852000427246093,27.958518416793257,28.52571419307164,28.208823372335996,NA,28.925000190734863,24.879999705723357,23.49799976348877,24.1499998304579,23.747333399454753,15.472333256403605,17.84700002670288,22.23407397446809,23.821071454456874,22.73235284580904,NA,23.731666882832844,19.836428301674978,18.19749984741211,19.245555453830296,18.839333407084148,9.477333291371663,12.841999626159668,16.50962953214292,19.116428715842112,17.255882319282083,NA,18.538333574930828,14.792856897626605,12.896999931335449,14.34111107720269,13.931333414713542,5.770832354959051,7.847000026702882,10.136220913350027,12.58623385673334,12.626361906560494,NA,13.687742004954815,10.008406893297604,8.68580761452377,9.454506781645616,8.259000078837078,5.770832354959051,7.847000026702882,10.136220913350027,12.58623385673334,12.626361906560494,NA,13.687742004954815,10.008406893297604,8.68580761452377,9.454506781645616,8.259000078837078,0,0,273.67796466045075,449.8852386547175,664.5333910662459,NA,746.6598430959748,816.718691349058,903.5767674942956,988.6673285291064,988.6673285291064,0,0,0.9678703714300085,0.997999998501369,0.997911761788761,NA,1,0.9377142701830183,0.8131499814987183,0.8754999902513292,0.05803333282470703,1,1,1,1,1,NA,1,0.9998092809828562,0.9995739386832467,1,1,0.5496333265304566,0.763100004196167,0.9678703714300085,0.997999998501369,0.997911761788761,NA,1,0.9377142701830183,0.8131499814987183,0.8754999902513292,0.8167333380381266,1,1,1,0.9999999999999999,1,NA,0.9999999999999999,0.9999999999999999,1,1,1,2019-05-31T12:00:00Z,2019-06-15T12:00:00Z,2019-06-20T12:00:00Z,2019-07-17T12:00:00Z,2019-07-31T12:00:00Z,NA,2019-08-17T12:00:00Z,2019-08-23T12:00:00Z,2019-08-30T12:00:00Z,2019-09-09T12:00:00Z,2019-09-18T12:00:00Z,2019-06-14T12:00:00Z,2019-06-19T12:00:00Z,2019-07-16T12:00:00Z,2019-07-30T12:00:00Z,2019-08-16T12:00:00Z,NA,2019-08-22T12:00:00Z,2019-08-29T12:00:00Z,2019-09-08T12:00:00Z,2019-09-17T12:00:00Z,2019-10-02T12:00:00Z,151,166,171,198,212,NA,229,235,242,252,261,15,5,27,14,17,0,6,7,10,9,15,165,170,197,211,228,NA,234,241,251,260,275
11,11,stmathieudebeloeil_que,45.5834,-73.2422,0.5,2019-06-07,7,2019,mid0,770.7142262240654,11,2019-05-24,2019-06-07,109,2019-09-24,2019-10-09,2019-10-23,Harvested at Maturity.,1.872666668643554,3.020000026250879,2.795714250952005,1.5566666799287001,2.8484999939799307,0.07999999821186066,3.2662500117439777,5.202000054530799,1.124166650697589,5.7806665837764735,4.202666775633891,1.872666668643554,3.020000026250879,2.795714250952005,1.5566666799287001,2.8484999939799307,0.07999999821186066,3.2662500117439777,5.202000054530799,1.124166650697589,5.7806665837764735,4.202666775633891,18.756000073750812,23.260000069936115,22.090000016348704,22.44866663614909,18.85149989128113,19.809999465942383,18.49749994277954,15.110999870300294,15.542499939600626,8.776666673024495,10.521999963124593,18.631999969482422,22.200000127156574,25.256571306501115,28.13066660563151,26.195499897003174,23.229999542236328,24.383749961853027,20.86000003814697,22.43249972661336,16.748666763305664,14.688666598002115,13.345333345731099,16.11583348115285,20.1257141658238,22.99633328119914,20.8474999666214,18.264999866485596,18.596874952316284,15.314499998092652,15.934583286444347,11.98600005209446,9.544666612148285,8.058666721979778,10.03166683514913,14.994857025146484,17.861999956766763,15.499500036239624,13.300000190734863,12.809999942779541,9.76899995803833,9.43666684627533,7.223333340883255,4.400666626294454,3.939562372326652,6.229073171913623,7.924395415674754,11.438848670450717,10.728094873506905,8.264999866485596,9.106204082579167,6.947957474553585,7.706472568569333,5.938282428630093,1.3860825235733887,3.939562372326652,6.229073171913623,7.924395415674754,11.438848670450717,10.728094873506905,8.264999866485596,9.106204082579167,6.947957474553585,7.706472568569333,5.938282428630093,1.3860825235733887,0,0,277.35383954861646,448.93656960537714,663.4984670755154,671.763466942001,744.6130996026343,814.09267434817,906.5703451710018,995.6445816004532,995.6445816004532,0,0,0.9068571390424456,0.979900000890096,0.9510249996185303,0.8264999866485596,0.8554374992847443,0.5314499998092651,0.5818749964237213,0.2672333351771037,0.008799997965494792,1,1,1,1,1,1,1,1,1,1,1,0.33800000429153443,0.6023333430290222,0.9068571390424456,0.979900000890096,0.9510249996185303,0.8264999866485596,0.8554374992847443,0.5314499998092651,0.5818749964237213,0.2672333351771037,0.056699995994567876,1,1,1,1,1,1,1,1,0.9999999999999999,1,1,2019-05-24T12:00:00Z,2019-06-08T12:00:00Z,2019-06-14T12:00:00Z,2019-07-19T12:00:00Z,2019-08-03T12:00:00Z,2019-08-23T12:00:00Z,2019-08-24T12:00:00Z,2019-09-01T12:00:00Z,2019-09-11T12:00:00Z,2019-09-23T12:00:00Z,2019-10-08T12:00:00Z,2019-06-07T12:00:00Z,2019-06-13T12:00:00Z,2019-07-18T12:00:00Z,2019-08-02T12:00:00Z,2019-08-22T12:00:00Z,2019-08-23T12:00:00Z,2019-08-31T12:00:00Z,2019-09-10T12:00:00Z,2019-09-22T12:00:00Z,2019-10-07T12:00:00Z,2019-10-22T12:00:00Z,144,159,165,200,215,235,236,244,254,266,281,15,6,35,15,20,1,8,10,12,15,15,158,164,199,214,234,235,243,253,265,280,295
12,12,rosemount_mn,44.707,-93.101,1.5,2019-05-26,9,2019,mid1,956.1213446413664,11,2019-05-12,2019-05-26,123,2019-09-26,2019-10-12,2019-10-26,Harvested at Maturity.,4.873999886959791,6.695000156760216,4.40150001430884,3.8431817855347288,4.178888835323353,0.05000000074505806,1.8300000661984086,2.856666632617513,7.802666575089097,5.890000033192337,2.610000031317274,4.873999886959791,6.695000156760216,4.40150001430884,3.8431817855347288,4.178888835323353,0.05000000074505806,1.8300000661984086,2.856666632617513,7.802666575089097,5.890000033192337,2.610000031317274,19.285333188374835,19.821666876475017,20.803500032424928,21.690909255634654,20.15166669421726,20.40999984741211,18.85599989891052,13.821111096276177,13.116666825612386,9.781874924898148,9.203999996185303,18.042666467030845,21.493332862854004,24.761999988555907,26.785000107505105,25.583333651224773,22.8799991607666,21.970999908447265,22.175555759006077,24.20933354695638,17.36250001192093,10.412000052134196,12.433333182024459,15.619999686876932,19.822250032424925,22.006363673643634,20.793333450953167,17.824999809265137,16.891499996185303,17.290000120798748,19.338333447774254,12.289375018328428,5.486333342393239,6.823999897018075,9.746666510899862,14.882500076293946,17.22772723978216,16.00333325068156,12.770000457763672,11.81200008392334,12.404444482591417,14.467333348592122,7.216250024735928,0.5606666326522827,3.568050026590078,5.796691808228195,6.939184606196075,9.668092096711385,10.396414826439878,7.824999809265137,7.673094405462146,7.93004163877368,9.801016638890108,5.919049762145616,0.5763741943284869,3.568050026590078,5.796691808228195,6.939184606196075,9.668092096711385,10.396414826439878,7.824999809265137,7.673094405462146,7.93004163877368,9.801016638890108,5.919049762145616,0.5763741943284869,0,0,277.56738424784294,490.2654103754934,677.4008772514113,685.2258770606765,761.9568211152979,833.327195864261,980.3424454476126,1075.0472416419425,1075.0472416419425,0,0,0.8557875037193299,0.963022728399797,0.9482222292158339,0.7824999809265137,0.6891499996185303,0.7290000120798747,0.8365666770935059,0.2498437538743019,0,1,1,1,1,1,1,1,1,1,1,1,0.29653332074483235,0.5619999686876933,0.8557875037193299,0.963022728399797,0.9482222292158339,0.7824999809265137,0.6891499996185303,0.7290000120798747,0.8365666770935059,0.2498437538743019,0.01619999885559082,1,1,1,1,0.9999999999999999,1,1,1,1,0.9999999999999999,1,2019-05-12T12:00:00Z,2019-05-27T12:00:00Z,2019-06-02T12:00:00Z,2019-07-12T12:00:00Z,2019-08-03T12:00:00Z,2019-08-21T12:00:00Z,2019-08-22T12:00:00Z,2019-09-01T12:00:00Z,2019-09-10T12:00:00Z,2019-09-25T12:00:00Z,2019-10-11T12:00:00Z,2019-05-26T12:00:00Z,2019-06-01T12:00:00Z,2019-07-11T12:00:00Z,2019-08-02T12:00:00Z,2019-08-20T12:00:00Z,2019-08-21T12:00:00Z,2019-08-31T12:00:00Z,2019-09-09T12:00:00Z,2019-09-24T12:00:00Z,2019-10-10T12:00:00Z,2019-10-25T12:00:00Z,132,147,153,193,215,233,234,244,253,268,284,15,6,40,22,18,1,10,9,15,16,15,146,152,192,214,232,233,243,252,267,283,298
13,13,mead_ne,41.15785,-96.42075,1.5,2019-05-16,10,2019,mid1,820.5251997138101,11,2019-05-02,2019-05-16,98,2019-08-22,2019-08-30,2019-09-13,Harvested at Maturity.,4.087999911854665,8.50000001969082,5.300882341230617,0.9194117567556745,3.508750000502914,2.0899999141693115,0.8439999997615815,1.2559999767690897,5.13818192278797,3.4724999349564314,2.134000015879671,4.087999911854665,8.50000001969082,5.300882341230617,0.9194117567556745,3.508750000502914,2.0899999141693115,0.8439999997615815,1.2559999767690897,5.13818192278797,3.4724999349564314,2.134000015879671,21.12600015004476,15.697142737252372,22.314411878585815,25.051176632151886,23.547500014305115,15,18.049999809265138,22.299999618530272,18.776363719593395,15.801250159740448,16.874000040690103,20.04200013478597,19.547142710004536,25.86147050296559,29.643529330982883,29.87624990940094,24.290000915527344,28.86199951171875,31.586000061035158,29.208181901411578,26.0625,29.1939998626709,13.953666790326436,14.587142774036952,20.372058770235846,25.357058693380917,24.93124994635582,20.110000610351563,23.600999641418458,25.538000106811523,24.54363636537032,21.0506249666214,23.248999913533527,7.865333445866903,9.627142838069371,14.882647037506104,21.070588055778952,19.9862499833107,15.93000030517578,18.339999771118165,19.49000015258789,19.87909082932906,16.038749933242798,17.30399996439616,4.777661363860171,5.175416513990505,8.188741007756123,12.080982748092948,12.292528602198157,9.385578336340885,12.91193847575603,14.693853388209158,14.184183294867385,11.10585964802131,11.9667983462135,4.777661363860171,5.175416513990505,8.188741007756123,12.080982748092948,12.292528602198157,9.385578336340885,12.91193847575603,14.693853388209158,14.184183294867385,11.10585964802131,11.9667983462135,0,0,278.41719426370815,483.79390098128835,680.4743586164589,689.8599369527998,754.4196293315799,827.8888962726257,983.914912516167,1072.7617897003374,1072.7617897003374,0,0,0.913147058206446,1,0.9990312486886979,1,1,1,0.9928181778300892,0.9981875002384186,0.06666666666666667,1,1,1,1,1,1,1,1,1,1,1,0.3903333377838135,0.42928570338657923,0.913147058206446,1,0.9990312486886979,1,1,1,0.9928181778300892,0.9981875002384186,1,1,1,1,1,1,1,1,0.9999999999999999,0.9999999999999999,0.9999999999999999,1,2019-05-02T12:00:00Z,2019-05-17T12:00:00Z,2019-05-24T12:00:00Z,2019-06-27T12:00:00Z,2019-07-14T12:00:00Z,2019-07-30T12:00:00Z,2019-07-31T12:00:00Z,2019-08-05T12:00:00Z,2019-08-10T12:00:00Z,2019-08-21T12:00:00Z,2019-08-29T12:00:00Z,2019-05-16T12:00:00Z,2019-05-23T12:00:00Z,2019-06-26T12:00:00Z,2019-07-13T12:00:00Z,2019-07-29T12:00:00Z,2019-07-30T12:00:00Z,2019-08-04T12:00:00Z,2019-08-09T12:00:00Z,2019-08-20T12:00:00Z,2019-08-28T12:00:00Z,2019-09-12T12:00:00Z,122,137,144,178,195,211,212,217,222,233,241,15,7,34,17,16,1,5,5,11,8,15,136,143,177,194,210,211,216,221,232,240,255
14,14,phillips_ne,40.8473,-98.177,1.5,2019-05-18,11,2019,mid1,942.4716323505044,11,2019-05-04,2019-05-18,103,2019-08-29,2019-09-06,2019-09-20,Harvested at Maturity.,3.2453333627432586,10.951250173849985,5.67205876079114,2.763888935868939,3.7693750008475035,4.21999979019165,3.7799999333918093,6.685000053606927,6.276923083342039,1.2587499890942127,0.9339999963839849,3.2453333627432586,10.951250173849985,5.67205876079114,2.763888935868939,3.7693750008475035,4.21999979019165,3.7799999333918093,6.685000053606927,6.276923083342039,1.2587499890942127,0.9339999963839849,20.72533353169759,18.65750014781952,24.29382356475381,25.229444397820366,23.229374945163727,22.299999237060547,21.39000015258789,22.143333117167156,16.474615317124588,19.390000224113464,18.066666666666666,21.464666811625165,19.1912499666214,25.957352974835565,29.718333350287544,28.569374918937683,25.579999923706055,29.14600028991699,27.43666648864746,26.003846095158504,26.290000200271606,28.31266670227051,14.994666759173075,13.433125019073486,20.268970545600443,24.928333388434517,23.441874980926514,21.769999504089355,23.93799991607666,23.26083318392436,21.40769228568444,20.619375109672546,22.89699993133545,8.524666706720987,7.675000071525574,14.580588116365321,20.13833342658149,18.314375042915344,17.959999084472656,18.729999542236328,19.084999879201252,16.811538476210373,14.948750019073486,17.48133316040039,5.891076042872767,4.2534853904247285,8.092788238449042,11.90657261048768,11.75274547320296,11.32689048882586,13.719427019972752,13.260837549717227,11.389824146839288,10.676341668137164,11.866086427482765,5.891076042872767,4.2534853904247285,8.092788238449042,11.90657261048768,11.75274547320296,11.32689048882586,13.719427019972752,13.260837549717227,11.389824146839288,10.676341668137164,11.866086427482765,0,0,275.1548001072674,489.4731070960457,677.517034667293,688.8439251561189,757.4410602559826,837.006085554286,985.0737994631968,1070.484532808294,1070.484532808294,0,0,0.8770882354063146,1,0.9979375034570694,1,1,0.9897499958674113,0.9822692284217248,0.9253750085830689,0.06666666666666667,1,1,1,1,1,1,1,1,1,1,1,0.4938333368301392,0.37618750333786016,0.8770882354063146,1,0.9979375034570694,1,1,0.9897499958674113,0.9822692284217248,0.9253750085830689,0.9885999997456869,1,1,1,1,1,1,1,1,1,0.9999999999999999,1,2019-05-04T12:00:00Z,2019-05-19T12:00:00Z,2019-05-27T12:00:00Z,2019-06-30T12:00:00Z,2019-07-18T12:00:00Z,2019-08-03T12:00:00Z,2019-08-04T12:00:00Z,2019-08-09T12:00:00Z,2019-08-15T12:00:00Z,2019-08-28T12:00:00Z,2019-09-05T12:00:00Z,2019-05-18T12:00:00Z,2019-05-26T12:00:00Z,2019-06-29T12:00:00Z,2019-07-17T12:00:00Z,2019-08-02T12:00:00Z,2019-08-03T12:00:00Z,2019-08-08T12:00:00Z,2019-08-14T12:00:00Z,2019-08-27T12:00:00Z,2019-09-04T12:00:00Z,2019-09-19T12:00:00Z,124,139,147,181,199,215,216,221,227,240,248,15,8,34,18,16,1,5,6,13,8,15,138,146,180,198,214,215,220,226,239,247,262
15,15,palmyra_ont,42.4581,-81.7291,1.5,2019-06-19,12,2019,mid1,860.2371467405545,11,2019-06-05,2019-06-19,96,2019-09-23,2019-10-02,2019-10-16,Harvested at Maturity.,4.0066666624198355,3.1719999849796294,3.3159259549445577,1.8905555713507864,2.755714307938303,0.25999999046325684,2.04125000606291,5.070000012405217,3.521538476388042,2.4022222260634107,2.3240000310043496,4.0066666624198355,3.1719999849796294,3.3159259549445577,1.8905555713507864,2.755714307938303,0.25999999046325684,2.04125000606291,5.070000012405217,3.521538476388042,2.4022222260634107,2.3240000310043496,19.96133321126302,23.147999858856203,24.031481389646178,22.969444539811875,21.457142693655832,22.360000610351563,20.443750023841858,15.495000004768372,15.819999841543344,14.002222220102945,11.488666598002116,21.542666880289712,22.77400016784668,27.516666624281143,26.785555521647137,27.034999983651296,24.15999984741211,24.19374966621399,22.97125005722046,24.6499997652494,23.157777786254883,18.774000040690105,17.071000162760416,17.617000007629393,23.177036991825812,22.668055507871838,23.18785718509129,19.170000076293945,20.245624899864197,18.810624957084656,20.721538396982044,19.25722228156196,15.021333312988281,12.59933344523112,12.45999984741211,18.837407359370477,18.550555494096546,19.340714386531285,14.18000030517578,16.297500133514404,14.649999856948853,16.793077028714695,15.356666776869032,11.268666585286459,7.071000162760417,7.620073117531539,10.343055077222155,11.573831502657796,13.17430967919985,9.170000076293944,10.298250712031127,8.991020245622098,10.778335030353986,9.349825708253517,4.359519625299176,7.071000162760417,7.620073117531539,10.343055077222155,11.573831502657796,13.17430967919985,9.170000076293944,10.298250712031127,8.991020245622098,10.778335030353986,9.349825708253517,4.359519625299176,0,0,279.26248708499827,487.5914541328387,672.0317896416366,681.2017897179305,763.5877954141795,835.5159573791562,975.634312773758,1059.78274414804,1059.78274414804,0,0,0.9985925939348009,1,1,0.9170000076293946,0.9552500009536743,0.863937497138977,0.9601153813875638,0.861722215016683,0.06666666666666667,1,1,1,1,1,1,1,1,1,1,1,0.7052000109354656,0.7476000022888184,0.9985925939348009,1,1,0.9170000076293946,0.9552500009536743,0.863937497138977,0.9601153813875638,0.861722215016683,0.48463333447774254,1,1,0.9999999999999999,1,1,1,1,0.9999999999999999,1,1,1,2019-06-05T12:00:00Z,2019-06-20T12:00:00Z,2019-06-25T12:00:00Z,2019-07-22T12:00:00Z,2019-08-09T12:00:00Z,2019-08-23T12:00:00Z,2019-08-24T12:00:00Z,2019-09-01T12:00:00Z,2019-09-09T12:00:00Z,2019-09-22T12:00:00Z,2019-10-01T12:00:00Z,2019-06-19T12:00:00Z,2019-06-24T12:00:00Z,2019-07-21T12:00:00Z,2019-08-08T12:00:00Z,2019-08-22T12:00:00Z,2019-08-23T12:00:00Z,2019-08-31T12:00:00Z,2019-09-08T12:00:00Z,2019-09-21T12:00:00Z,2019-09-30T12:00:00Z,2019-10-15T12:00:00Z,156,171,176,203,221,235,236,244,252,265,274,15,5,27,18,14,1,8,8,13,9,15,170,175,202,220,234,235,243,251,264,273,288
16,16,stpauls_ont,43.32515,-81.1402,1.5,2019-06-09,13,2019,mid1,820.0810855061148,11,2019-05-26,2019-06-09,112,2019-09-29,2019-10-13,2019-10-27,Harvested at Maturity.,1.2980000088612238,2.9912500120699406,2.0096874997834675,1.2025000161491335,1.1900000116404366,1.2799999713897705,2.255000000819564,2.7455556111203303,1.7760000108430782,2.445714272159551,2.3026666760444643,1.2980000088612238,2.9912500120699406,2.0096874997834675,1.2025000161491335,1.1900000116404366,1.2799999713897705,2.255000000819564,2.7455556111203303,1.7760000108430782,2.445714272159551,2.3026666760444643,20.323999977111818,16.664999902248383,23.611875146627426,22.90699996948242,20.82941178714528,18.780000686645508,16.397499978542328,13.771111064487034,14.82666670481364,10.910714370863777,9.720000060399373,19.491999880472818,20.05875015258789,26.813437461853027,27.982000064849853,27.031764535342948,25.1299991607666,24.082499980926514,23.10888883802626,24.632666651407877,19.392857142857142,13.364000002543131,13.566666650772095,14.570000022649765,21.05109366774559,22.31475007534027,21.141764584709616,20.37999963760376,18.9806250333786,17.33222219679091,19.237999947865802,14.193928599357605,8.89533331990242,7.641333421071371,9.08124989271164,15.288749873638153,16.64750008583069,15.251764634076286,15.630000114440918,13.878750085830688,11.555555555555555,13.84333324432373,8.995000055858068,4.426666637261708,4.2006040537492435,4.74304082168974,8.331389294819461,10.952699954109486,11.101949345623828,10.379999637603762,9.284295180550219,8.304025199470255,9.56669150031805,6.612910107615803,1.0303045419645558,4.2006040537492435,4.74304082168974,8.331389294819461,10.952699954109486,11.101949345623828,10.379999637603762,9.284295180550219,8.304025199470255,9.56669150031805,6.612910107615803,1.0303045419645558,0,0,266.60445743422275,485.65845651641246,674.3915953920175,684.7715950296213,759.045956474023,833.7821832692553,977.282555774026,1069.8632972806474,1069.8632972806474,0,0,0.9305156230926513,0.991925003528595,0.9463235322166892,1,0.8763125061988831,0.7087222099304199,0.8710333283742269,0.4117857166699001,0,1,1,1,1,1,1,1,1,1,1,1,0.3666000000635783,0.4570000022649765,0.9305156230926513,0.991925003528595,0.9463235322166892,1,0.8763125061988831,0.7087222099304199,0.8710333283742269,0.4117857166699001,0.04823333263397217,1,1,1,0.9999999999999999,1,1,1,1,1,0.9999999999999999,1,2019-05-26T12:00:00Z,2019-06-10T12:00:00Z,2019-06-18T12:00:00Z,2019-07-20T12:00:00Z,2019-08-09T12:00:00Z,2019-08-26T12:00:00Z,2019-08-27T12:00:00Z,2019-09-04T12:00:00Z,2019-09-13T12:00:00Z,2019-09-28T12:00:00Z,2019-10-12T12:00:00Z,2019-06-09T12:00:00Z,2019-06-17T12:00:00Z,2019-07-19T12:00:00Z,2019-08-08T12:00:00Z,2019-08-25T12:00:00Z,2019-08-26T12:00:00Z,2019-09-03T12:00:00Z,2019-09-12T12:00:00Z,2019-09-27T12:00:00Z,2019-10-11T12:00:00Z,2019-10-26T12:00:00Z,146,161,169,201,221,238,239,247,256,271,285,15,8,32,20,17,1,8,9,15,14,15,160,168,200,220,237,238,246,255,270,284,299
17,17,woodstock_ont,43.14542,-80.78348,1.5,2019-06-12,8,2019,mid1,869.9395734697559,11,2019-05-29,2019-06-12,102,2019-09-22,2019-10-02,2019-10-16,Harvested at Maturity.,2.022666705151399,2.553333311652144,3.473333343677223,1.5588235356571043,2.8093333423137663,1.940000057220459,2.134285737893411,3.9862499684095383,3.161250001983717,3.4410000145435333,2.860666676859061,2.022666705151399,2.553333311652144,3.473333343677223,1.5588235356571043,2.8093333423137663,1.940000057220459,2.134285737893411,3.9862499684095383,3.161250001983717,3.4410000145435333,2.860666676859061,21.32199993133545,16.918333212534588,23.991666539510092,23.1623530107386,20.391333389282227,19.290000915527344,19.3328572000776,16.960000038146973,14.574375033378601,13.396000099182128,11.962666670481363,21.561999893188478,21.34500026702881,27.985333251953126,28.577646928675033,28.106666564941406,29.700000762939453,25.5771427154541,24.53249979019165,23.93624985218048,23.257000160217284,17.886666552225748,15.552333243687947,16.232500076293945,22.38266657193502,23.43294121237362,22.943666585286458,24.010000228881836,20.516428470611572,19.331874787807465,18.74062493443489,18.500000095367433,13.220999972025554,9.542666594187418,11.119999885559082,16.779999891916912,18.288235496072208,17.78066660563151,18.31999969482422,15.455714225769043,14.131249785423279,13.5450000166893,13.743000030517578,8.555333391825359,5.846681333881021,6.242877597199878,9.32122128064272,11.69276804752467,12.74697555901373,14.010000228881838,10.634662167276655,9.549111030112208,9.082152227995918,9.01817494148016,3.0453970818485816,5.846681333881021,6.242877597199878,9.32122128064272,11.69276804752467,12.74697555901373,14.010000228881838,10.634662167276655,9.549111030112208,9.082152227995918,9.01817494148016,3.0453970818485816,0,0,279.63663841928155,478.4136952272008,669.6183286124067,683.6283288412885,758.070964012225,834.4638522531227,979.7782879010574,1069.960037315859,1069.960037315859,0,0,0.9710833342870077,0.9983529399423038,0.9976333300272624,1,0.9434999942779542,0.9077499747276306,0.8434999912977219,0.7859500074386597,0.06666666666666667,1,1,1,1,1,1,1,1,1,1,1,0.5576333252588909,0.6232500076293945,0.9710833342870077,0.9983529399423038,0.9976333300272624,1,0.9434999942779542,0.9077499747276306,0.8434999912977219,0.7859500074386597,0.3209999990463257,1,1,1,1,1,1,0.9999999999999999,1,1,1,1,2019-05-29T12:00:00Z,2019-06-13T12:00:00Z,2019-06-19T12:00:00Z,2019-07-19T12:00:00Z,2019-08-05T12:00:00Z,2019-08-20T12:00:00Z,2019-08-21T12:00:00Z,2019-08-28T12:00:00Z,2019-09-05T12:00:00Z,2019-09-21T12:00:00Z,2019-10-01T12:00:00Z,2019-06-12T12:00:00Z,2019-06-18T12:00:00Z,2019-07-18T12:00:00Z,2019-08-04T12:00:00Z,2019-08-19T12:00:00Z,2019-08-20T12:00:00Z,2019-08-27T12:00:00Z,2019-09-04T12:00:00Z,2019-09-20T12:00:00Z,2019-09-30T12:00:00Z,2019-10-15T12:00:00Z,149,164,170,200,217,232,233,240,248,264,274,15,6,30,17,15,1,7,8,16,10,15,163,169,199,216,231,232,239,247,263,273,288
18,18,sthyacinthe_que,45.5932,-72.9316,1.5,2019-06-01,14,2019,mid1,820.6857176036191,11,2019-05-18,2019-06-01,134,2019-10-13,2019-10-31,2019-11-14,Harvested at Maturity.,2.880666704600056,1.5562499891966581,2.9174999743700027,2.1430000020191073,2.7580000129528344,NA,5.149090945720673,1.2245454386892645,4.3145454017953435,5.317222267596258,5.751333254079024,2.880666704600056,1.5562499891966581,2.9174999743700027,2.1430000020191073,2.7580000129528344,NA,5.149090945720673,1.2245454386892645,4.3145454017953435,5.317222267596258,5.751333254079024,17.085999997456867,22.911250233650208,21.857750034332277,21.951499891281127,18.514499855041503,NA,15.925454486500133,15.266363577409225,10.658181819048794,8.388888849152458,5.52599999109904,18.314666684468587,19.863749980926514,25.03324990272522,27.749999809265137,25.325,NA,22.064545544711027,20.75545415011319,18.17863637750799,13.2933333184984,4.6513333290815355,12.995000036557515,14.284375041723251,19.86924990415573,22.42499988079071,19.896000027656555,NA,16.760000012137674,14.38999984481118,12.872045494616032,8.879722207784653,1.4923333069930473,7.675333388646444,8.705000102519989,14.705249905586243,17.099999952316285,14.467000055313111,NA,11.45545447956432,8.024545539509166,7.565454611724073,4.466111097070906,-1.6666667150954406,3.6315445567061504,4.729662699657679,6.857808313118434,10.447003797583413,9.795965949018523,NA,7.744291908082637,6.789166431822831,6.391549141801691,5.046839829298357,0.25083134361977383,3.6315445567061504,4.729662699657679,6.857808313118434,10.447003797583413,9.795965949018523,NA,7.744291908082637,6.789166431822831,6.391549141801691,5.046839829298357,0.25083134361977383,0,0,274.3123325247373,483.2524084764055,679.1717274567759,NA,764.3589384456848,839.0397691957357,979.6538503153728,1070.4969672427428,1070.4969672427428,0,0,0.8788749969005585,0.9730499982833862,0.9138499999046326,NA,0.6729090950705788,0.438999984481118,0.3289090936834162,0.0383333338631524,0.02309999783833822,1,1,1,1,1,NA,1,1,1,1,1,0.3025000055631002,0.42931250631809237,0.8788749969005585,0.9730499982833862,0.9138499999046326,NA,0.6729090950705788,0.438999984481118,0.3289090936834162,0.0383333338631524,0.04403333028157553,1,1,1,0.9999999999999999,1,NA,1,1,0.9999999999999999,0.9999999999999999,1,2019-05-18T12:00:00Z,2019-06-02T12:00:00Z,2019-06-10T12:00:00Z,2019-07-20T12:00:00Z,2019-08-09T12:00:00Z,NA,2019-08-29T12:00:00Z,2019-09-09T12:00:00Z,2019-09-20T12:00:00Z,2019-10-12T12:00:00Z,2019-10-30T12:00:00Z,2019-06-01T12:00:00Z,2019-06-09T12:00:00Z,2019-07-19T12:00:00Z,2019-08-08T12:00:00Z,2019-08-28T12:00:00Z,NA,2019-09-08T12:00:00Z,2019-09-19T12:00:00Z,2019-10-11T12:00:00Z,2019-10-29T12:00:00Z,2019-11-13T12:00:00Z,138,153,161,201,221,NA,241,252,263,285,303,15,8,40,20,20,0,11,11,22,18,15,152,160,200,220,240,NA,251,262,284,302,317
19,19,ames_ia,42.0215,-93.7745,1.5,2019-05-23,15,2019,mid1,937.3752197548804,11,2019-05-09,2019-05-23,103,2019-09-03,2019-09-11,2019-09-25,Harvested at Maturity.,5.308666642258564,12.807500364724547,3.623428569308349,3.0827777518166437,1.5782352873288534,1.1799999475479126,1.9616666932900748,4.019999930635095,2.892142930733306,2.7587500624358654,5.842666678999861,5.308666642258564,12.807500364724547,3.623428569308349,3.0827777518166437,1.5782352873288534,1.1799999475479126,1.9616666932900748,4.019999930635095,2.892142930733306,2.7587500624358654,5.842666678999861,18.371333249409993,23.514999866485596,20.257142816271102,23.164999855889214,22.65294091841754,26.790000915527344,19.019999821980793,18.701666831970215,18.87785714013236,14.733749747276306,13.144000085194905,18.634000078837076,25.03749990463257,25.370857184273856,28.728888829549152,27.26588237986845,27.739999771118164,27.44000021616618,26.391666730244953,25.064285687037877,26.47124981880188,27.410666783650715,13.220000060399373,18.914999961853027,20.45714291163853,24.621111128065323,22.360294117647058,23.40499973297119,22.641666571299233,21.823333183924355,19.883214337485178,20.83437490463257,22.684666665395103,7.80600004196167,12.792500019073486,15.543428639003208,20.51333342658149,17.454705855425665,19.06999969482422,17.843332926432293,17.25499963760376,14.702142987932477,15.197499990463257,17.958666547139487,4.2714017226966225,8.914999961853027,7.9823824251447455,11.614452599983506,11.105244335238895,12.978682574885678,12.55318532100612,11.823333183924357,10.007611803736005,10.950382897927613,11.7402768695728,4.2714017226966225,8.914999961853027,7.9823824251447455,11.614452599983506,11.105244335238895,12.978682574885678,12.55318532100612,11.823333183924357,10.007611803736005,10.950382897927613,11.7402768695728,0,0,279.3833848800661,488.4435316797692,677.2326853788304,690.211367953716,765.5304798797528,836.4704789832989,976.577044235603,1064.180107419024,1064.180107419024,0,0,0.8926142828805106,1,0.9866176436929142,1,1,1,0.9277857235499791,0.9557499945163727,0.06666666666666667,1,1,1,1,1,1,1,1,1,1,1,0.3420333321889242,0.8914999961853027,0.8926142828805106,1,0.9866176436929142,1,1,1,0.9277857235499791,0.9557499945163727,0.9573333326975505,1,1,1,1,0.9999999999999999,1,1,1,0.9999999999999999,1,1,2019-05-09T12:00:00Z,2019-05-24T12:00:00Z,2019-05-28T12:00:00Z,2019-07-02T12:00:00Z,2019-07-20T12:00:00Z,2019-08-06T12:00:00Z,2019-08-07T12:00:00Z,2019-08-13T12:00:00Z,2019-08-19T12:00:00Z,2019-09-02T12:00:00Z,2019-09-10T12:00:00Z,2019-05-23T12:00:00Z,2019-05-27T12:00:00Z,2019-07-01T12:00:00Z,2019-07-19T12:00:00Z,2019-08-05T12:00:00Z,2019-08-06T12:00:00Z,2019-08-12T12:00:00Z,2019-08-18T12:00:00Z,2019-09-01T12:00:00Z,2019-09-09T12:00:00Z,2019-09-24T12:00:00Z,129,144,148,183,201,218,219,225,231,245,253,15,4,35,18,17,1,6,6,14,8,15,143,147,182,200,217,218,224,230,244,252,267
20,20,eastlansing_mi,42.6296,-84.4375,1.5,2019-05-29,16,2019,mid1,886.3776897881328,11,2019-05-15,2019-05-29,112,2019-09-18,2019-09-26,2019-10-10,Harvested at Maturity.,3.9320000325640043,5.729999863232176,3.7873683914934335,2.1638095669803166,1.57312500779517,NA,0.9942857237266642,3.652500061551109,3.4057142630751644,2.183750017778948,6.418666721011202,3.9320000325640043,5.729999863232176,3.7873683914934335,2.1638095669803166,1.57312500779517,NA,0.9942857237266642,3.652500061551109,3.4057142630751644,2.183750017778948,6.418666721011202,16.886666615804035,21.486666202545166,22.01631582410712,22.6633334841047,20.589375138282776,NA,20.238571439470565,17.167500138282776,13.294285672051567,15.951249718666077,10.842000118891399,21.202000109354653,21.85499986012777,25.0960525211535,27.09904752458845,27.694374918937683,NA,26.952857153756277,25.429999828338623,24.963571412222727,26.923750162124634,20.73533363342285,15.452666711807252,15.37666666507721,19.63539467359844,22.138333138965425,22.04218754172325,NA,20.970714364733016,19.598124980926514,19.562142814908707,20.59312504529953,15.464333438873291,9.703333314259847,8.898333470026651,14.17473682604338,17.1776187533424,16.39000016450882,NA,14.988571575709752,13.766250133514404,14.160714217594691,14.262499928474426,10.19333324432373,5.762078175327381,5.818749476035436,7.275283545867527,10.335966785247173,11.825465719425473,NA,11.330176997384003,9.898082431294025,9.87604151070927,10.855261739613114,5.211606953431367,5.762078175327381,5.818749476035436,7.275283545867527,10.335966785247173,11.825465719425473,NA,11.330176997384003,9.898082431294025,9.87604151070927,10.855261739613114,5.211606953431367,0,0,276.46077474296607,493.5160772331567,682.7235287439643,NA,762.0347677256523,841.2194271760044,979.4840083259342,1066.3261022428392,1066.3261022428392,0,0,0.8338157879678827,0.9675952389126732,0.9939375013113022,NA,0.9082857200077602,0.9055624961853028,0.8854642868041993,0.9310625076293946,0.062466669082641604,1,1,1,1,1,NA,1,1,1,1,1,0.5502000045776367,0.537666666507721,0.8338157879678827,0.9675952389126732,0.9939375013113022,NA,0.9082857200077602,0.9055624961853028,0.8854642868041993,0.9310625076293946,0.5200000111262004,1,1,1,1,0.9999999999999999,NA,0.9999999999999999,1,1,1,1,2019-05-15T12:00:00Z,2019-05-30T12:00:00Z,2019-06-05T12:00:00Z,2019-07-13T12:00:00Z,2019-08-03T12:00:00Z,NA,2019-08-19T12:00:00Z,2019-08-26T12:00:00Z,2019-09-03T12:00:00Z,2019-09-17T12:00:00Z,2019-09-25T12:00:00Z,2019-05-29T12:00:00Z,2019-06-04T12:00:00Z,2019-07-12T12:00:00Z,2019-08-02T12:00:00Z,2019-08-18T12:00:00Z,NA,2019-08-25T12:00:00Z,2019-09-02T12:00:00Z,2019-09-16T12:00:00Z,2019-09-24T12:00:00Z,2019-10-09T12:00:00Z,135,150,156,194,215,NA,231,238,246,260,268,15,6,38,21,16,0,7,8,14,8,15,149,155,193,214,230,NA,237,245,259,267,282
21,21,woodstock_ont,43.14542,-80.78348,1.5,2019-06-14,8,2019,mid1,851.8957105139568,11,2019-05-31,2019-06-14,100,2019-09-22,2019-10-02,2019-10-16,Harvested at Maturity.,2.5453333750367166,1.2919999651610852,3.5900000105772554,1.4766666724657018,2.933333346247673,NA,2.1587500111199915,3.7924999743700027,3.3200000040233135,3.4410000145435333,2.860666676859061,2.5453333750367166,1.2919999651610852,3.5900000105772554,1.4766666724657018,2.933333346247673,NA,2.1587500111199915,3.7924999743700027,3.3200000040233135,3.4410000145435333,2.860666676859061,22.17999986012777,17.379999923706055,24.052068841868433,23.092777834998238,20.216666793823244,NA,19.626250088214874,17.151249885559082,13.998666763305664,13.396000099182128,11.962666670481363,21.467333221435545,22.852000427246093,28.055861966363317,28.683888753255207,28.05399996439616,NA,25.66249990463257,24.244999647140503,23.93466657002767,23.257000160217284,17.886666552225748,15.472333256403605,17.84700002670288,22.42758611152912,23.506666713290745,22.893666585286457,NA,20.623749911785126,18.758124709129333,18.870999972025555,18.500000095367433,13.220999972025554,9.477333291371663,12.841999626159668,16.799310256694927,18.32944467332628,17.73333320617676,NA,15.584999918937683,13.271249771118164,13.807333374023438,13.743000030517578,8.555333391825359,5.770832354959051,7.847000026702882,9.365941574269742,11.813477685377586,12.756606139014039,NA,10.727204396367073,9.147578744172305,9.143446262363593,9.01817494148016,3.0453970818485816,5.770832354959051,7.847000026702882,9.365941574269742,11.813477685377586,12.756606139014039,NA,10.727204396367073,9.147578744172305,9.143446262363593,9.01817494148016,3.0453970818485816,0,0,271.6123056538225,484.25490399061897,675.6039960758294,NA,761.4216312467659,834.6022612001443,971.7539551355984,1061.9357045503996,1061.9357045503996,0,0,0.9700862078831114,0.9984444432788425,0.9976333300272624,NA,0.9505624949932099,0.8675624668598175,0.854499994913737,0.7859500074386597,0.06666666666666667,1,1,1,1,1,NA,1,1,1,1,1,0.5496333265304566,0.763100004196167,0.9700862078831114,0.9984444432788425,0.9976333300272624,NA,0.9505624949932099,0.8675624668598175,0.854499994913737,0.7859500074386597,0.3209999990463257,1,1,1,0.9999999999999999,1,NA,1,1,1,0.9999999999999999,1,2019-05-31T12:00:00Z,2019-06-15T12:00:00Z,2019-06-20T12:00:00Z,2019-07-19T12:00:00Z,2019-08-06T12:00:00Z,NA,2019-08-21T12:00:00Z,2019-08-29T12:00:00Z,2019-09-06T12:00:00Z,2019-09-21T12:00:00Z,2019-10-01T12:00:00Z,2019-06-14T12:00:00Z,2019-06-19T12:00:00Z,2019-07-18T12:00:00Z,2019-08-05T12:00:00Z,2019-08-20T12:00:00Z,NA,2019-08-28T12:00:00Z,2019-09-05T12:00:00Z,2019-09-20T12:00:00Z,2019-09-30T12:00:00Z,2019-10-15T12:00:00Z,151,166,171,200,218,NA,233,241,249,264,274,15,5,29,18,15,0,8,8,15,10,15,165,170,199,217,232,NA,240,248,263,273,288
22,22,ames_ia,42.0215,-93.7745,2.5,2019-05-23,15,2019,mid2,1038.1442251070707,11,2019-05-09,2019-05-23,115,2019-09-15,2019-09-20,2019-10-04,Harvested at Maturity.,5.308666642258564,12.807500364724547,3.7294117625364485,2.697599970027804,1.0781250081490725,NA,4.339999965857714,4.520000119693577,3.12944449732701,2.6379999931901694,7.349333384260535,5.308666642258564,12.807500364724547,3.7294117625364485,2.697599970027804,1.0781250081490725,NA,4.339999965857714,4.520000119693577,3.12944449732701,2.6379999931901694,7.349333384260535,18.371333249409993,23.514999866485596,20.213529376422656,22.642399787902832,23.766249895095825,NA,16.326250076293945,18.43874990940094,15.931111070844862,13.51200008392334,10.895333242416381,18.634000078837076,25.03749990463257,25.225588293636548,28.309199981689453,27.595625042915344,NA,26.552500009536743,25.012499809265137,25.976666662428116,29.22400016784668,23.940000089009605,13.220000060399373,18.914999961853027,20.290147136239444,23.972200012207033,22.623124957084656,NA,22.29499977827072,20.288749933242798,20.65249999364217,23.789000034332275,19.013000027338663,7.80600004196167,12.792500019073486,15.354705978842343,19.63520004272461,17.650624871253967,NA,18.0374995470047,15.565000057220459,15.328333324856228,18.353999900817872,14.085999965667725,4.2714017226966225,8.914999961853027,6.84425741977932,9.986986965661606,11.003851549211747,NA,12.06551786325922,10.32735430998802,10.79316480184628,13.822784915847778,8.096846951148112,4.2714017226966225,8.914999961853027,6.84425741977932,9.986986965661606,11.003851549211747,NA,12.06551786325922,10.32735430998802,10.79316480184628,13.822784915847778,8.096846951148112,0,0,232.7047522724968,482.3794264140369,658.4410512014251,NA,754.965194107499,837.5840285874032,1031.8609950206362,1100.9749195998752,1100.9749195998752,0,0,0.8894558794358197,0.9952799987792968,0.99315624833107,NA,1,0.9507500052452088,0.9334722227520413,0.9996000003814698,0.06666666666666667,1,1,1,1,1,NA,1,1,1,1,1,0.3420333321889242,0.8914999961853027,0.8894558794358197,0.9952799987792968,0.99315624833107,NA,1,0.9507500052452088,0.9334722227520413,0.9996000003814698,0.7559666681289673,1,1,1,0.9999999999999999,1,NA,1,0.9999999999999999,1,0.9999999999999999,1,2019-05-09T12:00:00Z,2019-05-24T12:00:00Z,2019-05-28T12:00:00Z,2019-07-01T12:00:00Z,2019-07-26T12:00:00Z,NA,2019-08-11T12:00:00Z,2019-08-19T12:00:00Z,2019-08-27T12:00:00Z,2019-09-14T12:00:00Z,2019-09-19T12:00:00Z,2019-05-23T12:00:00Z,2019-05-27T12:00:00Z,2019-06-30T12:00:00Z,2019-07-25T12:00:00Z,2019-08-10T12:00:00Z,NA,2019-08-18T12:00:00Z,2019-08-26T12:00:00Z,2019-09-13T12:00:00Z,2019-09-18T12:00:00Z,2019-10-03T12:00:00Z,129,144,148,182,207,NA,223,231,239,257,262,15,4,34,25,16,0,8,8,18,5,15,143,147,181,206,222,NA,230,238,256,261,276
23,23,urbana_il,40.05325,-88.23485,2.5,2019-06-05,17,2019,mid2,897.1594778424324,11,2019-05-22,2019-06-05,99,2019-09-12,2019-09-17,2019-10-01,Harvested at Maturity.,5.084666672597328,0.18666666684051356,5.347857183843319,0.8731818120418624,1.134285737760365,23.229999542236328,2.866666669336458,4.81857141000884,2.0250000404193997,1.2079999960958958,3.963999929279089,5.084666672597328,0.18666666684051356,5.347857183843319,0.8731818120418624,1.134285737760365,23.229999542236328,2.866666669336458,4.81857141000884,2.0250000404193997,1.2079999960958958,3.963999929279089,21.568666712443033,25.016667048136394,20.871428608894348,24.442272793162953,23.80142859050206,9.390000343322754,17.71999979019165,18.885713985988072,17.08062517642975,16.586000061035158,14.853999805450439,26.632000096638997,26.246666590372723,26.74642869404384,28.94636379588734,28.62357153211321,27.6200008392334,28.179999669392906,27.41857147216797,27.1837500333786,30.921999740600587,28.74866689046224,21.727666695912678,21.328333218892414,22.210535764694214,23.9936363697052,23.00357140813555,24.80500030517578,24.361666520436604,22.80357149669102,21.52593758702278,24.469999980926513,22.949333572387694,16.823333295186362,16.40999984741211,17.67464283534459,19.04090894352306,17.383571284157888,21.989999771118164,20.543333371480305,18.188571521214076,15.868125140666962,18.018000221252443,17.150000254313152,11.72766669591268,11.328333218892416,8.681438964092152,10.95575356083441,12.00722366251627,14.66331606067155,14.361141801719466,12.673131542319059,11.572527076203375,14.085177136529683,11.855605350478887,11.72766669591268,11.328333218892416,8.681438964092152,10.95575356083441,12.00722366251627,14.66331606067155,14.361141801719466,12.673131542319059,11.572527076203375,14.085177136529683,11.855605350478887,0,0,243.08029099458025,484.10686933293726,652.208000608165,666.8713166688366,753.0381674791533,841.7500882753867,1026.9105214946408,1097.3364071772892,1097.3364071772892,0,0,0.9461428574153355,0.9973863623358987,1,1,1,0.9752142838069371,0.9821875005960464,1,0.06666666666666667,1,1,1,1,1,1,1,1,1,1,1,0.9825666681925456,0.993999989827474,0.9461428574153355,0.9973863623358987,1,1,1,0.9752142838069371,0.9821875005960464,1,0.9874000040690104,1,1,1,1,0.9999999999999999,0.9999999999999998,1,0.9999999999999999,1,0.9999999999999999,1,2019-05-22T12:00:00Z,2019-06-06T12:00:00Z,2019-06-09T12:00:00Z,2019-07-07T12:00:00Z,2019-07-29T12:00:00Z,2019-08-12T12:00:00Z,2019-08-13T12:00:00Z,2019-08-19T12:00:00Z,2019-08-26T12:00:00Z,2019-09-11T12:00:00Z,2019-09-16T12:00:00Z,2019-06-05T12:00:00Z,2019-06-08T12:00:00Z,2019-07-06T12:00:00Z,2019-07-28T12:00:00Z,2019-08-11T12:00:00Z,2019-08-12T12:00:00Z,2019-08-18T12:00:00Z,2019-08-25T12:00:00Z,2019-09-10T12:00:00Z,2019-09-15T12:00:00Z,2019-09-30T12:00:00Z,142,157,160,188,210,224,225,231,238,254,259,15,3,28,22,14,1,6,7,16,5,15,156,159,187,209,223,224,230,237,253,258,273
24,24,eastlansing_mi,42.6296,-84.4375,2.5,2019-05-29,16,2019,mid2,992.7222121983448,11,2019-05-15,2019-05-29,124,2019-09-30,2019-10-10,2019-10-24,Harvested at Maturity.,3.9320000325640043,5.729999863232176,3.7873683914934335,2.086400038152933,1.692000009616216,0.02999999932944774,2.896666725683543,0.8877777844253514,4.849999973452405,6.444000104628503,2.439999970421195,3.9320000325640043,5.729999863232176,3.7873683914934335,2.086400038152933,1.692000009616216,0.02999999932944774,2.896666725683543,0.8877777844253514,4.849999973452405,6.444000104628503,2.439999970421195,16.886666615804035,21.486666202545166,22.01631582410712,22.527600135803223,19.77333335876465,22.670000076293945,19.36000018649631,13.547777864668104,13.847894593289023,10.257000184059143,10.410000101725261,21.202000109354653,21.85499986012777,25.0960525211535,27.16839988708496,28.126666641235353,25.110000610351563,25.203333112928604,24.441111034817165,25.555263318513568,20.14500026702881,15.073999977111816,15.452666711807252,15.37666666507721,19.63539467359844,22.161999816894532,22.449666754404703,19.36500024795532,19.006111092037624,18.613888846503365,19.972631630144623,14.99000005722046,9.613000013430913,9.703333314259847,8.898333470026651,14.17473682604338,17.1555997467041,16.772666867574056,13.619999885559082,12.808889071146647,12.786666658189562,14.389999941775674,9.83499984741211,4.1520000497500105,5.762078175327381,5.818749476035436,6.3084018459478255,9.560290606241093,12.054895824146655,9.365000247955322,9.521654383665986,9.079955440867609,10.266507089483424,7.208855710228979,1.4657197211449593,5.762078175327381,5.818749476035436,6.3084018459478255,9.560290606241093,12.054895824146655,9.365000247955322,9.521654383665986,9.079955440867609,10.266507089483424,7.208855710228979,1.4657197211449593,0,0,239.71927014601735,478.7265353020447,659.5499726642445,668.9149729121998,754.6098623651936,836.3294613330021,1031.3930960331872,1103.4816531354768,1103.4816531354768,0,0,0.8338157879678827,0.9727800006866455,0.9935333347320556,0.9365000247955324,0.8650555504692926,0.8383333365122477,0.8960526391079552,0.4593500065803528,0.02413333574930827,1,1,1,1,1,1,1,1,1,1,1,0.5502000045776367,0.537666666507721,0.8338157879678827,0.9727800006866455,0.9935333347320556,0.9365000247955324,0.8650555504692926,0.8383333365122477,0.8960526391079552,0.4593500065803528,0.10390000025431316,1,1,1,1,0.9999999999999999,1,1,1,1,0.9999999999999999,1,2019-05-15T12:00:00Z,2019-05-30T12:00:00Z,2019-06-05T12:00:00Z,2019-07-13T12:00:00Z,2019-08-07T12:00:00Z,2019-08-22T12:00:00Z,2019-08-23T12:00:00Z,2019-09-01T12:00:00Z,2019-09-10T12:00:00Z,2019-09-29T12:00:00Z,2019-10-09T12:00:00Z,2019-05-29T12:00:00Z,2019-06-04T12:00:00Z,2019-07-12T12:00:00Z,2019-08-06T12:00:00Z,2019-08-21T12:00:00Z,2019-08-22T12:00:00Z,2019-08-31T12:00:00Z,2019-09-09T12:00:00Z,2019-09-28T12:00:00Z,2019-10-08T12:00:00Z,2019-10-23T12:00:00Z,135,150,156,194,219,234,235,244,253,272,282,15,6,38,25,15,1,9,9,19,10,15,149,155,193,218,233,234,243,252,271,281,296
25,25,mead_ne,41.15785,-96.42075,2.5,2019-05-16,10,2019,mid2,1000.18890662896,11,2019-05-02,2019-05-16,110,2019-09-03,2019-09-08,2019-09-22,Harvested at Maturity.,4.087999911854665,8.50000001969082,5.288787872502298,1.362173898226541,3.278124995995313,NA,1.832857153511473,7.32000017631799,2.4956249702954665,0.001999999955296516,3.608666660139958,4.087999911854665,8.50000001969082,5.288787872502298,1.362173898226541,3.278124995995313,NA,1.832857153511473,7.32000017631799,2.4956249702954665,0.001999999955296516,3.608666660139958,21.12600015004476,15.697142737252372,22.404848604491264,25.24869570524796,20.073125064373016,NA,21.721428189958846,18.925000031789143,17.30625006556511,19.626000022888185,15.794000244140625,20.04200013478597,19.547142710004536,25.767575697465375,30.155217212179434,28.457499980926514,NA,31.37000002179827,27.828333536783855,27.68624985218048,30.98599967956543,30.201333236694335,13.953666790326436,14.587142774036952,20.251060558087897,25.739130268926207,23.51156249642372,NA,25.459285736083984,23.550000111262,22.386249870061874,23.826999759674074,24.70033334096273,7.865333445866903,9.627142838069371,14.73454541871042,21.32304332567298,18.56562501192093,NA,19.5485714503697,19.271666685740154,17.086249887943268,16.667999839782716,19.19933344523112,4.777661363860171,5.175416513990505,7.135824039379041,10.925827763223941,10.89509903114465,NA,13.847744533147306,13.320610198230549,12.1145081832245,13.171002791004181,13.34283016762336,4.777661363860171,5.175416513990505,7.135824039379041,10.925827763223941,10.89509903114465,NA,13.847744533147306,13.320610198230549,12.1145081832245,13.171002791004181,13.34283016762336,0,0,235.4821932995083,486.7762318536589,661.0978163519732,NA,758.0320280840042,837.9556892733875,1031.7878202049794,1097.6428341600006,1097.6428341600006,0,0,0.9105151508793686,1,0.9990312486886979,NA,1,0.9868333260218303,0.9990937501192093,1,0.06666666666666667,1,1,1,1,1,NA,1,1,1,1,1,0.3903333377838135,0.42928570338657923,0.9105151508793686,1,0.9990312486886979,NA,1,0.9868333260218303,0.9990937501192093,1,0.9995333353678385,1,1,1,0.9999999999999999,0.9999999999999999,NA,0.9999999999999999,1,0.9999999999999999,0.9999999999999999,1,2019-05-02T12:00:00Z,2019-05-17T12:00:00Z,2019-05-24T12:00:00Z,2019-06-26T12:00:00Z,2019-07-19T12:00:00Z,NA,2019-08-04T12:00:00Z,2019-08-11T12:00:00Z,2019-08-17T12:00:00Z,2019-09-02T12:00:00Z,2019-09-07T12:00:00Z,2019-05-16T12:00:00Z,2019-05-23T12:00:00Z,2019-06-25T12:00:00Z,2019-07-18T12:00:00Z,2019-08-03T12:00:00Z,NA,2019-08-10T12:00:00Z,2019-08-16T12:00:00Z,2019-09-01T12:00:00Z,2019-09-06T12:00:00Z,2019-09-21T12:00:00Z,122,137,144,177,200,NA,216,223,229,245,250,15,7,33,23,16,0,7,6,16,5,15,136,143,176,199,215,NA,222,228,244,249,264
26,26,phillips_ne,40.8473,-98.177,2.5,2019-05-18,11,2019,mid2,1099.0143088174384,11,2019-05-04,2019-05-18,114,2019-09-09,2019-09-15,2019-09-29,Harvested at Maturity.,3.2453333627432586,10.951250173849985,5.67205876079114,4.191739177331328,1.8726666253060102,8.40999984741211,5.768571476052914,6.097142858164651,2.996470590943799,1.7949999884391825,1.7813333090394736,3.2453333627432586,10.951250173849985,5.67205876079114,4.191739177331328,1.8726666253060102,8.40999984741211,5.768571476052914,6.097142858164651,2.996470590943799,1.7949999884391825,1.7813333090394736,20.72533353169759,18.65750014781952,24.29382356475381,25.190434663192086,22.35333334604899,19.5,21.961428506033762,20.398571286882675,16.238235361435834,17.703333218892414,17.64933350880941,21.464666811625165,19.1912499666214,25.957352974835565,29.634782625281293,28.331333287556966,29.190000534057617,27.45857129778181,27.235714231218612,25.975882474113913,26.914999961853027,26.942000071207683,14.994666759173075,13.433125019073486,20.268970545600443,24.825217433597732,23.11733325322469,24.100000381469727,23.280714103153773,22.422142914363317,20.72500004487879,21.829999923706055,21.292666657765707,8.524666706720987,7.675000071525574,14.580588116365321,20.015652241914168,17.903333218892417,19.010000228881836,19.10285690852574,17.60857159750802,15.474117615643669,16.744999885559082,15.643333244323731,5.891076042872767,4.2534853904247285,7.133343112056996,10.541353754054171,11.323670739557583,13.145048080968856,12.860972765761465,12.33464615784032,10.712658970160696,11.970035036435725,10.34693883551836,5.891076042872767,4.2534853904247285,7.133343112056996,10.541353754054171,11.323670739557583,13.145048080968856,12.860972765761465,12.33464615784032,10.712658970160696,11.970035036435725,10.34693883551836,0,0,242.53366580993784,484.98480215318375,654.8398632465475,667.9849113275163,758.0117206878466,844.3542437927289,1026.469446285461,1098.289656504075,1098.289656504075,0,0,0.8770882354063146,0.9985652197962221,1,1,0.9912142821720669,0.9998571395874023,0.9506764748517206,0.9734999974568685,0.06666666666666667,1,1,1,1,1,1,1,1,1,1,1,0.4938333368301392,0.37618750333786016,0.8770882354063146,0.9985652197962221,1,1,0.9912142821720669,0.9998571395874023,0.9506764748517206,0.9734999974568685,0.8919333362579346,1,1,1,1,0.9999999999999999,1,1,0.9999999999999999,0.9999999999999999,0.9999999999999999,1,2019-05-04T12:00:00Z,2019-05-19T12:00:00Z,2019-05-27T12:00:00Z,2019-06-30T12:00:00Z,2019-07-23T12:00:00Z,2019-08-07T12:00:00Z,2019-08-08T12:00:00Z,2019-08-15T12:00:00Z,2019-08-22T12:00:00Z,2019-09-08T12:00:00Z,2019-09-14T12:00:00Z,2019-05-18T12:00:00Z,2019-05-26T12:00:00Z,2019-06-29T12:00:00Z,2019-07-22T12:00:00Z,2019-08-06T12:00:00Z,2019-08-07T12:00:00Z,2019-08-14T12:00:00Z,2019-08-21T12:00:00Z,2019-09-07T12:00:00Z,2019-09-13T12:00:00Z,2019-09-28T12:00:00Z,124,139,147,181,204,219,220,227,234,251,257,15,8,34,23,15,1,7,7,17,6,15,138,146,180,203,218,219,226,233,250,256,271
27,27,chatham_ont,42.38,-82.2524,2.5,2019-06-24,18,2019,mid2,843.9595299946493,11,2019-06-10,2019-06-24,108,2019-10-10,2019-10-23,2019-11-06,Harvested at Maturity.,3.28599999298652,1.0933333436648052,1.9876922990840216,1.7981818042356859,2.7520000396917266,2.3399999141693115,3.2469999242573975,4.196249973028898,2.354761878028512,1.3930768902198627,3.8193333347638445,3.28599999298652,1.0933333436648052,1.9876922990840216,1.7981818042356859,2.7520000396917266,2.3399999141693115,3.2469999242573975,4.196249973028898,2.354761878028512,1.3930768902198627,3.8193333347638445,19.230666859944662,28.22333335876465,23.59884610542884,22.90590901808305,19.460666720072428,20.850000381469727,15.189999866485596,13.288750171661377,13.010476203191848,11.773846039405235,7.363333344459534,21.960666529337566,26.696666717529297,27.620384509746845,26.791818011890758,25.86400006612142,24.63999938964844,22.75900001525879,24.734999895095825,22.733809425717308,16.28076912806584,11.81800003051758,17.0599999109904,22.141666730244953,23.030384595577534,22.470681710676715,21.934000047047935,20.139999866485596,18.52850003242493,20.742499947547913,18.527857099260604,11.862307621882511,8.217999994754791,12.159333292643229,17.586666742960613,18.440384681408222,18.149545409462668,18.004000027974445,15.640000343322754,14.298000049591064,16.75,14.321904772803897,7.443846115699181,4.617999958992004,7.068198281395436,12.141666730244955,9.133620842554187,10.927034122382688,11.921741967023571,10.139999866485596,8.72063030813098,10.742499947547913,9.061281992002613,5.644862475635684,0.6864009893733264,7.068198281395436,12.141666730244955,9.133620842554187,10.927034122382688,11.921741967023571,10.139999866485596,8.72063030813098,10.742499947547913,9.061281992002613,5.644862475635684,0.6864009893733264,0,0,237.4741419064088,477.8688925988279,656.6950221041815,666.8350219706671,754.0413250519767,839.98132463236,1030.2682464644147,1103.6514586476787,1103.6514586476787,0,0,1,0.999136361208829,0.9763000011444092,1,0.8417000055313111,0.9673749923706055,0.780976186479841,0.22953845170828013,0.015166667302449548,1,1,1,1,1,1,1,1,1,1,1,0.6967666625976563,1,1,0.999136361208829,0.9763000011444092,1,0.8417000055313111,0.9673749923706055,0.780976186479841,0.22953845170828013,0.042966666221618655,1,1,1,1,0.9999999999999999,1,0.9999999999999999,0.9999999999999999,1,1,1,2019-06-10T12:00:00Z,2019-06-25T12:00:00Z,2019-06-28T12:00:00Z,2019-07-24T12:00:00Z,2019-08-15T12:00:00Z,2019-08-30T12:00:00Z,2019-08-31T12:00:00Z,2019-09-10T12:00:00Z,2019-09-18T12:00:00Z,2019-10-09T12:00:00Z,2019-10-22T12:00:00Z,2019-06-24T12:00:00Z,2019-06-27T12:00:00Z,2019-07-23T12:00:00Z,2019-08-14T12:00:00Z,2019-08-29T12:00:00Z,2019-08-30T12:00:00Z,2019-09-09T12:00:00Z,2019-09-17T12:00:00Z,2019-10-08T12:00:00Z,2019-10-21T12:00:00Z,2019-11-05T12:00:00Z,161,176,179,205,227,242,243,253,261,282,295,15,3,26,22,15,1,10,8,21,13,15,175,178,204,226,241,242,252,260,281,294,309
28,28,ames_ia,42.0215,-93.7745,3.5,2019-05-23,15,2019,mid3,1356.8654379722484,11,2019-05-09,2019-05-23,131,2019-10-01,2019-10-10,2019-10-24,Harvested at Maturity.,5.308666642258564,12.807500364724547,3.8212195104215203,1.939130409013318,2.3652631420838204,1.1100000143051147,3.2725000847131014,3.620000095665455,4.547894724889805,8.07000010729664,4.324666665494442,5.308666642258564,12.807500364724547,3.8212195104215203,1.939130409013318,2.3652631420838204,1.1100000143051147,3.2725000847131014,3.620000095665455,4.547894724889805,8.07000010729664,4.324666665494442,18.371333249409993,23.514999866485596,20.66365847936491,22.877825819927715,20.567894785027754,24.110000610351563,18.668333292007446,14.852999782562256,12.31789473483437,10.999999867545235,9.96266663869222,18.634000078837076,25.03749990463257,25.808536622582412,28.080434799194336,27.12368423060367,27.3799991607666,24.759166717529297,26.486999893188475,26.16947374845806,19.7111111746894,14.080666637420654,13.220000060399373,18.914999961853027,21.064146414035704,23.483695652173914,22.4076314474407,21.34499979019165,19.78500008583069,21.035999917984007,21.052894742865313,14.42722221215566,8.479999995231628,7.80600004196167,12.792500019073486,16.319756205488996,18.88695650515349,17.691578664277728,15.3100004196167,14.81083345413208,15.584999942779541,15.936315737272563,9.143333249621922,2.8793333530426026,4.2714017226966225,8.914999961853027,6.105560842639477,8.733896779047404,10.612473616826412,11.015155355229634,9.879510142930421,11.160272388773562,11.408125181613784,7.12591015174422,1.1777307538863768,4.2714017226966225,8.914999961853027,6.105560842639477,8.733896779047404,10.612473616826412,11.015155355229634,9.879510142930421,11.160272388773562,11.408125181613784,7.12591015174422,1.1777307538863768,0,0,250.32799454821856,451.20762046630887,652.8446191860106,663.8597745412402,782.4138962564053,894.0166201441409,1110.770998594803,1174.9041899605006,1174.9041899605006,0,0,0.9083292658736066,0.9901086931643279,1,1,0.9190833449363709,0.9605999946594238,0.8811578951383892,0.39794444508022736,0.019466665585835773,1,1,1,1,1,1,1,1,1,1,1,0.3420333321889242,0.8914999961853027,0.9083292658736066,0.9901086931643279,1,1,0.9190833449363709,0.9605999946594238,0.8811578951383892,0.39794444508022736,0.07440000216166179,1,1,1,1,1,1,0.9999999999999999,1,1,1,1,2019-05-09T12:00:00Z,2019-05-24T12:00:00Z,2019-05-28T12:00:00Z,2019-07-08T12:00:00Z,2019-07-31T12:00:00Z,2019-08-19T12:00:00Z,2019-08-20T12:00:00Z,2019-09-01T12:00:00Z,2019-09-11T12:00:00Z,2019-09-30T12:00:00Z,2019-10-09T12:00:00Z,2019-05-23T12:00:00Z,2019-05-27T12:00:00Z,2019-07-07T12:00:00Z,2019-07-30T12:00:00Z,2019-08-18T12:00:00Z,2019-08-19T12:00:00Z,2019-08-31T12:00:00Z,2019-09-10T12:00:00Z,2019-09-29T12:00:00Z,2019-10-08T12:00:00Z,2019-10-23T12:00:00Z,129,144,148,189,212,231,232,244,254,273,282,15,4,41,23,19,1,12,10,19,9,15,143,147,188,211,230,231,243,253,272,281,296
29,29,arthur_il,39.70646667,-88.47023333,3.5,2019-06-04,19,2019,mid3,1120.8864268947807,11,2019-05-21,2019-06-04,111,2019-09-23,2019-09-28,2019-10-12,Harvested at Maturity.,6.226000077029069,1.8900000229477882,5.5569697383113885,1.0715789264558178,3.6194444163185024,0.00999999977648258,7.35666659143236,3.234444467971722,0.2605555559405022,2.581999969482422,4.301333229243755,6.226000077029069,1.8900000229477882,5.5569697383113885,1.0715789264558178,3.6194444163185024,0.00999999977648258,7.35666659143236,3.234444467971722,0.2605555559405022,2.581999969482422,4.301333229243755,21.85000006357829,22.40000057220459,21.226060650565408,24.526315689086914,22.840000205569797,16.8700008392334,16.19333330790202,17.833333227369522,18.768333435058594,16.16200008392334,14.006000185012818,26.31599998474121,28.15999984741211,27.18575755032626,29.02263159500925,28.220555623372395,27.38999938964844,27.270000245836044,27.218888812594944,28.4627775616116,25.891999816894533,25.83799959818522,21.45733331044515,23.80999994277954,22.698333277846828,24.30921062670256,23.201944483651054,23.4399995803833,23.463333394792343,22.080555491977268,22.734999948077732,21.04300003051758,19.419666401545207,16.59866663614909,19.460000038146973,18.210909005367395,19.59578965839587,18.183333343929714,19.489999771118164,19.656666543748646,16.942222171359592,17.007222334543865,16.194000244140625,13.001333204905192,11.470964408411184,13.809999942779541,7.7886923452362415,10.023499949694541,11.535191920536963,13.02811218124532,13.339932695851521,12.098624507284827,12.713647752972776,11.138672553405762,8.748729149547417,11.470964408411184,13.809999942779541,7.7886923452362415,10.023499949694541,11.535191920536963,13.02811218124532,13.339932695851521,12.098624507284827,12.713647752972776,11.138672553405762,8.748729149547417,0,0,257.026847392796,447.47334643699224,655.1068010066576,668.134913187903,788.1943074505666,897.0819280161301,1125.92758756964,1181.620950336669,1181.620950336669,0,0,0.9668333357030695,0.9985789474688078,1,1,0.9833888954586453,0.9927222198910184,0.9787777741750081,0.9595999908447266,0.06666666666666667,1,1,1,1,1,1,1,1,1,1,1,0.9456999969482422,1,0.9668333357030695,0.9985789474688078,1,1,0.9833888954586453,0.9927222198910184,0.9787777741750081,0.9595999908447266,0.7590666564305624,1,1,1,1,0.9999999999999999,1,1,1,1,0.9999999999999999,1,2019-05-21T12:00:00Z,2019-06-05T12:00:00Z,2019-06-07T12:00:00Z,2019-07-10T12:00:00Z,2019-07-29T12:00:00Z,2019-08-16T12:00:00Z,2019-08-17T12:00:00Z,2019-08-26T12:00:00Z,2019-09-04T12:00:00Z,2019-09-22T12:00:00Z,2019-09-27T12:00:00Z,2019-06-04T12:00:00Z,2019-06-06T12:00:00Z,2019-07-09T12:00:00Z,2019-07-28T12:00:00Z,2019-08-15T12:00:00Z,2019-08-16T12:00:00Z,2019-08-25T12:00:00Z,2019-09-03T12:00:00Z,2019-09-21T12:00:00Z,2019-09-26T12:00:00Z,2019-10-11T12:00:00Z,141,156,158,191,210,228,229,238,247,265,270,15,2,33,19,18,1,9,9,18,5,15,155,157,190,209,227,228,237,246,264,269,284
30,30,urbana_il,40.05325,-88.23485,3.5,2019-06-05,17,2019,mid3,1105.2099231566683,11,2019-05-22,2019-06-05,112,2019-09-25,2019-09-30,2019-10-14,Harvested at Maturity.,5.084666672597328,0.18666666684051356,4.586666702716188,1.2709523816371249,2.590624966658652,5.760000228881836,5.167777786652247,1.5060000425204636,1.5735294142847551,6.265999869257212,2.3926666411260764,5.084666672597328,0.18666666684051356,4.586666702716188,1.2709523816371249,2.590624966658652,5.760000228881836,5.167777786652247,1.5060000425204636,1.5735294142847551,6.265999869257212,2.3926666411260764,21.568666712443033,25.016667048136394,21.369090961687494,24.32000005812872,21.25062495470047,15.149999618530272,18.63444423675537,17.16800003051758,16.22411767174216,14.02200002670288,13.26733325322469,26.632000096638997,26.246666590372723,27.116060777144,28.42285719371977,28.96375000476837,28.020000457763672,27.52000003390842,26.873000144958496,29.65352944766774,26.34800033569336,23.923333358764648,21.727666695912678,21.328333218892414,22.50863641681093,23.483571438562304,23.84781238436699,25.27500057220459,22.917222287919785,21.01700015068054,23.59823543885175,20.643000221252443,17.340333415071168,16.823333295186362,16.40999984741211,17.901212056477863,18.544285683404834,18.731874763965607,22.530000686645508,18.314444541931152,15.161000156402588,17.54294143003576,14.938000106811524,10.757333471377692,11.72766669591268,11.328333218892416,7.597200701440208,9.655628199903576,12.390708037627217,15.0701909470605,12.812037752252332,11.10851395484209,13.369084683479281,10.793889995803832,6.868191761953296,11.72766669591268,11.328333218892416,7.597200701440208,9.655628199903576,12.390708037627217,15.0701909470605,12.812037752252332,11.10851395484209,13.369084683479281,10.793889995803832,6.868191761953296,0,0,250.70762314752685,453.475815345502,651.7271439475375,666.797334894598,782.1056746648688,893.1908142132897,1120.4652538324376,1174.4347038114563,1174.4347038114563,0,0,0.954303030534224,0.9972619033995129,1,1,0.9807222207387288,0.9785999965667724,0.9958235319922952,0.9622000122070312,0.06666666666666667,1,1,1,1,1,1,1,1,1,1,1,0.9825666681925456,0.993999989827474,0.954303030534224,0.9972619033995129,1,1,0.9807222207387288,0.9785999965667724,0.9958235319922952,0.9622000122070312,0.6084666705131531,1,1,1,1,1,1,1,0.9999999999999999,0.9999999999999999,1,1,2019-05-22T12:00:00Z,2019-06-06T12:00:00Z,2019-06-09T12:00:00Z,2019-07-12T12:00:00Z,2019-08-02T12:00:00Z,2019-08-18T12:00:00Z,2019-08-19T12:00:00Z,2019-08-28T12:00:00Z,2019-09-07T12:00:00Z,2019-09-24T12:00:00Z,2019-09-29T12:00:00Z,2019-06-05T12:00:00Z,2019-06-08T12:00:00Z,2019-07-11T12:00:00Z,2019-08-01T12:00:00Z,2019-08-17T12:00:00Z,2019-08-18T12:00:00Z,2019-08-27T12:00:00Z,2019-09-06T12:00:00Z,2019-09-23T12:00:00Z,2019-09-28T12:00:00Z,2019-10-13T12:00:00Z,142,157,160,193,214,230,231,240,250,267,272,15,3,33,21,16,1,9,10,17,5,15,156,159,192,213,229,230,239,249,266,271,286
31,31,wanatah_in,41.4444,-86.9437,3.5,2019-06-03,20,2019,mid3,1188.3261334389156,11,2019-05-20,2019-06-03,124,2019-10-05,2019-10-13,2019-10-27,Harvested at Maturity.,5.5699999034404755,1.730000008828938,3.661315782436807,2.3080952002533843,3.0681249781046063,0.2199999988079071,1.3054545804519544,2.252727283842184,7.3140002021566035,2.338750041788444,3.2359999782095352,5.5699999034404755,1.730000008828938,3.661315782436807,2.3080952002533843,3.0681249781046063,0.2199999988079071,1.3054545804519544,2.252727283842184,7.3140002021566035,2.338750041788444,3.2359999782095352,19.72799997329712,22.15000009536743,22.233684200989572,22.28380957103911,18.163749992847443,21.059999465942383,19.12363641912287,14.092727184295654,13.410999822616578,13.89374989271164,9.484666697184245,21.47133305867513,25.042500019073486,25.96500005220112,27.46714265005929,27.978750109672546,25.75,25.5354548367587,26.16090913252397,25.975,20.125,14.571999994913737,16.478333218892416,19.399999976158142,21.261447392011945,23.09690466381255,23.607187509536743,21.795000076293945,20.244090990586713,21.319999954917215,21.108500146865843,14.142500013113022,9.69733335574468,11.4853333791097,13.757499933242798,16.557894731822767,18.726666677565802,19.23562490940094,17.84000015258789,14.952727144414728,16.479090777310457,16.24200029373169,8.160000026226044,4.822666716575623,6.648210640417338,9.399999976158142,6.493835342378101,9.45393185955329,12.489183949189522,11.795000076293944,10.322447314578836,11.39389038695368,11.188811916282773,6.490761703941971,1.4572236202715834,6.648210640417338,9.399999976158142,6.493835342378101,9.45393185955329,12.489183949189522,11.795000076293944,10.322447314578836,11.39389038695368,11.188811916282773,6.490761703941971,1.4572236202715834,0,0,246.7657430103678,445.298312060987,645.1252552480194,656.9202553243133,770.4671757846804,895.7999700411708,1119.5762083668262,1171.502301998362,1171.502301998362,0,0,0.9001973716836227,0.9936666647593181,1,1,0.9586363705721769,0.9428181821649725,0.9507500004768372,0.4142500013113022,0,1,1,1,1,1,1,1,1,1,1,1,0.6421999883651733,0.9359999895095825,0.9001973716836227,0.9936666647593181,1,1,0.9586363705721769,0.9428181821649725,0.9507500004768372,0.4142500013113022,0.0665000073115031,1,1,1,1,1,1,0.9999999999999999,1,1,0.9999999999999999,1,2019-05-20T12:00:00Z,2019-06-04T12:00:00Z,2019-06-08T12:00:00Z,2019-07-16T12:00:00Z,2019-08-06T12:00:00Z,2019-08-22T12:00:00Z,2019-08-23T12:00:00Z,2019-09-03T12:00:00Z,2019-09-14T12:00:00Z,2019-10-04T12:00:00Z,2019-10-12T12:00:00Z,2019-06-03T12:00:00Z,2019-06-07T12:00:00Z,2019-07-15T12:00:00Z,2019-08-05T12:00:00Z,2019-08-21T12:00:00Z,2019-08-22T12:00:00Z,2019-09-02T12:00:00Z,2019-09-13T12:00:00Z,2019-10-03T12:00:00Z,2019-10-11T12:00:00Z,2019-10-26T12:00:00Z,140,155,159,197,218,234,235,246,257,277,285,15,4,38,21,16,1,11,11,20,8,15,154,158,196,217,233,234,245,256,276,284,299
32,32,ottawa_ks,38.5404,-95.2477,3.5,2019-06-03,21,2019,mid3,1114.713985834148,11,2019-05-20,2019-06-03,104,2019-09-15,2019-09-19,2019-10-03,Harvested at Maturity.,12.120666829993327,7.274999767541885,6.601333423020939,2.480526254365319,7.013125061173923,1.409999966621399,10.248749904334545,7.098888725870186,4.462352830040104,0,7.285999942819277,12.120666829993327,7.274999767541885,6.601333423020939,2.480526254365319,7.013125061173923,1.409999966621399,10.248749904334545,7.098888725870186,4.462352830040104,0,7.285999942819277,17.937333456675212,25.545000076293945,23.309999974568687,25.64263153076172,21.79812514781952,17.399999618530273,22.239999890327454,15.404444641537136,18.82176472158993,19.56999969482422,14.870666599273681,25.197333272298177,28.0600004196167,27.082000096638996,29.283684078015778,28.636874794960022,30.1200008392334,29.367499589920044,27.584444257948135,28.377646951114432,30.24250030517578,27.637999979654946,20.470999908447265,24.57750034332275,22.96449998219808,25.06263155686228,24.16218739748001,25.730000495910645,25.263124704360962,23.92777771419949,23.321176388684442,24.580000400543213,23.071666526794434,15.744666544596354,21.09500026702881,18.846999867757162,20.84157903570878,19.6875,21.34000015258789,21.15874981880188,20.271111170450848,18.264705826254453,18.917500495910645,18.50533307393392,10.491949473404885,14.577500343322754,8.335208991252689,10.642246273060957,11.968417726690248,14.545931556124511,14.534983508509814,13.560396061109174,13.29735331878031,14.49234772618711,12.021399502542815,10.491949473404885,14.577500343322754,8.335208991252689,10.642246273060957,11.968417726690248,14.545931556124511,14.534983508509814,13.560396061109174,13.29735331878031,14.49234772618711,12.021399502542815,0,0,250.05626973758064,452.2589489257387,643.7536325527827,658.2995641089072,774.5794321769857,896.6229967269684,1122.6780031462336,1180.6473940509825,1180.6473940509825,0,0,0.9697166681289673,1,1,1,1,1,1,1,0.06666666666666667,1,1,1,1,1,1,1,1,1,1,1,0.9007666619618734,1,0.9697166681289673,1,1,1,1,1,1,1,0.9860000006357829,1,1,1,0.9999999999999999,0.9999999999999999,0.9999999999999998,0.9999999999999999,0.9999999999999999,1,1,1,2019-05-20T12:00:00Z,2019-06-04T12:00:00Z,2019-06-06T12:00:00Z,2019-07-06T12:00:00Z,2019-07-25T12:00:00Z,2019-08-10T12:00:00Z,2019-08-11T12:00:00Z,2019-08-19T12:00:00Z,2019-08-28T12:00:00Z,2019-09-14T12:00:00Z,2019-09-18T12:00:00Z,2019-06-03T12:00:00Z,2019-06-05T12:00:00Z,2019-07-05T12:00:00Z,2019-07-24T12:00:00Z,2019-08-09T12:00:00Z,2019-08-10T12:00:00Z,2019-08-18T12:00:00Z,2019-08-27T12:00:00Z,2019-09-13T12:00:00Z,2019-09-17T12:00:00Z,2019-10-02T12:00:00Z,140,155,157,187,206,222,223,231,240,257,261,15,2,30,19,16,1,8,9,17,4,15,154,156,186,205,221,222,230,239,256,260,275
33,33,albany_mo,40.2384,-94.3433,3.5,2019-06-07,22,2019,mid3,1160.9892710758568,11,2019-05-24,2019-06-07,110,2019-09-25,2019-10-01,2019-10-15,Harvested at Maturity.,8.23000011605521,0.6424999833106995,5.067096745775592,4.48799994988367,5.69750003144145,9.130000114440918,5.808999964594841,3.1410000605508683,5.896875099395402,14.254999796549479,3.941333350663384,8.23000011605521,0.6424999833106995,5.067096745775592,4.48799994988367,5.69750003144145,9.130000114440918,5.808999964594841,3.1410000605508683,5.896875099395402,14.254999796549479,3.941333350663384,20.829333337148032,25.182499885559082,22.750322649555823,23.61399989128113,21.36124986410141,21.989999771118164,17.148000144958495,18.531999492645262,15.729375153779984,13.251666625340778,11.510666720072429,26.23933334350586,25.012499809265137,27.56612882306499,28.544999980926512,28.335000038146973,29.239999771118164,26.61000003814697,26.970000076293946,28.32562506198883,25.578333536783855,19.552666854858398,21.555666573842366,19.118749976158142,23.344838619232178,23.993000030517578,23.931562542915344,25.670000076293945,21.919000005722047,21.46150007247925,23.6056250333786,20.09750016530355,13.43366678704818,16.871999804178873,13.225000143051147,19.123548415399366,19.441000080108644,19.528125047683716,22.100000381469727,17.22799997329712,15.95300006866455,18.88562500476837,14.616666793823242,7.314666719237963,11.555666573842368,9.118749976158142,8.057809547612344,9.979264156800399,12.40732745720247,15.42014305824621,11.848002152582243,11.489116933280826,13.569187374711037,10.344644523560007,3.907510367884754,11.555666573842368,9.118749976158142,8.057809547612344,9.979264156800399,12.40732745720247,15.42014305824621,11.848002152582243,11.489116933280826,13.569187374711037,10.344644523560007,3.907510367884754,0,0,249.79209597598268,449.3773791119907,647.8946184272302,663.3147614854764,781.7947830112989,896.6859523441071,1113.7929503394837,1175.8608174808437,1175.8608174808437,0,0,0.9722580632855815,0.9986500000953674,1,1,0.9918000030517579,0.972649998664856,0.9859375059604645,0.8978333473205566,0.06666666666666667,1,1,1,1,1,1,1,1,1,1,1,0.9511999924977621,0.8618749976158142,0.9722580632855815,0.9986500000953674,1,1,0.9918000030517579,0.972649998664856,0.9859375059604645,0.8978333473205566,0.3572000066439311,1,1,1,1,0.9999999999999999,1,0.9999999999999999,0.9999999999999999,0.9999999999999999,1,1,2019-05-24T12:00:00Z,2019-06-08T12:00:00Z,2019-06-12T12:00:00Z,2019-07-13T12:00:00Z,2019-08-02T12:00:00Z,2019-08-18T12:00:00Z,2019-08-19T12:00:00Z,2019-08-29T12:00:00Z,2019-09-08T12:00:00Z,2019-09-24T12:00:00Z,2019-09-30T12:00:00Z,2019-06-07T12:00:00Z,2019-06-11T12:00:00Z,2019-07-12T12:00:00Z,2019-08-01T12:00:00Z,2019-08-17T12:00:00Z,2019-08-18T12:00:00Z,2019-08-28T12:00:00Z,2019-09-07T12:00:00Z,2019-09-23T12:00:00Z,2019-09-29T12:00:00Z,2019-10-14T12:00:00Z,144,159,163,194,214,230,231,241,251,267,273,15,4,31,20,16,1,10,10,16,6,15,158,162,193,213,229,230,240,250,266,272,287
34,34,columbia_mo,38.8894,-92.2081,3.5,2019-06-04,23,2019,mid3,1049.0893119267284,11,2019-05-21,2019-06-04,104,2019-09-16,2019-09-20,2019-10-04,Harvested at Maturity.,5.373333231608073,5.624999910593033,4.3838709309817325,2.4805262438756857,2.320624998304993,10.520000457763672,3.9828571847506935,7.7022220558590355,4.756470636957708,0.07000000262632966,5.50800000478824,5.373333231608073,5.624999910593033,4.3838709309817325,2.4805262438756857,2.320624998304993,10.520000457763672,3.9828571847506935,7.7022220558590355,4.756470636957708,0.07000000262632966,5.50800000478824,20.932666778564453,25.28499984741211,21.819354926386186,25.29315777828819,21.78624975681305,23.809999465942383,20.21714292253767,16.171111000908745,18.026470450793994,19.789999961853027,14.590666596094767,26.757333501180014,27.839999198913574,27.379032319591893,30.13157884698165,31.213125348091125,36.689998626708984,31.362857273646764,28.321111255221897,28.674117593204276,33.072500228881836,28.505333201090494,21.67066666285197,24.329999923706055,22.99661288722869,25.305000004015472,25.434375196695328,30.469999313354492,26.290000098092214,23.690000163184273,23.393529330982883,26.881250143051147,23.291666666666668,16.583999824523925,20.820000648498535,18.614193454865486,20.47842116104929,19.65562504529953,24.25,21.21714292253767,19.05888907114665,18.11294106876149,20.69000005722046,18.07800013224284,11.67066666285197,14.329999923706056,8.2283337958505,10.444724046232817,12.55076309619594,13.109255128089693,15.031889434676769,13.232202716414797,13.271036226682103,14.980497192940117,11.919493602065245,11.67066666285197,14.329999923706056,8.2283337958505,10.444724046232817,12.55076309619594,13.109255128089693,15.031889434676769,13.232202716414797,13.271036226682103,14.980497192940117,11.919493602065245,0,0,255.07834767136552,453.52810454978913,654.3403140889242,667.4495692170138,772.6727952597511,891.7626197074842,1117.37023556108,1177.2922243328403,1177.2922243328403,0,0,0.9602096772963001,0.9986579041731986,1,0.9530000686645508,1,1,0.9982058805577896,1,0.06666666666666667,1,1,1,1,1,1,1,1,1,1,1,0.9611000029246013,1,0.9602096772963001,0.9986579041731986,1,0.9530000686645508,1,1,0.9982058805577896,1,0.9603333314259848,1,1,1,1,1,1,1,1,0.9999999999999999,1,1,2019-05-21T12:00:00Z,2019-06-05T12:00:00Z,2019-06-07T12:00:00Z,2019-07-08T12:00:00Z,2019-07-27T12:00:00Z,2019-08-12T12:00:00Z,2019-08-13T12:00:00Z,2019-08-20T12:00:00Z,2019-08-29T12:00:00Z,2019-09-15T12:00:00Z,2019-09-19T12:00:00Z,2019-06-04T12:00:00Z,2019-06-06T12:00:00Z,2019-07-07T12:00:00Z,2019-07-26T12:00:00Z,2019-08-11T12:00:00Z,2019-08-12T12:00:00Z,2019-08-19T12:00:00Z,2019-08-28T12:00:00Z,2019-09-14T12:00:00Z,2019-09-18T12:00:00Z,2019-10-03T12:00:00Z,141,156,158,189,208,224,225,232,241,258,262,15,2,31,19,16,1,7,9,17,4,15,155,157,188,207,223,224,231,240,257,261,276
35,35,phillips_ne,40.8473,-98.177,3.5,2019-05-18,11,2019,mid3,1334.175236344288,11,2019-05-04,2019-05-18,129,2019-09-24,2019-09-30,2019-10-14,Harvested at Maturity.,3.2453333627432586,10.951250173849985,5.2094871276655255,3.9159091347828507,4.230555530223581,0.6700000166893005,6.1420000255107885,2.7499999764629384,1.9805555345697536,0.6316666668280959,4.138666649659474,3.2453333627432586,10.951250173849985,5.2094871276655255,3.9159091347828507,4.230555530223581,0.6700000166893005,6.1420000255107885,2.7499999764629384,1.9805555345697536,0.6316666668280959,4.138666649659474,20.72533353169759,18.65750014781952,24.414102639907444,25.329999750310726,21.265000078413223,21.719999313354492,17.08199996948242,18.042727383700285,18.13222228156196,15.68833335240682,13.356666644414267,21.464666811625165,19.1912499666214,26.497948768811348,29.212272730740633,28.344444380866157,24.229999542236328,26.402999877929688,25.849091096357867,27.96722231970893,24.346666653951008,17.38333330154419,14.994666759173075,13.433125019073486,20.966282037588265,24.122499986128375,23.67694436179267,19.38499975204468,21.90599994659424,20.38136373866688,22.62361110581292,18.195000012715656,11.335666640599568,8.524666706720987,7.675000071525574,15.434615306365185,19.032727241516113,19.009444342719185,14.539999961853027,17.40900001525879,14.913636380975897,17.279999891916912,12.043333371480305,5.287999979654948,5.891076042872767,4.2534853904247285,6.385653468313511,8.95940718759859,11.363465929372039,8.729669264094326,11.629420411753625,10.457356825793331,12.592098642020094,8.953568064807852,2.77482463085403,5.891076042872767,4.2534853904247285,6.385653468313511,8.95940718759859,11.363465929372039,8.729669264094326,11.629420411753625,10.457356825793331,12.592098642020094,8.953568064807852,2.77482463085403,0,0,249.04048526422687,446.1474433913958,650.6898301200928,659.4194993841871,775.7137035017233,890.7446285854498,1117.4024041418115,1171.1238125306586,1171.1238125306586,0,0,0.8928461539439666,0.9985000025142323,1,0.9384999752044678,0.9972499942779541,0.9272727359424938,0.9756388902664185,0.7744166692097982,0.06666666666666667,1,1,1,1,1,1,1,1,1,1,1,0.4938333368301392,0.37618750333786016,0.8928461539439666,0.9985000025142323,1,0.9384999752044678,0.9972499942779541,0.9272727359424938,0.9756388902664185,0.7744166692097982,0.26690000216166176,1,1,1,0.9999999999999999,0.9999999999999999,1,0.9999999999999999,0.9999999999999999,0.9999999999999999,1,1,2019-05-04T12:00:00Z,2019-05-19T12:00:00Z,2019-05-27T12:00:00Z,2019-07-05T12:00:00Z,2019-07-27T12:00:00Z,2019-08-14T12:00:00Z,2019-08-15T12:00:00Z,2019-08-25T12:00:00Z,2019-09-05T12:00:00Z,2019-09-23T12:00:00Z,2019-09-29T12:00:00Z,2019-05-18T12:00:00Z,2019-05-26T12:00:00Z,2019-07-04T12:00:00Z,2019-07-26T12:00:00Z,2019-08-13T12:00:00Z,2019-08-14T12:00:00Z,2019-08-24T12:00:00Z,2019-09-04T12:00:00Z,2019-09-22T12:00:00Z,2019-09-28T12:00:00Z,2019-10-13T12:00:00Z,124,139,147,186,208,226,227,237,248,266,272,15,8,39,22,18,1,10,11,18,6,15,138,146,185,207,225,226,236,247,265,271,286
36,36,wymore_ne,40.1222,-96.6625,3.5,2019-06-05,24,2019,mid3,1141.2541038179293,11,2019-05-22,2019-06-05,110,2019-09-23,2019-09-29,2019-10-13,Harvested at Maturity.,6.944666715463002,0.3966666677345832,6.651562494516838,2.0655000170692803,6.738124950323254,20.549999237060547,4.641111102369097,3.7736363898624075,3.4812501242849976,4.241666798479855,5.4386667462686695,6.944666715463002,0.3966666677345832,6.651562494516838,2.0655000170692803,6.738124950323254,20.549999237060547,4.641111102369097,3.7736363898624075,3.4812501242849976,4.241666798479855,5.4386667462686695,22.513333320617676,26.793333689371746,23.362812384963036,24.50900001525879,19.28624987602234,19.309999465942383,15.949999968210856,19.235454732721504,16.234999895095825,16.175000190734863,11.060666513442992,25.046000162760418,28.3766663869222,27.37125015258789,29.30500011444092,28.2837495803833,27.729999542236328,27.660000059339737,26.938181790438566,28.227500200271606,24.626667022705078,19.14133310317993,19.411333481470745,23.19333330790202,22.71812506020069,24.349249982833864,24.068749845027924,23.719999313354492,23.311110973358154,21.552272709933195,23.66875010728836,19.321666876475017,13.712999832630157,13.77666680018107,18.010000228881836,18.064999967813492,19.393499851226807,19.853750109672546,19.709999084472656,18.962221887376572,16.166363629427824,19.110000014305115,14.016666730244955,8.284666562080384,9.505283555269044,13.19333330790202,7.651555130788004,9.897498058364485,12.290901166031455,13.217295319327889,13.050390233392452,11.523892262174325,13.683712068443,9.602856750594576,4.679785765040368,9.505283555269044,13.19333330790202,7.651555130788004,9.897498058364485,12.290901166031455,13.217295319327889,13.050390233392452,11.523892262174325,13.683712068443,9.602856750594576,4.679785765040368,0,0,244.84976418521612,442.7997253525058,639.4541440090089,652.6714393283368,770.1249514288688,896.8877663127864,1115.8271594078744,1173.444299911442,1173.444299911442,0,0,0.9473125040531158,0.9960249996185303,1,1,1,0.954909086227417,0.9940312504768372,0.9003333489100139,0.0334666633605957,1,1,1,1,1,1,1,1,1,1,1,0.8485666735967,1,0.9473125040531158,0.9960249996185303,1,1,1,0.954909086227417,0.9940312504768372,0.9003333489100139,0.39003332455952966,1,1,1,1,0.9999999999999999,0.9999999999999998,0.9999999999999999,0.9999999999999999,1,1,1,2019-05-22T12:00:00Z,2019-06-06T12:00:00Z,2019-06-09T12:00:00Z,2019-07-11T12:00:00Z,2019-07-31T12:00:00Z,2019-08-16T12:00:00Z,2019-08-17T12:00:00Z,2019-08-26T12:00:00Z,2019-09-06T12:00:00Z,2019-09-22T12:00:00Z,2019-09-28T12:00:00Z,2019-06-05T12:00:00Z,2019-06-08T12:00:00Z,2019-07-10T12:00:00Z,2019-07-30T12:00:00Z,2019-08-15T12:00:00Z,2019-08-16T12:00:00Z,2019-08-25T12:00:00Z,2019-09-05T12:00:00Z,2019-09-21T12:00:00Z,2019-09-27T12:00:00Z,2019-10-12T12:00:00Z,142,157,160,192,212,228,229,238,249,265,271,15,3,32,20,16,1,9,11,16,6,15,156,159,191,211,227,228,237,248,264,270,285
37,37,flora_il,38.702763,-88.518259,4.5,2019-06-10,25,2019,mid4,1481.5207667524128,11,2019-05-27,2019-06-10,126,2019-10-14,2019-10-21,2019-11-04,Harvested at Maturity.,4.300666649267077,0.6649999963119626,5.760000005420862,1.5454166329776247,5.4070001062005755,0.15000000596046448,0.3980000104755163,0,2.9082609031997295,0.067142856706466,6.738000064715743,4.300666649267077,0.6649999963119626,5.760000005420862,1.5454166329776247,5.4070001062005755,0.15000000596046448,0.3980000104755163,0,2.9082609031997295,0.067142856706466,6.738000064715743,22.30000006357829,23.515000104904175,21.543939445957992,24.528749982515972,18.162499761581422,12.130000114440918,20.352999782562257,20.066666497124565,15.38043473077857,14.005714620862689,9.035999957720438,26.79933319091797,23.267499923706055,28.89272724498402,28.783333381017048,28.086999893188477,29.030000686645508,27.625000190734863,29.964444478352867,26.192173791968305,18.550000054495676,14.510666720072429,22.31099983851115,18.172500014305115,24.84393937659986,23.917291661103565,23.9827499628067,22.97000026702881,22.27700009346008,23.97277789645725,20.198043382686116,11.573571409497942,9.63100004196167,17.82266648610433,13.077500104904175,20.795151508215703,19.051249941190083,19.878500032424927,16.90999984741211,16.928999996185304,17.98111131456163,14.20391297340393,4.59714276450021,4.751333363850911,12.31099983851115,8.172500014305115,8.004771387791935,9.916215786819336,13.113305971872254,12.970000267028809,12.2784925511235,13.727282018631035,10.852287956654637,5.895881079347857,1.6056950740723313,12.31099983851115,8.172500014305115,8.004771387791935,9.916215786819336,13.113305971872254,12.970000267028809,12.2784925511235,13.727282018631035,10.852287956654637,5.895881079347857,1.6056950740723313,0,0,264.1574557971339,502.14663468079794,764.4127541182432,777.382754385272,900.167679896507,1023.7132180641864,1273.315841067243,1314.587008622678,1314.587008622678,0,0,1,1,0.9968499970436097,1,0.9833500051498413,1,0.8135434720827186,0.17864286388669698,0.028999996185302735,1,1,1,1,1,1,1,1,1,1,1,0.9830666637420654,0.8172500014305115,1,1,0.9968499970436097,1,0.9833500051498413,1,0.8135434720827186,0.17864286388669698,0.14846666812896728,1,1,1,1,1,1,0.9999999999999999,0.9999999999999999,0.9999999999999999,0.9999999999999999,1,2019-05-27T12:00:00Z,2019-06-11T12:00:00Z,2019-06-15T12:00:00Z,2019-07-18T12:00:00Z,2019-08-11T12:00:00Z,2019-08-31T12:00:00Z,2019-09-01T12:00:00Z,2019-09-11T12:00:00Z,2019-09-20T12:00:00Z,2019-10-13T12:00:00Z,2019-10-20T12:00:00Z,2019-06-10T12:00:00Z,2019-06-14T12:00:00Z,2019-07-17T12:00:00Z,2019-08-10T12:00:00Z,2019-08-30T12:00:00Z,2019-08-31T12:00:00Z,2019-09-10T12:00:00Z,2019-09-19T12:00:00Z,2019-10-12T12:00:00Z,2019-10-19T12:00:00Z,2019-11-03T12:00:00Z,147,162,166,199,223,243,244,254,263,286,293,15,4,33,24,20,1,10,9,23,7,15,161,165,198,222,242,243,253,262,285,292,307
38,38,ivesdale_il,39.9481,-88.44975,4.5,2019-06-01,26,2019,mid4,1637.4853198971025,11,2019-05-18,2019-06-01,142,2019-10-21,2019-10-28,2019-11-11,Harvested at Maturity.,5.347333419322967,0.07000000091890494,4.184285671450198,0.7738461666382277,4.290476227267867,0.2800000011920929,0.41999999321997167,0.9577777890695466,2.703571434598416,7.731428828090429,2.1946666639298202,5.347333419322967,0.07000000091890494,4.184285671450198,0.7738461666382277,4.290476227267867,0.2800000011920929,0.41999999321997167,0.9577777890695466,2.703571434598416,7.731428828090429,2.1946666639298202,21.295999844868977,24.18333371480306,21.647619077137538,24.33384623894325,17.311904816400435,20.399999618530273,19.611000061035156,17.93111122979058,14.292142910616738,8.318571533475604,9.128666639328003,25.44533322652181,25.323333104451496,27.50500002361479,28.613461567805363,27.571428662254696,27.56999969482422,28.46099967956543,30.425555335150825,23.232857091086252,16.315714291163854,9.529999906569719,20.840333302815754,19.329999764760334,22.79738085610526,23.368269205093384,23.00880952108474,21.730000019073486,22.794999742507933,23.84777768452962,16.951071406049387,11.29071421282632,4.3456666244814794,16.2353333791097,13.336666425069172,18.089761688595726,18.123076842381405,18.446190379914782,15.890000343322754,17.12899980545044,17.27000003390842,10.669285721012525,6.265714134488787,-0.8386666576067606,10.865169203604061,9.329999764760336,6.413036086952366,9.181907038110973,12.152490359578893,11.730000019073486,12.657567115597725,13.61990982915163,9.03026697528011,5.6865569516439525,0.22715082922565444,10.865169203604061,9.329999764760336,6.413036086952366,9.181907038110973,12.152490359578893,11.730000019073486,12.657567115597725,13.61990982915163,9.03026697528011,5.6865569516439525,0.22715082922565444,0,0,269.34751565199934,508.07709864288466,763.2793961940416,775.0093962131151,901.5850673690924,1024.164255831457,1277.0117311393003,1316.817629800808,1316.817629800808,0,0,0.96342857111068,0.9973461536260751,0.9912142867133731,1,0.9837499952316284,1,0.590196430683136,0.17242856877190726,0.007966664632161459,1,1,1,1,1,1,1,1,1,1,1,0.8937666670481363,0.9256666660308838,0.96342857111068,0.9973461536260751,0.9912142867133731,1,0.9837499952316284,1,0.590196430683136,0.17242856877190726,0.013733332951863608,1,1,1,1,1,1,1,1,1,1,1,2019-05-18T12:00:00Z,2019-06-02T12:00:00Z,2019-06-05T12:00:00Z,2019-07-17T12:00:00Z,2019-08-12T12:00:00Z,2019-09-02T12:00:00Z,2019-09-03T12:00:00Z,2019-09-13T12:00:00Z,2019-09-22T12:00:00Z,2019-10-20T12:00:00Z,2019-10-27T12:00:00Z,2019-06-01T12:00:00Z,2019-06-04T12:00:00Z,2019-07-16T12:00:00Z,2019-08-11T12:00:00Z,2019-09-01T12:00:00Z,2019-09-02T12:00:00Z,2019-09-12T12:00:00Z,2019-09-21T12:00:00Z,2019-10-19T12:00:00Z,2019-10-26T12:00:00Z,2019-11-10T12:00:00Z,138,153,156,198,224,245,246,256,265,293,300,15,3,42,26,21,1,10,9,28,7,15,152,155,197,223,244,245,255,264,292,299,314
39,39,urbana_il,40.05325,-88.23485,4.5,2019-06-05,17,2019,mid4,1566.1888936898386,11,2019-05-22,2019-06-05,143,2019-10-26,2019-11-03,2019-11-17,Harvested at Maturity.,5.084666672597328,0.18666666684051356,4.118500025896355,1.732307687545052,3.6685714520336616,0,0.6211111123363177,2.119000003114343,2.4546666368842125,10.48374978872016,0.3959999938805898,5.084666672597328,0.18666666684051356,4.118500025896355,1.732307687545052,3.6685714520336616,0,0.6211111123363177,2.119000003114343,2.4546666368842125,10.48374978872016,0.3959999938805898,21.568666712443033,25.016667048136394,21.91550005674362,23.23346156340379,17.72809510003953,22.295000076293945,16.864444732666016,15.364999771118164,12.413999986648559,6.408749997615814,9.370666694641114,26.632000096638997,26.246666590372723,27.57825016975403,28.448076981764572,27.506190527053107,25.399999618530273,29.27111095852322,29.569000244140625,21.90533339182536,11.803749978542328,5.933333413799604,21.727666695912678,21.328333218892414,22.946000051498412,23.241923038776104,22.691190583365305,19.274999618530273,23.135555532243515,23.5165002822876,15.582500072817007,6.9549999833106995,0.8946666792655984,16.823333295186362,16.40999984741211,18.313749933242796,18.035769095787636,17.876190639677503,13.149999618530272,17.000000105963814,17.46400032043457,9.259666753808657,2.106249988079071,-4.144000055268407,11.72766669591268,11.328333218892416,6.5254731522055485,9.390478582095977,12.045753271878125,9.274999618530273,12.902908817053504,13.345247034514546,8.177497638366422,5.146248837346584,0.06014700658683512,11.72766669591268,11.328333218892416,6.5254731522055485,9.390478582095977,12.045753271878125,9.274999618530273,12.902908817053504,13.345247034514546,8.177497638366422,5.146248837346584,0.06014700658683512,0,0,261.0189260882219,505.1713692227173,758.1321879321578,776.6821871692183,892.8083665226999,1026.2608368678457,1271.5857660188385,1312.755756717611,1312.755756717611,0,0,0.9623000001907349,0.9977884604380681,0.9898095244453067,0.9132499694824219,0.9921111159854465,1,0.48770000457763674,0.05662499964237214,0,1,1,1,1,1,1,1,1,1,1,1,0.9825666681925456,0.993999989827474,0.9623000001907349,0.9977884604380681,0.9898095244453067,0.9132499694824219,0.9921111159854465,1,0.48770000457763674,0.05662499964237214,0,1,1,1,0.9999999999999999,0.9999999999999999,1,0.9999999999999999,1,0.9999999999999999,1,1,2019-05-22T12:00:00Z,2019-06-06T12:00:00Z,2019-06-09T12:00:00Z,2019-07-19T12:00:00Z,2019-08-14T12:00:00Z,2019-09-04T12:00:00Z,2019-09-06T12:00:00Z,2019-09-15T12:00:00Z,2019-09-25T12:00:00Z,2019-10-25T12:00:00Z,2019-11-02T12:00:00Z,2019-06-05T12:00:00Z,2019-06-08T12:00:00Z,2019-07-18T12:00:00Z,2019-08-13T12:00:00Z,2019-09-03T12:00:00Z,2019-09-05T12:00:00Z,2019-09-14T12:00:00Z,2019-09-24T12:00:00Z,2019-10-24T12:00:00Z,2019-11-01T12:00:00Z,2019-11-16T12:00:00Z,142,157,160,200,226,247,249,258,268,298,306,15,3,40,26,21,2,9,10,30,8,15,156,159,199,225,246,248,257,267,297,305,320
40,40,manhattan_ks,38.1326,-96.62,4.5,2019-06-05,27,2019,mid4,1494.190233171714,11,2019-05-22,2019-06-05,119,2019-10-02,2019-10-08,2019-10-22,Harvested at Maturity.,6.7153332689156136,5.033333381017049,5.305833299799512,3.3030435661582844,5.955000022219287,30.90999984741211,1.88800001014024,1.9622222412791517,1.6835294037180788,7.5150000502665835,1.1346666547159354,6.7153332689156136,5.033333381017049,5.305833299799512,3.3030435661582844,5.955000022219287,30.90999984741211,1.88800001014024,1.9622222412791517,1.6835294037180788,7.5150000502665835,1.1346666547159354,21.34000015258789,25.150000254313152,24.288055499394734,24.715217569599982,19.27499993642171,13.510000228881836,19.14099988937378,17.616666264004177,15.891176279853372,10.15333342552185,15.074000072479247,26.126666514078778,26.25999959309896,27.722499953375923,29.602173929629117,29.760555585225422,27.200000762939453,29.109000205993652,29.23999998304579,28.506470624138327,21.894999980926514,18.699999809265137,21.572666613260907,21.978333473205566,23.40541664759318,24.92369566793027,25.660555574629043,23.9350004196167,23.618500232696533,24.288889037238228,23.888235344606287,17.161666472752888,12.001333196709554,17.018666712443032,17.696667353312176,19.08833334181044,20.245217406231426,21.56055556403266,20.670000076293945,18.128000259399414,19.337778091430664,19.270000065074246,12.428332964579264,5.30266658415397,11.603501338497002,11.978333473205568,7.388414999384029,10.245949845532435,13.776268294283895,13.9350004196167,13.465307865434884,14.169805696511268,13.817729876659198,8.43597155661583,3.1713163182670874,11.603501338497002,11.978333473205568,7.388414999384029,10.245949845532435,13.776268294283895,13.9350004196167,13.465307865434884,14.169805696511268,13.817729876659198,8.43597155661583,3.1713163182670874,0,0,265.9829399778251,501.63978642507107,749.6126157221811,763.5476161417978,898.2006947961466,1025.728946064748,1260.6303539679543,1311.2461833076493,1311.2461833076493,0,0,0.9657777773009406,1,1,1,1,1,0.9956764698028564,0.6210833152135213,0.024499999682108566,1,1,1,1,1,1,1,1,1,1,1,0.9217666689554851,1,0.9657777773009406,1,1,1,1,1,0.9956764698028564,0.6210833152135213,0.25223331967989604,1,1,1,1,0.9999999999999999,0.9999999999999998,0.9999999999999999,0.9999999999999999,1,1,1,2019-05-22T12:00:00Z,2019-06-06T12:00:00Z,2019-06-09T12:00:00Z,2019-07-15T12:00:00Z,2019-08-07T12:00:00Z,2019-08-25T12:00:00Z,2019-08-26T12:00:00Z,2019-09-05T12:00:00Z,2019-09-14T12:00:00Z,2019-10-01T12:00:00Z,2019-10-07T12:00:00Z,2019-06-05T12:00:00Z,2019-06-08T12:00:00Z,2019-07-14T12:00:00Z,2019-08-06T12:00:00Z,2019-08-24T12:00:00Z,2019-08-25T12:00:00Z,2019-09-04T12:00:00Z,2019-09-13T12:00:00Z,2019-09-30T12:00:00Z,2019-10-06T12:00:00Z,2019-10-21T12:00:00Z,142,157,160,196,219,237,238,248,257,274,280,15,3,36,23,18,1,10,9,17,6,15,156,159,195,218,236,237,247,256,273,279,294
41,41,ottawa_ks,38.5404,-95.2477,4.5,2019-06-03,21,2019,mid4,1532.7160828804003,11,2019-05-20,2019-06-03,124,2019-10-05,2019-10-11,2019-10-25,Harvested at Maturity.,12.120666829993327,7.274999767541885,5.744864932890679,4.389200011640787,8.602105164018116,18.469999313354492,5.715999824181199,2.129999985297521,5.916315738307802,2.9533333852887154,2.173333349327246,12.120666829993327,7.274999767541885,5.744864932890679,4.389200011640787,8.602105164018116,18.469999313354492,5.715999824181199,2.129999985297521,5.916315738307802,2.9533333852887154,2.173333349327246,17.937333456675212,25.545000076293945,23.49702701053104,24.721600036621094,18.523684250681026,7.769999980926514,20.782000064849854,17.24444431728787,15.106315713179738,10.840000073115032,14.04333324432373,25.197333272298177,28.0600004196167,27.44621632550214,29.06599967956543,28.54315777828819,29.809999465942383,27.934999847412108,28.69333330790202,27.512631566900957,19.71333344777425,17.009333229064943,20.470999908447265,24.57750034332275,23.339054081891035,24.559599838256837,24.81131568707918,24.460000038146973,22.685499906539917,23.684444427490234,22.923420981356973,14.110833446184795,10.73766658405463,15.744666544596354,21.09500026702881,19.23189183827993,20.053199996948244,21.07947359587017,19.110000610351563,17.435999965667726,18.67555554707845,18.33421039581299,8.508333444595337,4.465999939044316,10.491949473404885,14.577500343322754,7.166411906145917,9.859081613703179,13.121882555958157,14.460000038146973,12.645000687702895,13.684444427490234,13.021365651192477,6.390669636231661,2.2627264191917082,10.491949473404885,14.577500343322754,7.166411906145917,9.859081613703179,13.121882555958157,14.460000038146973,12.645000687702895,13.684444427490234,13.021365651192477,6.390669636231661,2.2627264191917082,0,0,265.15724052739887,511.63428086997834,760.9500494331833,775.4100494713302,901.8600563483592,1025.0200561957713,1272.4260035684288,1310.7700213858186,1310.7700213858186,0,0,0.975445947131595,1,1,1,1,1,0.9532105245088276,0.41108334461847945,0.02846666336059571,1,1,1,1,1,1,1,1,1,1,1,0.9007666619618734,1,0.975445947131595,1,1,1,1,1,0.9532105245088276,0.41108334461847945,0.16709999004999798,1,1,1,0.9999999999999999,0.9999999999999999,1,0.9999999999999999,1,0.9999999999999999,1,1,2019-05-20T12:00:00Z,2019-06-04T12:00:00Z,2019-06-06T12:00:00Z,2019-07-13T12:00:00Z,2019-08-07T12:00:00Z,2019-08-26T12:00:00Z,2019-08-27T12:00:00Z,2019-09-06T12:00:00Z,2019-09-15T12:00:00Z,2019-10-04T12:00:00Z,2019-10-10T12:00:00Z,2019-06-03T12:00:00Z,2019-06-05T12:00:00Z,2019-07-12T12:00:00Z,2019-08-06T12:00:00Z,2019-08-25T12:00:00Z,2019-08-26T12:00:00Z,2019-09-05T12:00:00Z,2019-09-14T12:00:00Z,2019-10-03T12:00:00Z,2019-10-09T12:00:00Z,2019-10-24T12:00:00Z,140,155,157,194,219,238,239,249,258,277,283,15,2,37,25,19,1,10,9,19,6,15,154,156,193,218,237,238,248,257,276,282,297
42,42,riley_ks,39.310966,-96.837075,4.5,2019-06-04,28,2019,mid4,1547.347918285053,11,2019-05-21,2019-06-04,136,2019-10-18,2019-10-26,2019-11-09,Harvested at Maturity.,6.572666618973017,2.9233332965523005,6.0328205320028925,3.724999967186401,7.341499951295554,12.300000190734863,1.143000016361475,0.3466666642990377,4.91571425985811,0.8637499969918281,0.0926666675756375,6.572666618973017,2.9233332965523005,6.0328205320028925,3.724999967186401,7.341499951295554,12.300000190734863,1.143000016361475,0.3466666642990377,4.91571425985811,0.8637499969918281,0.0926666675756375,20.84400011698405,24.546666463216145,24.705384670159756,22.51958304643631,18.66949999332428,15.199999809265137,18.747999954223634,18.641110844082302,13.730714338166374,12.959999978542328,10.438666725158692,24.716666793823244,28.053333282470703,27.891794840494793,29.25291673342387,28.345499992370605,25.920000076293945,27.848999977111816,29.197777854071724,21.46321417604174,16.31749987602234,8.756666651864846,19.252333386739096,23.133333206176758,23.19089734248626,24.619375109672546,23.832499957084657,21.510000228881836,22.974000024795533,24.071666717529297,15.987857064498323,10.89937498420477,3.07633331840237,13.787999979654948,18.213333129882813,18.489999844477726,19.985833485921223,19.319499921798705,17.100000381469727,18.09900007247925,18.94555558098687,10.512499952954904,5.481250092387199,-2.604000015060107,9.351785166830023,13.133333206176758,6.845340000650529,9.968221287066322,12.645268617243211,11.510000228881838,12.840107712488175,14.000885118455358,8.59873272789945,5.617708807879314,0.22475828979340695,9.351785166830023,13.133333206176758,6.845340000650529,9.968221287066322,12.645268617243211,11.510000228881838,12.840107712488175,14.000885118455358,8.59873272789945,5.617708807879314,0.22475828979340695,0,0,266.9682600253706,506.2055709149624,759.1109432598269,770.6209434887087,899.0220206135905,1025.0299866796888,1265.7945030608728,1310.7361735239074,1310.7361735239074,0,0,0.957397435261653,0.9977708339691163,0.9969250011444092,1,0.9967500019073486,0.9910555521647135,0.5454821360962732,0.18249999880790713,0,1,1,1,1,1,1,1,1,1,1,1,0.8263666661580403,1,0.957397435261653,0.9977708339691163,0.9969250011444092,1,0.9967500019073486,0.9910555521647135,0.5454821360962732,0.18249999880790713,0,1,1,1,1,0.9999999999999999,1,0.9999999999999999,1,0.9999999999999999,1,1,2019-05-21T12:00:00Z,2019-06-05T12:00:00Z,2019-06-08T12:00:00Z,2019-07-17T12:00:00Z,2019-08-10T12:00:00Z,2019-08-30T12:00:00Z,2019-08-31T12:00:00Z,2019-09-10T12:00:00Z,2019-09-19T12:00:00Z,2019-10-17T12:00:00Z,2019-10-25T12:00:00Z,2019-06-04T12:00:00Z,2019-06-07T12:00:00Z,2019-07-16T12:00:00Z,2019-08-09T12:00:00Z,2019-08-29T12:00:00Z,2019-08-30T12:00:00Z,2019-09-09T12:00:00Z,2019-09-18T12:00:00Z,2019-10-16T12:00:00Z,2019-10-24T12:00:00Z,2019-11-08T12:00:00Z,141,156,159,198,222,242,243,253,262,290,298,15,3,39,24,20,1,10,9,28,8,15,155,158,197,221,241,242,252,261,289,297,312
43,43,albany_mo,40.2384,-94.3433,4.5,2019-06-07,22,2019,mid4,1524.1637960170476,11,2019-05-24,2019-06-07,148,2019-11-02,2019-11-10,2019-11-24,Harvested at Maturity.,8.23000011605521,0.6424999833106995,4.147631555844686,5.329599995166063,6.545000001280146,0.00999999977648258,3.669000032916665,6.796666804080208,4.4891891530337364,0.017500000074505806,0.6053333335866531,8.23000011605521,0.6424999833106995,4.147631555844686,5.329599995166063,6.545000001280146,0.00999999977648258,3.669000032916665,6.796666804080208,4.4891891530337364,0.017500000074505806,0.6053333335866531,20.829333337148032,25.182499885559082,23.356315763373125,22.304399948120118,17.948636271736838,18.799999237060547,17.332999992370606,15.036666923099094,11.514864889351097,10.24875009059906,8.540666611989339,26.23933334350586,25.012499809265137,28.11289456016139,28.194800033569337,26.730454531582918,30.079999923706055,27.888999938964844,28.10333357916938,17.042432495065636,8.819999918341637,8.162000032265981,21.555666573842366,19.118749976158142,23.833947269540083,23.622800064086913,21.998636397448454,22.88000011444092,23.15599994659424,23.25666681925456,11.489864914602524,3.251874967245385,2.7766666650772094,16.871999804178873,13.225000143051147,19.55499997891878,19.050800094604494,17.266818263313986,15.68000030517578,18.422999954223634,18.410000059339737,5.937297334139411,-2.3162499838508666,-2.608666702111562,11.555666573842368,9.118749976158142,6.918978912021736,9.721312243181956,11.39217116026327,12.880000114440922,13.162746640340089,13.18439243301683,6.7408652997848355,5,0.24647331273953124,11.555666573842368,9.118749976158142,6.918978912021736,9.721312243181956,11.39217116026327,12.880000114440922,13.162746640340089,13.18439243301683,6.7408652997848355,5,0.24647331273953124,0,0,262.921198656826,505.9540047363749,756.581770262167,769.4617703766079,901.0892367800088,1019.7487686771602,1269.1607847691992,1309.1607847691992,1309.1607847691992,0,0,0.9773684200487639,0.998920000076294,0.9838409098711881,1,0.988100004196167,0.9882222281561958,0.29193243336033176,0,0,1,1,1,1,1,1,1,1,1,1,1,0.9511999924977621,0.8618749976158142,0.9773684200487639,0.998920000076294,0.9838409098711881,1,0.988100004196167,0.9882222281561958,0.29193243336033176,0,0,1,1,1,1,0.9999999999999999,1,0.9999999999999999,0.9999999999999999,0.9999999999999999,0.9999999999999999,1,2019-05-24T12:00:00Z,2019-06-08T12:00:00Z,2019-06-12T12:00:00Z,2019-07-20T12:00:00Z,2019-08-14T12:00:00Z,2019-09-05T12:00:00Z,2019-09-06T12:00:00Z,2019-09-16T12:00:00Z,2019-09-25T12:00:00Z,2019-11-01T12:00:00Z,2019-11-09T12:00:00Z,2019-06-07T12:00:00Z,2019-06-11T12:00:00Z,2019-07-19T12:00:00Z,2019-08-13T12:00:00Z,2019-09-04T12:00:00Z,2019-09-05T12:00:00Z,2019-09-15T12:00:00Z,2019-09-24T12:00:00Z,2019-10-31T12:00:00Z,2019-11-08T12:00:00Z,2019-11-23T12:00:00Z,144,159,163,201,226,248,249,259,268,305,313,15,4,38,25,22,1,10,9,37,8,15,158,162,200,225,247,248,258,267,304,312,327
44,44,columbia_mo,38.8894,-92.2081,4.5,2019-06-03,23,2019,mid4,1562.3288766142516,11,2019-05-20,2019-06-03,125,2019-10-06,2019-10-11,2019-10-25,Harvested at Maturity.,7.129999876022339,5.7499998807907104,3.655526285500903,2.8304165907514593,6.061499984562397,0.6100000143051147,4.765000081993639,3.720000002119276,4.348947372189478,0.6440000057220459,3.9673333754142126,7.129999876022339,5.7499998807907104,3.655526285500903,2.8304165907514593,6.061499984562397,0.6100000143051147,4.765000081993639,3.720000002119276,4.348947372189478,0.6440000057220459,3.9673333754142126,20.832000096638996,24.53499984741211,22.43552637727637,24.559583107630413,17.451499938964844,23.06999969482422,18.00499999523163,19.145555284288193,15.355789397892199,12.18000020980835,12.08666664759318,26.078666814168294,28.90499973297119,27.79184210927863,30.411666711171467,30.915500164031982,26.520000457763672,27.8560001373291,29.807777616712784,28.788421028538753,21.544000244140626,17.22066656748454,20.98266665140788,24.31500005722046,23.360263146852194,25.12312505642573,25.913500118255616,22.135000228881836,22.29800009727478,24.594999843173557,23.393157933887682,14.961000061035156,10.829999991257985,15.886666488647462,19.725000381469727,18.928684184425755,19.834583401679993,20.91150007247925,17.75,16.74000005722046,19.38222206963433,17.99789483923661,8.377999877929687,4.439333415031433,11.012417277703683,14.315000057220459,7.025657055345503,9.76982654405228,13.27613685772065,12.135000228881836,12.269917494958044,14.281069282544983,12.959019288263509,7.0508153027474885,2.183031569640463,11.012417277703683,14.315000057220459,7.025657055345503,9.76982654405228,13.27613685772065,12.135000228881836,12.269917494958044,14.281069282544983,12.959019288263509,7.0508153027474885,2.183031569640463,0,0,266.97496810312913,501.45080516038377,766.9735423147969,779.1085425436787,901.8077174932592,1030.337341036164,1276.5587075131702,1311.8127840269076,1311.8127840269076,0,0,0.9675394735838238,0.9989375074704488,0.9976500034332275,1,0.9969499969482422,1,0.9356052649648566,0.4961000061035156,0.04459999720255534,1,1,1,1,1,1,1,1,1,1,1,0.9134333356221517,1,0.9675394735838238,0.9989375074704488,0.9976500034332275,1,0.9969499969482422,1,0.9356052649648566,0.4961000061035156,0.16296666781107585,1,1,1,1,1,0.9999999999999998,1,1,0.9999999999999999,1,1,2019-05-20T12:00:00Z,2019-06-04T12:00:00Z,2019-06-06T12:00:00Z,2019-07-14T12:00:00Z,2019-08-07T12:00:00Z,2019-08-27T12:00:00Z,2019-08-28T12:00:00Z,2019-09-07T12:00:00Z,2019-09-16T12:00:00Z,2019-10-05T12:00:00Z,2019-10-10T12:00:00Z,2019-06-03T12:00:00Z,2019-06-05T12:00:00Z,2019-07-13T12:00:00Z,2019-08-06T12:00:00Z,2019-08-26T12:00:00Z,2019-08-27T12:00:00Z,2019-09-06T12:00:00Z,2019-09-15T12:00:00Z,2019-10-04T12:00:00Z,2019-10-09T12:00:00Z,2019-10-24T12:00:00Z,140,155,157,195,219,239,240,250,259,278,283,15,2,38,24,20,1,10,9,19,5,15,154,156,194,218,238,239,249,258,277,282,297
45,45,portagevilleclay_mo,36.3987,-88.6051,4.5,2019-05-16,29,2019,mid4,1590.5012916262592,11,2019-05-02,2019-05-16,120,2019-09-13,2019-09-16,2019-09-30,Harvested at Maturity.,3.3806666880846024,0.19499999284744263,3.4781818177663917,4.814799948707223,3.423913100896322,0.05999999865889549,0.18000000135766137,6.460000047460198,0.8117647240047945,0.006666666517655053,0.5933333463966847,3.3806666880846024,0.19499999284744263,3.4781818177663917,4.814799948707223,3.423913100896322,0.05999999865889549,0.18000000135766137,6.460000047460198,0.8117647240047945,0.006666666517655053,0.5933333463966847,16.880666764577228,27.69499969482422,22.01363621336041,23.02800018310547,22.6730434583581,17.280000686645508,22.42777771419949,18.87125015258789,21.166470583747415,21.21999994913737,17.558000087738037,22.75799992879232,28.585000038146973,27.56939390933875,29.872000045776367,29.580869425898012,29.059999465942383,31.31111102634006,31.197499752044678,31.721176484051874,34.63666788736979,33.031333669026694,17.90366662343343,23.875,23.16575749715169,25.980000076293944,24.868478173794955,23.854999542236328,26.633333206176758,26.345624804496765,25.636176389806412,28.33166726430257,26.471666781107587,13.049333318074543,19.164999961853027,18.762121084964637,22.088000106811524,20.156086921691895,18.649999618530273,21.955555386013454,21.493749856948853,19.55117629556095,22.02666664123535,19.911999893188476,7.937285188885133,13.874999999999998,8.31533081577547,9.601124562059681,11.029869531633825,11.859164106467349,14.343208873591845,14.775187728467664,14.328339602818208,14.67546809017261,13.112903856907685,7.937285188885133,13.874999999999998,8.31533081577547,9.601124562059681,11.029869531633825,11.859164106467349,14.343208873591845,14.775187728467664,14.328339602818208,14.67546809017261,13.112903856907685,0,0,262.15591692059047,502.1840309720826,755.8710301996607,767.730194306128,896.8190741684548,1015.020575996196,1258.6023492441057,1302.6287535146234,1302.6287535146234,0,0,0.9588181828007554,1,1,1,1,1,1,1,0.06666666666666667,1,1,1,1,1,1,1,1,1,1,1,0.7402000045776368,1,0.9891212131037856,1,1,1,1,1,1,1,1,1,1,1,0.9999999999999999,1,0.9999999999999998,1,1,0.9999999999999999,1,1,2019-05-02T12:00:00Z,2019-05-17T12:00:00Z,2019-05-19T12:00:00Z,2019-06-21T12:00:00Z,2019-07-16T12:00:00Z,2019-08-08T12:00:00Z,2019-08-09T12:00:00Z,2019-08-18T12:00:00Z,2019-08-26T12:00:00Z,2019-09-12T12:00:00Z,2019-09-15T12:00:00Z,2019-05-16T12:00:00Z,2019-05-18T12:00:00Z,2019-06-20T12:00:00Z,2019-07-15T12:00:00Z,2019-08-07T12:00:00Z,2019-08-08T12:00:00Z,2019-08-17T12:00:00Z,2019-08-25T12:00:00Z,2019-09-11T12:00:00Z,2019-09-14T12:00:00Z,2019-09-29T12:00:00Z,122,137,139,172,197,220,221,230,238,255,258,15,2,33,25,23,1,9,8,17,3,15,136,138,171,196,219,220,229,237,254,257,272
46,46,portagevilleloam_mo,36.39516667,-89.6102,4.5,2019-05-14,30,2019,mid4,1574.9351246861308,11,2019-04-30,2019-05-14,119,2019-09-10,2019-09-13,2019-09-27,Harvested at Maturity.,3.5686666247745356,5.386666569237908,3.173870941503875,4.423999976888299,4.478695651111395,0.01999999955296516,1.3144444560425148,2.7237499663606286,2.3082352793392014,0,0.7446666549891233,3.5686666247745356,5.386666569237908,3.173870941503875,4.423999976888299,4.478695651111395,0.01999999955296516,1.3144444560425148,2.7237499663606286,2.3082352793392014,0,0.7446666549891233,15.814000097910563,25.3000005086263,22.507096813571067,23.75240001678467,22.228260724440865,25.18000030517578,19.862221823798286,20.648749947547913,20.313529519473807,19.143333435058594,18.463999875386556,22.324000040690105,28.076666514078777,27.780967712402344,30.199599990844728,29.42826088615086,30.6200008392334,30.540000279744465,31.048750162124634,29.360000161563647,33.269999186197914,31.87533302307129,17.967333380381266,22.474999745686848,23.46612899534164,26.35219997406006,25.185217484183934,25.635000228881836,26.32611115773519,26.445625066757202,24.625,27.35666624704997,26.04599978129069,13.610666720072429,16.873332977294922,19.151290278280936,22.50479995727539,20.942174082217008,20.649999618530273,22.11222203572591,21.84249997138977,19.889999838436353,21.44333330790202,20.21666653951009,7.998161338007847,12.47499974568685,8.491279891128027,9.643704376076741,10.826339867981206,12.830509271409005,14.003567538753714,15.269792960338371,14.399809543463062,15.210710856298606,13.476736706135274,7.998161338007847,12.47499974568685,8.491279891128027,9.643704376076741,10.826339867981206,12.830509271409005,14.003567538753714,15.269792960338371,14.399809543463062,15.210710856298606,13.476736706135274,0,0,263.22967662496876,504.3222860268872,753.3281029904548,766.1586122618638,892.1907201106472,1014.3490637933542,1259.145826032226,1304.7779586011218,1304.7779586011218,0,0,0.9952741945943525,1,1,1,1,1,1,1,0.06666666666666667,1,1,1,1,1,1,1,1,1,1,1,0.7412999979654948,0.9966666539510092,0.9952741945943525,1,1,1,1,1,1,1,1,1,1,1,0.9999999999999999,1,0.9999999999999998,1,0.9999999999999999,1,1,1,2019-04-30T12:00:00Z,2019-05-15T12:00:00Z,2019-05-18T12:00:00Z,2019-06-18T12:00:00Z,2019-07-13T12:00:00Z,2019-08-05T12:00:00Z,2019-08-06T12:00:00Z,2019-08-15T12:00:00Z,2019-08-23T12:00:00Z,2019-09-09T12:00:00Z,2019-09-12T12:00:00Z,2019-05-14T12:00:00Z,2019-05-17T12:00:00Z,2019-06-17T12:00:00Z,2019-07-12T12:00:00Z,2019-08-04T12:00:00Z,2019-08-05T12:00:00Z,2019-08-14T12:00:00Z,2019-08-22T12:00:00Z,2019-09-08T12:00:00Z,2019-09-11T12:00:00Z,2019-09-26T12:00:00Z,120,135,138,169,194,217,218,227,235,252,255,15,3,31,25,23,1,9,8,17,3,15,134,137,168,193,216,217,226,234,251,254,269
47,47,shelly_mn,47.4264,-96.8317,0.5,2019-05-20,31,2019,mid0,950.5301682806688,11,2019-05-06,2019-05-20,119,2019-09-16,2019-09-25,2019-10-09,Harvested at Maturity.,1.4919999983161687,3.723333252800835,3.784390188299301,1.5858823661418522,2.3880000518634916,0.03999999910593033,2.938750032102689,3.568888877828916,5.266666654342164,4.162222090694639,4.467333371937275,1.4919999983161687,3.723333252800835,3.784390188299301,1.5858823661418522,2.3880000518634916,0.03999999910593033,2.938750032102689,3.568888877828916,5.266666654342164,4.162222090694639,4.467333371937275,20.976666577657063,18.39666657977634,21.90000006047691,24.294118095846738,20.179999899864196,23.809999465942383,21.75375008583069,14.252222326066759,11.607500116030375,15.23777781592475,8.646666669845581,16.461333401997884,19.604444291856556,26.00853664119069,27.855882308062384,27.5080002784729,27.84000015258789,25.19000005722046,22.580000347561306,20.010833263397217,26.341111289130318,15.235999933878581,10.194000003735225,13.323888858159384,19.540975692795545,22.264705798205206,21.449000120162964,20.260000228881836,18.67249995470047,17.07944467332628,14.778749922911327,20.09388907750448,10.080333282550177,3.9266666054725645,7.0433334244622126,13.073414744400397,16.67352928834803,15.389999961853027,12.68000030517578,12.154999852180481,11.578888999091255,9.546666582425436,13.846666865878635,4.924666631221771,2.3015881476790456,3.9597254929701484,6.932126422747853,9.819976474278162,10.56494735912207,10.260000228881838,9.332298440249264,8.01488670895497,6.6960243555679915,10.62041321671605,1.5531657128089418,2.3015881476790456,3.9597254929701484,6.932126422747853,9.819976474278162,10.56494735912207,10.260000228881838,9.332298440249264,8.01488670895497,6.6960243555679915,10.62041321671605,1.5531657128089418,0,0,284.21718333266193,451.15678339539073,662.4557305778322,672.7157308067141,747.3741183287082,819.5080987093029,899.8603909761189,995.4441099265632,995.4441099265632,0,0,0.8367682997773334,0.9863235305337344,0.9426750016212464,1,0.8355625033378602,0.7079444673326281,0.4778749922911326,0.8661111248864068,0.05086666425069174,1,1,1,1,1,1,1,1,1,1,1,0.15283333460489912,0.34077777597639297,0.8367682997773334,0.9863235305337344,0.9426750016212464,1,0.8355625033378602,0.7079444673326281,0.4778749922911326,0.8661111248864068,0.13673333326975506,1,1,1,0.9999999999999999,0.9999999999999999,0.9999999999999998,1,0.9999999999999999,1,1,1,2019-05-06T12:00:00Z,2019-05-21T12:00:00Z,2019-05-30T12:00:00Z,2019-07-10T12:00:00Z,2019-07-27T12:00:00Z,2019-08-16T12:00:00Z,2019-08-17T12:00:00Z,2019-08-25T12:00:00Z,2019-09-03T12:00:00Z,2019-09-15T12:00:00Z,2019-09-24T12:00:00Z,2019-05-20T12:00:00Z,2019-05-29T12:00:00Z,2019-07-09T12:00:00Z,2019-07-26T12:00:00Z,2019-08-15T12:00:00Z,2019-08-16T12:00:00Z,2019-08-24T12:00:00Z,2019-09-02T12:00:00Z,2019-09-14T12:00:00Z,2019-09-23T12:00:00Z,2019-10-08T12:00:00Z,126,141,150,191,208,228,229,237,246,258,267,15,9,41,17,20,1,8,9,12,9,15,140,149,190,207,227,228,236,245,257,266,281
48,48,wanatah_in,41.4444,-86.9437,1.5,2019-06-03,20,2019,mid1,829.0695243316303,11,2019-05-20,2019-06-03,99,2019-09-10,2019-09-17,2019-10-01,Harvested at Maturity.,5.5699999034404755,1.730000008828938,4.065757567119418,2.3988888680727944,2.1046666127940017,1.950000047683716,4.295999991893769,0.6528571495520217,1.5814286027369755,4.407142817974091,8.247333604097367,5.5699999034404755,1.730000008828938,4.065757567119418,2.3988888680727944,2.1046666127940017,1.950000047683716,4.295999991893769,0.6528571495520217,1.5814286027369755,4.407142817974091,8.247333604097367,19.72799997329712,22.15000009536743,21.482121221946947,23.21000009112888,22.2793332417806,16.290000915527344,15.681999778747558,20.0142856325422,15.393571547099523,15.999999591282435,13.821333154042561,21.47133305867513,25.042500019073486,25.559697006687973,27.92777771419949,27.463999938964843,28.43000030517578,27.27400016784668,26.777142933436803,25.200714383806503,27.90285737173898,26.17866668701172,16.478333218892416,19.399999976158142,20.911515163652826,23.622499995761448,22.687333234151204,24.28499984741211,23.346000099182127,21.924285752432688,20.11964283670698,22.866428715842112,21.204000155131023,11.4853333791097,13.757499933242798,16.263333320617676,19.317222277323406,17.910666529337565,20.13999938964844,19.41800003051758,17.071428571428573,15.038571289607457,17.83000005994524,16.229333623250326,6.648210640417338,9.399999976158142,8.475791177247757,11.60723028464368,12.281153907352136,14.28499984741211,13.34600009918213,11.991985078735011,10.203713836963262,12.8917612253138,10.427944652039608,6.648210640417338,9.399999976158142,8.475791177247757,11.60723028464368,12.281153907352136,14.28499984741211,13.34600009918213,11.991985078735011,10.203713836963262,12.8917612253138,10.427944652039608,0,0,279.70110884917597,488.6312539727621,672.8485625830441,687.1335624304562,753.8635629263669,837.8074584775119,980.6594521949976,1070.901780772194,1070.901780772194,0,0,0.8850757613326564,0.994666666454739,0.9975333309173584,1,1,0.9657142911638532,0.9397142887115478,1,0.06666666666666667,1,1,1,1,1,1,1,1,1,1,1,0.6421999883651733,0.9359999895095825,0.8850757613326564,0.994666666454739,0.9975333309173584,1,1,0.9657142911638532,0.9397142887115478,1,0.9587000020345052,1,1,1,1,0.9999999999999999,1,0.9999999999999999,1,1,1,1,2019-05-20T12:00:00Z,2019-06-04T12:00:00Z,2019-06-08T12:00:00Z,2019-07-11T12:00:00Z,2019-07-29T12:00:00Z,2019-08-13T12:00:00Z,2019-08-14T12:00:00Z,2019-08-19T12:00:00Z,2019-08-26T12:00:00Z,2019-09-09T12:00:00Z,2019-09-16T12:00:00Z,2019-06-03T12:00:00Z,2019-06-07T12:00:00Z,2019-07-10T12:00:00Z,2019-07-28T12:00:00Z,2019-08-12T12:00:00Z,2019-08-13T12:00:00Z,2019-08-18T12:00:00Z,2019-08-25T12:00:00Z,2019-09-08T12:00:00Z,2019-09-15T12:00:00Z,2019-09-30T12:00:00Z,140,155,159,192,210,225,226,231,238,252,259,15,4,33,18,15,1,5,7,14,7,15,154,158,191,209,224,225,230,237,251,258,273
49,49,saginaw_mi,43.4003,-83.8684,1.5,2019-06-08,32,2019,mid1,825.261967563024,11,2019-05-25,2019-06-08,117,2019-10-03,2019-10-20,2019-11-03,Harvested at Maturity.,3.572666712105274,8.037500068545341,2.6729411655927406,1.6310000070370734,1.7683333552752931,0.05999999865889549,1.7755555618140433,6.087777769193053,4.639999963808805,4.304705757866888,5.4753333824376265,3.572666712105274,8.037500068545341,2.6729411655927406,1.6310000070370734,1.7683333552752931,0.05999999865889549,1.7755555618140433,6.087777769193053,4.639999963808805,4.304705757866888,5.4753333824376265,20.407333215077717,15.37250006198883,22.819705752765433,23.22049984931946,19.451111157735188,16.100000381469727,16.843333138359917,11.48444456524319,12.556874990463257,10.277058811748729,7.617333300908406,20.545333353678384,19.329999923706055,25.675588102901685,25.859500122070312,24.877222273084854,22.270000457763672,22.631110933091904,22.430000093248154,23.054374873638153,14.976470778970157,11.455999946594238,14.809666649500528,14.686250001192093,20.838970562990973,21.43150007724762,20.68638894293043,18.53000020980835,17.94722212685479,18.367222362094456,18.640624910593033,10.654705994269428,7.4643332928419115,9.073999945322672,10.042500078678131,16.002353023080264,17.003500032424927,16.495555612776016,14.789999961853027,13.263333320617676,14.304444630940756,14.226874947547913,6.3329412095686966,3.472666639089584,4.99088470971644,4.765294670894369,8.196641220059814,10.251417718401095,10.671539430983007,8.53000020980835,8.255924435128106,8.668028883181679,8.994853860506042,5.376395818658086,0.6681307569060971,4.99088470971644,4.765294670894369,8.196641220059814,10.251417718401095,10.671539430983007,8.53000020980835,8.255924435128106,8.668028883181679,8.994853860506042,5.376395818658086,0.6681307569060971,0,0,278.68580148203364,483.7141558500555,675.8018656077496,684.331865817558,758.6351857337108,836.647445682346,980.565107450443,1071.9638363676302,1071.9638363676302,0,0,0.9092941101859597,0.979450011253357,0.9460555526945327,0.853000020980835,0.7947222126854792,0.8081111272176107,0.8148749858140946,0.1691470693139469,0,1,1,1,1,1,1,1,1,1,1,1,0.4809666649500529,0.4686250001192093,0.9092941101859597,0.979450011253357,0.9460555526945327,0.853000020980835,0.7947222126854792,0.8081111272176107,0.8148749858140946,0.1691470693139469,0.030433327356974283,1,1,1,1,1,0.9999999999999998,0.9999999999999999,0.9999999999999999,1,1,1,2019-05-25T12:00:00Z,2019-06-09T12:00:00Z,2019-06-17T12:00:00Z,2019-07-21T12:00:00Z,2019-08-10T12:00:00Z,2019-08-28T12:00:00Z,2019-08-29T12:00:00Z,2019-09-07T12:00:00Z,2019-09-16T12:00:00Z,2019-10-02T12:00:00Z,2019-10-19T12:00:00Z,2019-06-08T12:00:00Z,2019-06-16T12:00:00Z,2019-07-20T12:00:00Z,2019-08-09T12:00:00Z,2019-08-27T12:00:00Z,2019-08-28T12:00:00Z,2019-09-06T12:00:00Z,2019-09-15T12:00:00Z,2019-10-01T12:00:00Z,2019-10-18T12:00:00Z,2019-11-02T12:00:00Z,145,160,168,202,222,240,241,250,259,275,292,15,8,34,20,18,1,9,9,16,17,15,159,167,201,221,239,240,249,258,274,291,306
50,50,danvers_mn,45.2803,-95.7591,1.5,2019-05-26,33,2019,mid1,998.9860444981572,11,2019-05-12,2019-05-26,126,2019-09-29,2019-10-15,2019-10-29,Harvested at Maturity.,4.330666578933597,1.4880000408738852,3.497560983614587,2.9990909785370934,3.288000030070543,0,2.3388888316435943,5.613999964669347,4.036250055884011,3.9518750915303826,2.505333381767074,4.330666578933597,1.4880000408738852,3.497560983614587,2.9990909785370934,3.288000030070543,0,2.3388888316435943,5.613999964669347,4.036250055884011,3.9518750915303826,2.505333381767074,18.599999745686848,21.297999954223634,21.877804872466296,22.249999913302336,21.078999972343446,21.950000762939453,16.357777966393364,13.935000085830689,13.353749841451645,8.144999966025352,9.187999979654949,17.950666681925455,23.771999740600588,25.139756132916705,27.183181849392977,25.9064998626709,23.989999771118164,22.18777804904514,22.607000160217286,23.414375007152557,14.066875010728836,10.898000073432922,12.201999994119008,16.53899989128113,19.7264634050974,22.033181862397626,20.161499881744383,17.34499979019165,17.33000013563368,17.11850004196167,17.857187435030937,8.97499999741558,5.182000022133192,6.453333306312561,9.306000041961669,14.3131706772781,16.883181875402276,14.416499900817872,10.699999809265137,12.472222222222221,11.629999923706055,12.299999862909317,3.8831249841023237,-0.5340000291665395,3.274028172366023,6.92985845106721,6.713626411485584,9.497500987152549,9.75951411243306,7.34499979019165,7.988476998975543,7.9825411769664285,9.013187342673168,5.66789177147299,0.7122396501833325,3.274028172366023,6.92985845106721,6.713626411485584,9.497500987152549,9.75951411243306,7.34499979019165,7.988476998975543,7.9825411769664285,9.013187342673168,5.66789177147299,0.7122396501833325,0,0,275.25868287090896,484.2037045882649,679.393986836926,686.7389866271177,758.6352796178976,838.460691387562,982.6716888703328,1073.3579572139008,1073.3579572139008,0,0,0.8671463402306162,0.9596818165345625,0.9297999978065491,0.7344999790191651,0.7330000135633681,0.7057000064849854,0.7024374976754189,0.14884375333786012,0,1,1,1,1,1,1,1,1,1,1,1,0.2603333314259847,0.6141999864578247,0.8671463402306162,0.9596818165345625,0.9297999978065491,0.7344999790191651,0.7330000135633681,0.7057000064849854,0.7024374976754189,0.14884375333786012,0.020866667429606123,1,1,1,0.9999999999999999,1,1,1,1,1,1,1,2019-05-12T12:00:00Z,2019-05-27T12:00:00Z,2019-06-01T12:00:00Z,2019-07-12T12:00:00Z,2019-08-03T12:00:00Z,2019-08-23T12:00:00Z,2019-08-24T12:00:00Z,2019-09-02T12:00:00Z,2019-09-12T12:00:00Z,2019-09-28T12:00:00Z,2019-10-14T12:00:00Z,2019-05-26T12:00:00Z,2019-05-31T12:00:00Z,2019-07-11T12:00:00Z,2019-08-02T12:00:00Z,2019-08-22T12:00:00Z,2019-08-23T12:00:00Z,2019-09-01T12:00:00Z,2019-09-11T12:00:00Z,2019-09-27T12:00:00Z,2019-10-13T12:00:00Z,2019-10-28T12:00:00Z,132,147,152,193,215,235,236,245,255,271,287,15,5,41,22,20,1,9,10,16,16,15,146,151,192,214,234,235,244,254,270,286,301
51,51,morris_mn,45.3552,-95.5436,1.5,2019-05-30,34,2019,mid1,941.1228878405536,11,2019-05-16,2019-05-30,125,2019-10-02,2019-10-18,2019-11-01,Harvested at Maturity.,4.681333260734876,0.5150000052526593,3.576000007381663,2.9931818881834094,3.2790000298060478,5.179999828338623,3.15599992275238,7.903000156953931,2.5468749828869477,3.0393750711809844,2.506666715567311,4.681333260734876,0.5150000052526593,3.576000007381663,2.9931818881834094,3.2790000298060478,5.179999828338623,3.15599992275238,7.903000156953931,2.5468749828869477,3.0393750711809844,2.506666715567311,17.983999888102215,25.550000190734863,21.653999948501585,22.222272699529476,20.84300000667572,7.71999979019165,17.44600028991699,11.244999933242799,13.155624866485596,8.005624994635582,9.609999974568685,18.491333389282225,25.112500190734863,25.382499980926514,27.220909118652344,25.47549991607666,20.75,22.334000205993654,22.18700008392334,23.265625059604645,11.97812506556511,9.35933333237966,12.703000017007192,18.041250109672546,20.086999970674515,22.062272743745282,19.70874991416931,17.755000114440918,16.92450008392334,16.69650001525879,17.521562471985817,7.157500018947758,3.9899999886751174,6.914666644732157,10.97000002861023,14.791499960422517,16.903636368838225,13.941999912261963,14.760000228881836,11.514999961853027,11.205999946594238,11.77749988436699,2.3368749723304063,-1.379333355029424,3.6922745639878514,8.055259032461047,6.960886056073333,9.690898470421926,9.438039628350209,7.755000114440919,7.843043444140553,7.752804632717967,8.953917222731189,5.309550880177319,0.619367770948112,3.6922745639878514,8.055259032461047,6.960886056073333,9.690898470421926,9.438039628350209,7.755000114440919,7.843043444140553,7.752804632717967,8.953917222731189,5.309550880177319,0.619367770948112,0,0,278.4354422429334,491.63520859221575,680.39600115922,688.1510012736609,766.5814357150665,844.1094820422462,987.3721576059452,1072.3249716887824,1072.3249716887824,0,0,0.8869374972581864,0.9596818165345625,0.9149749970436096,0.7755000114440919,0.6924500083923341,0.6635000038146973,0.6710000023245811,0.07715625166893006,0,1,1,1,1,1,1,1,1,1,1,1,0.3065999984741211,0.768875014781952,0.8869374972581864,0.9596818165345625,0.9149749970436096,0.7755000114440919,0.6924500083923341,0.6635000038146973,0.6710000023245811,0.07715625166893006,0.020866667429606123,1,1,1,1,0.9999999999999999,1,0.9999999999999999,1,0.9999999999999999,0.9999999999999999,1,2019-05-16T12:00:00Z,2019-05-31T12:00:00Z,2019-06-04T12:00:00Z,2019-07-14T12:00:00Z,2019-08-05T12:00:00Z,2019-08-25T12:00:00Z,2019-08-26T12:00:00Z,2019-09-05T12:00:00Z,2019-09-15T12:00:00Z,2019-10-01T12:00:00Z,2019-10-17T12:00:00Z,2019-05-30T12:00:00Z,2019-06-03T12:00:00Z,2019-07-13T12:00:00Z,2019-08-04T12:00:00Z,2019-08-24T12:00:00Z,2019-08-25T12:00:00Z,2019-09-04T12:00:00Z,2019-09-14T12:00:00Z,2019-09-30T12:00:00Z,2019-10-16T12:00:00Z,2019-10-31T12:00:00Z,136,151,155,195,217,237,238,248,258,274,290,15,4,40,22,20,1,10,10,16,16,15,150,154,194,216,236,237,247,257,273,289,304
52,52,pontiac_il,40.82216667,-88.62016667,2.5,2019-06-07,35,2019,mid2,920.391899230235,11,2019-05-24,2019-06-07,104,2019-09-19,2019-09-25,2019-10-09,Harvested at Maturity.,4.76333331502974,0.23500000592321157,5.247142839245498,2.0308695672808783,1.5364285623654723,4.340000152587891,2.972857109137944,2.4249999546445906,3.549999976201969,4.8716666748126345,8.698000156258543,4.76333331502974,0.23500000592321157,5.247142839245498,2.0308695672808783,1.5364285623654723,4.340000152587891,2.972857109137944,2.4249999546445906,3.549999976201969,4.8716666748126345,8.698000156258543,21.66400006612142,23.22250008583069,20.68642863205501,24.491304397583008,22.240714277539933,18.88999938964844,16.48285688672747,18.301249861717224,16.94058839012595,15.053333123524984,13.980666573842367,25.732666778564454,25.25250005722046,26.938571453094482,28.425652213718582,27.741428783961705,28.059999465942383,27.01999991280692,24.930000066757202,27.00705887289608,26.528333346048992,23.649333318074543,20.836666679382326,19.883749961853027,22.06267855848585,23.660652305768885,22.804643188204086,23.00500011444092,22.96928562436785,19.678125023841858,21.65323526719037,21.84833335876465,18.09633329709371,15.940666580200196,14.514999866485596,17.186785663877213,18.895652397819187,17.867857592446462,17.950000762939453,18.91857133592878,14.426249980926514,16.299411661484662,17.16833337148031,12.543333276112874,10.836666679382324,9.883749961853027,8.351322532079191,10.73092835895672,12.125841281166982,13.005000114440918,12.99546715128592,9.819309465446324,11.638151877304736,11.85495125683546,7.596300951736172,10.836666679382324,9.883749961853027,8.351322532079191,10.73092835895672,12.125841281166982,13.005000114440918,12.99546715128592,9.819309465446324,11.638151877304736,11.85495125683546,7.596300951736172,0,0,233.8370308982174,480.6483831542219,650.4101610905597,663.4151612050006,754.3834312640021,832.9379069875725,1030.786488901753,1101.9161964427658,1101.9161964427658,0,0,0.9407500062670027,0.9896739171898884,1,1,0.982928568976266,0.9106249988079071,0.970058817021987,0.9769166628519694,0.06430000305175781,1,1,1,1,1,1,1,1,1,1,1,0.9676666704813639,0.9279999971389771,0.9407500062670027,0.9896739171898884,1,1,0.982928568976266,0.9106249988079071,0.970058817021987,0.9769166628519694,0.7174333302179973,1,1,1,1,0.9999999999999999,1,0.9999999999999999,1,1,0.9999999999999999,1,2019-05-24T12:00:00Z,2019-06-08T12:00:00Z,2019-06-12T12:00:00Z,2019-07-10T12:00:00Z,2019-08-02T12:00:00Z,2019-08-16T12:00:00Z,2019-08-17T12:00:00Z,2019-08-24T12:00:00Z,2019-09-01T12:00:00Z,2019-09-18T12:00:00Z,2019-09-24T12:00:00Z,2019-06-07T12:00:00Z,2019-06-11T12:00:00Z,2019-07-09T12:00:00Z,2019-08-01T12:00:00Z,2019-08-15T12:00:00Z,2019-08-16T12:00:00Z,2019-08-23T12:00:00Z,2019-08-31T12:00:00Z,2019-09-17T12:00:00Z,2019-09-23T12:00:00Z,2019-10-08T12:00:00Z,144,159,163,191,214,228,229,236,244,261,267,15,4,28,23,14,1,7,8,17,6,15,158,162,190,213,227,228,235,243,260,266,281
53,53,urbana_il,40.05325,-88.23485,2.5,2019-05-31,17,2019,mid2,893.1531857063311,11,2019-05-17,2019-05-31,101,2019-09-09,2019-09-14,2019-09-28,Harvested at Maturity.,6.061999984830618,0.12249999959021807,4.5442857615915795,1.8839130313338146,1.0335714453831315,0.03999999910593033,4.526666606155534,4.7016666779915495,2.890000024591299,0.9400000032037497,2.663333314905564,6.061999984830618,0.12249999959021807,4.5442857615915795,1.8839130313338146,1.0335714453831315,0.03999999910593033,4.526666606155534,4.7016666779915495,2.890000024591299,0.9400000032037497,2.663333314905564,19.355333455403645,22.65499973297119,21.038214325904846,24.242174065631367,24.517857142857142,27.709999084472656,17.56500005722046,15.108333110809326,18.50882350697237,15.886000442504884,15.438666502634684,25.504666646321613,25.632500171661377,26.33535725729806,29.11913059068763,28.47071443285261,27.81999969482422,28.91166655222575,29.05500030517578,26.60529405930463,29.591999816894532,28.972000249226888,20.87466662724813,19.738749980926514,21.700000047683716,24.334565224854842,23.113571439470565,22.72499942779541,23.918333133061726,25.269166946411133,21.0797059395734,24.30600004196167,22.683000214894612,16.24466660817464,13.84499979019165,17.06464283806937,19.54999985902206,17.756428446088517,17.6299991607666,18.924999713897705,21.483333587646484,15.55411781984217,19.02000026702881,16.394000180562337,10.916889675524235,9.738749980926514,8.30062839539429,10.94619227535852,11.787567508163521,12.252315717390152,13.76034049789928,15.092582666444779,11.15819115547117,13.789482664978504,11.681371963001887,10.916889675524235,9.738749980926514,8.30062839539429,10.94619227535852,11.787567508163521,12.252315717390152,13.76034049789928,15.092582666444779,11.15819115547117,13.789482664978504,11.681371963001887,0,0,232.4175950710401,484.18001740428616,649.2059625185753,661.4582782359655,744.0203212233612,834.5758172220299,1024.2650668650397,1093.2124801899322,1093.2124801899322,0,0,0.9454999991825649,0.997499998756077,1,1,1,1,0.9757647009456859,0.9907000160217285,0.06666666666666667,1,1,1,1,1,1,1,1,1,1,1,0.8957999928792317,0.934625005722046,0.9454999991825649,0.997499998756077,1,1,1,1,0.9757647009456859,0.9907000160217285,0.9874000040690104,1,1,0.9999999999999999,0.9999999999999999,0.9999999999999999,0.9999999999999998,0.9999999999999999,0.9999999999999999,0.9999999999999999,1,1,2019-05-17T12:00:00Z,2019-06-01T12:00:00Z,2019-06-05T12:00:00Z,2019-07-03T12:00:00Z,2019-07-26T12:00:00Z,2019-08-09T12:00:00Z,2019-08-10T12:00:00Z,2019-08-16T12:00:00Z,2019-08-22T12:00:00Z,2019-09-08T12:00:00Z,2019-09-13T12:00:00Z,2019-05-31T12:00:00Z,2019-06-04T12:00:00Z,2019-07-02T12:00:00Z,2019-07-25T12:00:00Z,2019-08-08T12:00:00Z,2019-08-09T12:00:00Z,2019-08-15T12:00:00Z,2019-08-21T12:00:00Z,2019-09-07T12:00:00Z,2019-09-12T12:00:00Z,2019-09-27T12:00:00Z,137,152,156,184,207,221,222,228,234,251,256,15,4,28,23,14,1,6,6,17,5,15,151,155,183,206,220,221,227,233,250,255,270
54,54,wanatah_in,41.4444,-86.9437,2.5,2019-06-03,20,2019,mid2,898.2911516273191,11,2019-05-20,2019-06-03,108,2019-09-19,2019-09-25,2019-10-09,Harvested at Maturity.,5.5699999034404755,1.730000008828938,4.082499991985969,2.3441666323536388,2.216428555814283,NA,2.7114285549947197,1.5762500411365181,2.3964705781682447,2.365000062932571,8.140666939442356,5.5699999034404755,1.730000008828938,4.082499991985969,2.3441666323536388,2.216428555814283,NA,2.7114285549947197,1.5762500411365181,2.3964705781682447,2.365000062932571,8.140666939442356,19.72799997329712,22.15000009536743,21.332499995827675,23.173750082651775,20.92214277812413,NA,16.742856979370117,19.323750138282776,14.828235149383545,15.534999688466389,12.575999895731607,21.47133305867513,25.042500019073486,25.375625014305115,27.635833263397217,28.036428587777273,NA,27.64428574698312,25.378750324249268,26.33529416252585,27.668333689371746,22.95799992879232,16.478333218892416,19.399999976158142,20.74312500655651,23.224791646003723,23.36214276722499,NA,23.43357147489275,20.088750064373016,21.310294151306152,22.550833622614544,18.14000007311503,11.4853333791097,13.757499933242798,16.110624998807907,18.81375002861023,18.687856946672714,NA,19.222857202802384,14.798749804496765,16.285294140086453,17.43333355585734,13.322000217437743,6.648210640417338,9.399999976158142,7.311741596363183,10.329888205517808,12.638838376746474,NA,13.433571474892751,10.196490009862185,11.36713516837043,12.526528179145853,7.625346916968425,6.648210640417338,9.399999976158142,7.311741596363183,10.329888205517808,12.638838376746474,NA,13.433571474892751,10.196490009862185,11.36713516837043,12.526528179145853,7.625346916968425,0,0,233.97573108362187,481.8930480160493,658.8367852905002,NA,752.8717856147495,834.4437056936468,1027.685003555944,1102.8441726308192,1102.8441726308192,0,0,0.881484378874302,0.9944583316644033,1,NA,0.9971428530556815,0.9456250131130219,0.9630000002243939,0.9832500060399374,0.05846666653951009,1,1,1,1,1,NA,1,1,1,1,1,0.6421999883651733,0.9359999895095825,0.881484378874302,0.9944583316644033,1,NA,0.9971428530556815,0.9456250131130219,0.9630000002243939,0.9832500060399374,0.7464666668574016,1,1,1,1,0.9999999999999999,NA,0.9999999999999998,1,1,1,1,2019-05-20T12:00:00Z,2019-06-04T12:00:00Z,2019-06-08T12:00:00Z,2019-07-10T12:00:00Z,2019-08-03T12:00:00Z,NA,2019-08-17T12:00:00Z,2019-08-24T12:00:00Z,2019-09-01T12:00:00Z,2019-09-18T12:00:00Z,2019-09-24T12:00:00Z,2019-06-03T12:00:00Z,2019-06-07T12:00:00Z,2019-07-09T12:00:00Z,2019-08-02T12:00:00Z,2019-08-16T12:00:00Z,NA,2019-08-23T12:00:00Z,2019-08-31T12:00:00Z,2019-09-17T12:00:00Z,2019-09-23T12:00:00Z,2019-10-08T12:00:00Z,140,155,159,191,215,NA,229,236,244,261,267,15,4,32,24,14,0,7,8,17,6,15,154,158,190,214,228,NA,235,243,260,266,281
55,55,britton_mi,41.9256,-83.8225,2.5,2019-06-09,36,2019,mid2,948.1707170726409,11,2019-05-26,2019-06-09,108,2019-09-25,2019-10-02,2019-10-16,Harvested at Maturity.,5.23599993661046,5.648333404834072,2.6124137915542414,3.0856521621184503,3.429230811504217,8.65999984741211,2.640000039944425,1.787777773415049,2.6405882049790197,6.755714404263666,2.817333356415232,5.23599993661046,5.648333404834072,2.6124137915542414,3.0856521621184503,3.429230811504217,8.65999984741211,2.640000039944425,1.787777773415049,2.6405882049790197,6.755714404263666,2.817333356415232,19.466666603088377,18.53166659673055,23.492758718030206,22.46826068214748,19.936923173757698,16.15999984741211,18.757499933242798,15.827777915530735,16.713529362398035,12.77714272907802,13.194666703542074,22.745332972208658,21.47333335876465,26.77137927351327,28.3034784068232,28.212307563194862,28.860000610351563,25.71375012397766,24.837777667575413,26.326470655553482,24.322857448032924,19.45999984741211,17.510333156585695,16.126666704813637,21.826379315606477,23.474347902380902,23.112307585202732,24.74000072479248,20.78062516450882,19.627777841356068,21.210294134476605,18.89142874308995,14.014666589101155,12.275333340962728,10.78000005086263,16.88137935769969,18.645217397938605,18.012307607210598,20.6200008392334,15.847500205039978,14.417778015136719,16.09411761339973,13.460000038146973,8.5693333307902,7.590663383098841,6.18168153666854,8.004260952941197,10.873630840361297,12.708488738279925,14.74000072479248,10.84959433605075,9.75552055195901,11.251377966666922,9.194595207225426,3.81163695702374,7.590663383098841,6.18168153666854,8.004260952941197,10.873630840361297,12.708488738279925,14.74000072479248,10.84959433605075,9.75552055195901,11.251377966666922,9.194595207225426,3.81163695702374,0,0,232.12356763529465,482.2170769636046,647.4274305612435,662.1674312860359,748.9641859744419,836.7638709420731,1028.037296375411,1092.3994628259893,1092.3994628259893,0,0,0.9460172423000993,0.9970434790072233,1,1,0.963937509059906,0.9266666677263048,0.9637647039750044,0.8573571545737131,0.06666666666666667,1,1,1,1,1,1,1,1,1,1,1,0.7487333202362061,0.6126666704813639,0.9460172423000993,0.9970434790072233,1,1,0.963937509059906,0.9266666677263048,0.9637647039750044,0.8573571545737131,0.40496665954589844,1,1,1,0.9999999999999999,1,1,1,1,1,0.9999999999999999,1,2019-05-26T12:00:00Z,2019-06-10T12:00:00Z,2019-06-16T12:00:00Z,2019-07-15T12:00:00Z,2019-08-07T12:00:00Z,2019-08-20T12:00:00Z,2019-08-21T12:00:00Z,2019-08-29T12:00:00Z,2019-09-07T12:00:00Z,2019-09-24T12:00:00Z,2019-10-01T12:00:00Z,2019-06-09T12:00:00Z,2019-06-15T12:00:00Z,2019-07-14T12:00:00Z,2019-08-06T12:00:00Z,2019-08-19T12:00:00Z,2019-08-20T12:00:00Z,2019-08-28T12:00:00Z,2019-09-06T12:00:00Z,2019-09-23T12:00:00Z,2019-09-30T12:00:00Z,2019-10-15T12:00:00Z,146,161,167,196,219,232,233,241,250,267,274,15,6,29,23,13,1,8,9,17,7,15,160,166,195,218,231,232,240,249,266,273,288
56,56,wooster_oh,40.7565,-81.9004,2.5,2019-05-22,37,2019,mid2,1012.3905696718322,11,2019-05-08,2019-05-22,115,2019-09-14,2019-09-21,2019-10-05,Harvested at Maturity.,2.2266666907817125,2.3999999929219484,6.1491891391877385,3.9837500345893204,1.7181249974528328,NA,4.128571425165449,2.1350000421516597,1.544705914114328,2.417142881878785,1.6019999833156666,2.2266666907817125,2.3999999929219484,6.1491891391877385,3.9837500345893204,1.7181249974528328,NA,4.128571425165449,2.1350000421516597,1.544705914114328,2.417142881878785,1.6019999833156666,18.57666670481364,18.522499799728394,21.184054065395046,22.771250009536743,23.037500202655792,NA,18.69714321408953,18.62250018119812,17.962941141689527,18.16857147216797,15.043333371480307,19.564666811625163,25.302500247955322,24.236756659842825,27.733750104904175,27.30062508583069,NA,28.161428724016464,25.93500018119812,26.272941252764532,27.16428647722517,27.4673334757487,13.888666756947835,19.418750166893005,19.265405364938683,23.212291657924652,22.402187436819077,NA,23.299999918256486,20.93687504529953,20.659705947427188,21.091428961072648,21.27000010808309,8.212666702270507,13.535000085830688,14.294054070034543,18.69083321094513,17.503749787807465,NA,18.43857111249651,15.93874990940094,15.046470642089844,15.01857144492013,15.07266674041748,4.643050551388264,9.418750166893005,6.512930736739359,10.018282148451469,11.17652165610575,NA,13.245140912157181,11.09566726559177,10.81051027258249,11.079543583049944,10.48065370141228,4.643050551388264,9.418750166893005,6.512930736739359,10.018282148451469,11.17652165610575,NA,13.245140912157181,11.09566726559177,10.81051027258249,11.079543583049944,10.48065370141228,0,0,240.97843725935627,481.4172088221917,660.2415553198837,NA,752.957541704984,841.7228798297181,1025.5015544636203,1103.0583595449698,1103.0583595449698,0,0,0.8403513502430272,0.9902291675408681,1,NA,1,0.9140625059604646,0.9539411797243006,0.9843571526663645,0.06666666666666667,1,1,1,1,1,NA,1,1,1,1,1,0.3893333355585734,0.8853749990463257,0.8403513502430272,0.9902291675408681,1,NA,1,0.9140625059604646,0.9539411797243006,0.9843571526663645,0.9271000003814697,1,1,0.9999999999999999,1,0.9999999999999999,NA,0.9999999999999998,1,0.9999999999999999,1,1,2019-05-08T12:00:00Z,2019-05-23T12:00:00Z,2019-05-27T12:00:00Z,2019-07-03T12:00:00Z,2019-07-27T12:00:00Z,NA,2019-08-12T12:00:00Z,2019-08-19T12:00:00Z,2019-08-27T12:00:00Z,2019-09-13T12:00:00Z,2019-09-20T12:00:00Z,2019-05-22T12:00:00Z,2019-05-26T12:00:00Z,2019-07-02T12:00:00Z,2019-07-26T12:00:00Z,2019-08-11T12:00:00Z,NA,2019-08-18T12:00:00Z,2019-08-26T12:00:00Z,2019-09-12T12:00:00Z,2019-09-19T12:00:00Z,2019-10-04T12:00:00Z,128,143,147,184,208,NA,224,231,239,256,263,15,4,37,24,16,0,7,8,17,7,15,142,146,183,207,223,NA,230,238,255,262,277
57,57,urbana_il,40.05325,-88.23485,3.5,2019-05-31,17,2019,mid3,1173.904183045128,11,2019-05-17,2019-05-31,114,2019-09-22,2019-09-27,2019-10-11,Harvested at Maturity.,6.061999984830618,0.12249999959021807,4.611818216741085,0.9138095173984766,2.403529405813007,0,4.669999973641501,3.4980000730603935,0.7394117638468742,3.1680000104010104,3.4033332493156196,6.061999984830618,0.12249999959021807,4.611818216741085,0.9138095173984766,2.403529405813007,0,4.669999973641501,3.4980000730603935,0.7394117638468742,3.1680000104010104,3.4033332493156196,19.355333455403645,22.65499973297119,21.174848542068943,24.718095325288317,22.51588232376996,22.3700008392334,17.535555203755695,16.789000034332275,17.497647061067468,13.510000038146973,13.40666659673055,25.504666646321613,25.632500171661377,26.807575861612957,28.98047637939453,28.610000049366672,27.399999618530273,27.937777837117515,26.948000144958495,29.29705877865062,27.912000274658205,25.609333419799803,20.87466662724813,19.738749980926514,22.222272757327918,24.02619050797962,23.338823458727667,22.47499942779541,23.79555575052897,21.54950017929077,22.94617650088142,22.779000282287598,19.449333477020264,16.24466660817464,13.84499979019165,17.63696965304288,19.07190463656471,18.067646868088666,17.549999237060547,19.65333366394043,16.151000213623046,16.59529422311222,17.64600028991699,13.289333534240724,10.916889675524235,9.738749980926514,7.38124133273858,9.653279967638918,11.496346890221009,11.89325257024384,13.570247883330289,11.576910558908581,12.756023824984185,12.796842267665863,8.873924930420717,10.916889675524235,9.738749980926514,7.38124133273858,9.653279967638918,11.496346890221009,11.89325257024384,13.570247883330289,11.576910558908581,12.756023824984185,12.796842267665863,8.873924930420717,0,0,243.5809639803732,446.29984330079054,641.7377404345478,653.6309930047917,775.7632239547643,891.53232954385,1108.3847345685813,1172.3689459069103,1172.3689459069103,0,0,0.9537575750639945,0.9972619033995129,1,1,0.9890000025431315,0.9884999990463257,0.9856176460490507,1,0.05586666742960612,1,1,1,1,1,1,1,1,1,1,1,0.8957999928792317,0.934625005722046,0.9537575750639945,0.9972619033995129,1,1,0.9890000025431315,0.9884999990463257,0.9856176460490507,1,0.7821666749318441,1,1,1,1,1,0.9999999999999998,1,0.9999999999999999,1,1,1,2019-05-17T12:00:00Z,2019-06-01T12:00:00Z,2019-06-05T12:00:00Z,2019-07-08T12:00:00Z,2019-07-29T12:00:00Z,2019-08-15T12:00:00Z,2019-08-16T12:00:00Z,2019-08-25T12:00:00Z,2019-09-04T12:00:00Z,2019-09-21T12:00:00Z,2019-09-26T12:00:00Z,2019-05-31T12:00:00Z,2019-06-04T12:00:00Z,2019-07-07T12:00:00Z,2019-07-28T12:00:00Z,2019-08-14T12:00:00Z,2019-08-15T12:00:00Z,2019-08-24T12:00:00Z,2019-09-03T12:00:00Z,2019-09-20T12:00:00Z,2019-09-25T12:00:00Z,2019-10-10T12:00:00Z,137,152,156,189,210,227,228,237,247,264,269,15,4,33,21,17,1,9,10,17,5,15,151,155,188,209,226,227,236,246,263,268,283
58,58,romney_in,40.2364,-86.8889,3.5,2019-06-08,38,2019,mid3,1148.7220234783515,11,2019-05-25,2019-06-08,114,2019-09-30,2019-10-04,2019-10-18,Harvested at Maturity.,3.203333373616139,3.462500125169754,4.400937501981389,2.4219999857246877,2.4981250264681876,9.010000228881836,3.9399999901652336,1.2290908878838473,1.7623529444065165,1.7099999855272472,1.4813333205878734,3.203333373616139,3.462500125169754,4.400937501981389,2.4219999857246877,2.4981250264681876,9.010000228881836,3.9399999901652336,1.2290908878838473,1.7623529444065165,1.7099999855272472,1.4813333205878734,21.701333618164064,19.855000019073486,22.47781240940094,23.10849986076355,20.41874998807907,11.210000038146973,18.900908946990967,16.062727494673297,16.04941182978013,12.597500085830688,13.702666918436686,25.911999893188476,23.725000381469727,27.445624947547913,27.748500251770018,28.142500162124634,29.34000015258789,25.69545468417081,26.720000180331144,28.527647242826575,30.40000009536743,20.44266675313314,21.349333222707113,19.047500133514404,22.800312504172325,23.055750060081483,23.497499972581863,25.980000495910645,20.795454588803377,21.187272895466197,22.377941355985755,25.108750104904175,13.589000060160954,16.78666655222575,14.369999885559082,18.155000060796738,18.362999868392944,18.852499783039093,22.6200008392334,15.895454493435945,15.654545610601252,16.228235469144934,19.817500114440918,6.735333367188772,11.349333222707113,9.047500133514404,7.7989464200602985,9.598875193510475,12.343529402165768,15.980000495910645,10.886616738344323,11.265322221360965,12.398631257003895,14.560345188701154,4.045966495765771,11.349333222707113,9.047500133514404,7.7989464200602985,9.598875193510475,12.343529402165768,15.980000495910645,10.886616738344323,11.265322221360965,12.398631257003895,14.560345188701154,4.045966495765771,0,0,249.5662854419296,441.54378931213904,639.0402597467913,655.020260242702,774.7730443644895,898.6915887994601,1109.468320168526,1167.709700923331,1167.709700923331,0,0,0.9593281269073486,0.9879499983787536,1,1,0.9650000052018599,0.9471363674510609,0.9834705913768095,1,0.058433335622151694,1,1,1,1,1,1,1,1,1,1,1,0.9712666734059652,0.8792500019073487,0.9593281269073486,0.9879499983787536,1,1,0.9650000052018599,0.9471363674510609,0.9834705913768095,1,0.3898333398501078,1,1,1,1,0.9999999999999999,1,0.9999999999999999,1,1,0.9999999999999999,1,2019-05-25T12:00:00Z,2019-06-09T12:00:00Z,2019-06-13T12:00:00Z,2019-07-15T12:00:00Z,2019-08-04T12:00:00Z,2019-08-20T12:00:00Z,2019-08-21T12:00:00Z,2019-09-01T12:00:00Z,2019-09-12T12:00:00Z,2019-09-29T12:00:00Z,2019-10-03T12:00:00Z,2019-06-08T12:00:00Z,2019-06-12T12:00:00Z,2019-07-14T12:00:00Z,2019-08-03T12:00:00Z,2019-08-19T12:00:00Z,2019-08-20T12:00:00Z,2019-08-31T12:00:00Z,2019-09-11T12:00:00Z,2019-09-28T12:00:00Z,2019-10-02T12:00:00Z,2019-10-17T12:00:00Z,145,160,164,196,216,232,233,244,255,272,276,15,4,32,20,16,1,11,11,17,4,15,159,163,195,215,231,232,243,254,271,275,290
59,59,wooster_oh,40.7565,-81.9004,3.5,2019-05-22,37,2019,mid3,1280.4997333169126,11,2019-05-08,2019-05-22,131,2019-09-30,2019-10-04,2019-10-18,Harvested at Maturity.,2.2266666907817125,2.3999999929219484,5.850952340422997,3.5527273047376764,2.460526317259983,8.869999885559082,2.0436364110897887,1.253636379472234,1.440526339372522,4.647499918937683,1.763333348557353,2.2266666907817125,2.3999999929219484,5.850952340422997,3.5527273047376764,2.460526317259983,8.869999885559082,2.0436364110897887,1.253636379472234,1.440526339372522,4.647499918937683,1.763333348557353,18.57666670481364,18.522499799728394,21.19523813610985,23.436363653703168,21.16263181284854,21.90999984741211,18.47090924869884,17.678181648254395,17.683157971030788,12.18500018119812,13.498666636149089,19.564666811625163,25.302500247955322,24.74047610873268,27.65863643993031,27.354210702996504,28.989999771118164,25.898181915283203,25.55272726579146,27.773684652228106,28.547500133514404,20.058666801452638,13.888666756947835,19.418750166893005,19.88309521334512,22.976818106391214,22.430526306754665,24.6899995803833,20.81500005722046,19.91590907356956,21.516842315071507,23.176250219345093,13.663000071048737,8.212666702270507,13.535000085830688,15.02571431795756,18.29499977285212,17.506841910512822,20.38999938964844,15.731818199157715,14.279090881347656,15.25999997791491,17.80500030517578,7.267333340644837,4.643050551388264,9.418750166893005,5.863254884233262,8.868881479052064,10.795456324295397,14.350350604434793,10.950853385626747,10.118891325196897,11.607390530387038,13.113139644965528,3.7784195679837467,4.643050551388264,9.418750166893005,5.863254884233262,8.868881479052064,10.795456324295397,14.350350604434793,10.950853385626747,10.118891325196897,11.607390530387038,13.113139644965528,3.7784195679837467,0,0,246.256705137797,441.3720976769424,646.485767838555,660.8361184429898,781.2955056848839,892.6033102620497,1113.1437303394032,1165.5962889192654,1165.5962889192654,0,0,0.8593571418807621,0.9893409100445834,1,1,0.9301818197423762,0.9361363714391535,0.9744736897317987,0.9966249942779541,0.06666666666666667,1,1,1,1,1,1,1,1,1,1,1,0.3893333355585734,0.8853749990463257,0.8593571418807621,0.9893409100445834,1,1,0.9301818197423762,0.9361363714391535,0.9744736897317987,0.9966249942779541,0.36263333678245546,1,1,1,1,0.9999999999999999,1,0.9999999999999999,0.9999999999999999,1,1,1,2019-05-08T12:00:00Z,2019-05-23T12:00:00Z,2019-05-27T12:00:00Z,2019-07-08T12:00:00Z,2019-07-30T12:00:00Z,2019-08-18T12:00:00Z,2019-08-19T12:00:00Z,2019-08-30T12:00:00Z,2019-09-10T12:00:00Z,2019-09-29T12:00:00Z,2019-10-03T12:00:00Z,2019-05-22T12:00:00Z,2019-05-26T12:00:00Z,2019-07-07T12:00:00Z,2019-07-29T12:00:00Z,2019-08-17T12:00:00Z,2019-08-18T12:00:00Z,2019-08-29T12:00:00Z,2019-09-09T12:00:00Z,2019-09-28T12:00:00Z,2019-10-02T12:00:00Z,2019-10-17T12:00:00Z,128,143,147,189,211,230,231,242,253,272,276,15,4,42,22,19,1,11,11,19,4,15,142,146,188,210,229,230,241,252,271,275,290
60,60,urbana_il,40.05325,-88.23485,4.5,2019-05-31,17,2019,mid4,1554.821417268009,11,2019-05-17,2019-05-31,143,2019-10-21,2019-10-29,2019-11-12,Harvested at Maturity.,6.061999984830618,0.12249999959021807,3.963571452934827,0.7996153970463918,4.82428571768105,0.23999999463558197,0.5470000006258487,1.05555555721124,2.8378571065009703,6.889999866019934,2.7093332956234613,6.061999984830618,0.12249999959021807,3.963571452934827,0.7996153970463918,4.82428571768105,0.23999999463558197,0.5470000006258487,1.05555555721124,2.8378571065009703,6.889999866019934,2.7093332956234613,19.355333455403645,22.65499973297119,22.01285719871521,24.097307755396915,17.286666506812686,20.540000915527344,17.309000301361085,16.283332930670845,13.265000019754682,8.58500000834465,8.569333378473917,25.504666646321613,25.632500171661377,27.362619218372163,28.64384621840257,27.47523816426595,27.549999237060547,28.308999824523926,30.470000161064995,23.193571533475602,17.199999809265137,8.376666810115179,20.87466662724813,19.738749980926514,22.685476257687522,23.3517307134775,22.931904838198708,21.875,22.523999977111817,23.75055572721693,16.884821551718883,11.672499880194664,3.3766667326912283,16.24466660817464,13.84499979019165,18.008333297002885,18.059615208552433,18.388571512131463,16.200000762939453,16.739000129699708,17.03111129336887,10.576071569962162,6.144999951124191,-1.6233333447327216,10.916889675524235,9.738749980926514,6.329304493439567,9.14437029046676,12.056608429881628,11.875000000000002,12.359306486673354,13.574371217676005,8.995477978374756,5.72739455757495,0.0690473138547394,10.916889675524235,9.738749980926514,6.329304493439567,9.14437029046676,12.056608429881628,11.875000000000002,12.359306486673354,13.574371217676005,8.995477978374756,5.72739455757495,0.0690473138547394,0,0,265.8307887244618,503.5844162765975,756.7731933041116,768.6481933041116,892.2412581708452,1014.4105991299292,1266.2839825244223,1312.103138985022,1312.103138985022,0,0,0.9636666661217099,0.9977884604380681,0.9898095244453067,1,0.9755499982833862,1,0.5872500057731356,0.1886249914765358,0.008800002733866375,1,1,1,1,1,1,1,1,1,1,1,0.8957999928792317,0.934625005722046,0.9636666661217099,0.9977884604380681,0.9898095244453067,1,0.9755499982833862,1,0.5872500057731356,0.1886249914765358,0.008800002733866375,1,1,1,0.9999999999999999,0.9999999999999999,1,0.9999999999999999,1,1,1,1,2019-05-17T12:00:00Z,2019-06-01T12:00:00Z,2019-06-05T12:00:00Z,2019-07-17T12:00:00Z,2019-08-12T12:00:00Z,2019-09-02T12:00:00Z,2019-09-03T12:00:00Z,2019-09-13T12:00:00Z,2019-09-22T12:00:00Z,2019-10-20T12:00:00Z,2019-10-28T12:00:00Z,2019-05-31T12:00:00Z,2019-06-04T12:00:00Z,2019-07-16T12:00:00Z,2019-08-11T12:00:00Z,2019-09-01T12:00:00Z,2019-09-02T12:00:00Z,2019-09-12T12:00:00Z,2019-09-21T12:00:00Z,2019-10-19T12:00:00Z,2019-10-27T12:00:00Z,2019-11-11T12:00:00Z,137,152,156,198,224,245,246,256,265,293,301,15,4,42,26,21,1,10,9,28,8,15,151,155,197,223,244,245,255,264,292,300,315
61,61,romney_in,40.2364,-86.8889,4.5,2019-06-08,38,2019,mid4,1491.4094828040502,11,2019-05-25,2019-06-08,151,2019-11-06,2019-11-15,2019-11-29,Harvested at Maturity.,3.203333373616139,3.462500125169754,4.524358960823753,0.9384615624753329,4.096956521434628,0.02999999932944774,0.5555555688010322,2.888181807134639,2.8527777869668274,0.7188888771666421,2.0306666721900304,3.203333373616139,3.462500125169754,4.524358960823753,0.9384615624753329,4.096956521434628,0.02999999932944774,0.5555555688010322,2.888181807134639,2.8527777869668274,0.7188888771666421,2.0306666721900304,21.701333618164064,19.855000019073486,22.314871739118527,22.679615240830643,17.007391286932904,18.540000915527344,17.095555623372395,14.702727317810059,10.940277894337973,9.216666658719381,6.045333385467529,25.911999893188476,23.725000381469727,27.86974364060622,27.378076993502102,26.085652392843496,28.6200008392334,29.658889134724934,27.882727362892844,18.34861116939121,5.443333349294133,7.56266663869222,21.349333222707113,19.047500133514404,23.41166668671828,22.260769220498894,21.30173925731493,21.46000051498413,23.649444633060032,21.969545581124045,12.27694448745913,0.12333331091536416,3.055666648969054,16.78666655222575,14.369999885559082,18.95358973283034,17.14346144749568,16.517826121786367,14.300000190734863,17.640000131395126,16.056363799355246,6.205277805527051,-5.196666727463405,-1.4513333407541116,11.349333222707113,9.047500133514404,6.838567565712607,9.138076000298632,10.97859949943493,11.460000514984134,13.536087301536401,12.03306661305536,6.828297989709054,5,0.14238439137884726,11.349333222707113,9.047500133514404,6.838567565712607,9.138076000298632,10.97859949943493,11.460000514984134,13.536087301536401,12.03306661305536,6.828297989709054,5,0.14238439137884726,0,0,266.7041350627917,504.2941110705561,756.8018995575596,768.2619000725438,890.0866857863713,1022.4504185299804,1268.269146159506,1313.269146159506,1313.269146159506,0,0,0.9666282066932091,0.9907307679836567,0.9579782651818317,1,1,0.9744545503096147,0.2959305610921648,0,0,1,1,1,1,1,1,1,1,1,1,1,0.9712666734059652,0.8792500019073487,0.9666282066932091,0.9907307679836567,0.9579782651818317,1,1,0.9744545503096147,0.2959305610921648,0,0,1,1,1,1,0.9999999999999999,1,1,1,0.9999999999999999,1,1,2019-05-25T12:00:00Z,2019-06-09T12:00:00Z,2019-06-13T12:00:00Z,2019-07-22T12:00:00Z,2019-08-17T12:00:00Z,2019-09-09T12:00:00Z,2019-09-10T12:00:00Z,2019-09-19T12:00:00Z,2019-09-30T12:00:00Z,2019-11-05T12:00:00Z,2019-11-14T12:00:00Z,2019-06-08T12:00:00Z,2019-06-12T12:00:00Z,2019-07-21T12:00:00Z,2019-08-16T12:00:00Z,2019-09-08T12:00:00Z,2019-09-09T12:00:00Z,2019-09-18T12:00:00Z,2019-09-29T12:00:00Z,2019-11-04T12:00:00Z,2019-11-13T12:00:00Z,2019-11-28T12:00:00Z,145,160,164,203,229,252,253,262,273,309,318,15,4,39,26,23,1,9,11,36,9,15,159,163,202,228,251,252,261,272,308,317,332
62,62,columbia_mo,38.8894,-92.2081,4.5,2019-06-04,23,2019,mid4,1533.72711752617,11,2019-05-21,2019-06-04,124,2019-10-06,2019-10-12,2019-10-26,Harvested at Maturity.,5.373333231608073,5.624999910593033,3.634473653608247,2.8983332572194436,6.294736826106122,0.6100000143051147,4.382727347483689,4.115000002086163,4.348947372189478,7.078333338101705,1.3980000406503676,5.373333231608073,5.624999910593033,3.634473653608247,2.8983332572194436,6.294736826106122,0.6100000143051147,4.382727347483689,4.115000002086163,4.348947372189478,7.078333338101705,1.3980000406503676,20.932666778564453,25.28499984741211,22.54447372963554,24.018749793370567,17.63421048616108,23.06999969482422,18.351818149740044,18.81124973297119,15.355789397892199,10.658333500226338,12.283999999364218,26.757333501180014,27.839999198913574,27.89736843109131,30.46625010172526,30.883158031262848,26.520000457763672,27.867272810502485,30.03624987602234,28.788421028538753,22.141666730244953,16.369333267211914,21.67066666285197,24.329999923706055,23.424210523304186,25.118750075499218,25.933947462784616,22.135000228881836,22.240454630418256,24.961249828338623,23.393157933887682,15.24916664759318,10.243000010649363,16.583999824523925,20.820000648498535,18.951052615517064,19.771250049273174,20.984736894306383,17.75,16.613636450334027,19.886249780654907,17.99789483923661,8.356666564941406,4.116666754086812,11.67066666285197,14.329999923706056,7.082791422973586,9.883443468517237,13.346724951921189,12.135000228881836,12.214924991948497,14.608077947631479,12.959019288263509,7.287741362217069,2.2162070831290137,11.67066666285197,14.329999923706056,7.082791422973586,9.883443468517237,13.346724951921189,12.135000228881836,12.214924991948497,14.608077947631479,12.959019288263509,7.287741362217069,2.2162070831290137,0,0,269.14607407299627,506.3487173174098,759.9364914039124,772.0714916327943,906.4356665442276,1023.3002901252796,1269.521656602286,1313.2481047755882,1313.2481047755882,0,0,0.9675394735838238,0.9989375074704488,0.9975263194033974,1,0.9972272699529474,1,0.9356052649648566,0.5249166647593181,0,1,1,1,1,1,1,1,1,1,1,1,0.9611000029246013,1,0.9675394735838238,0.9989375074704488,0.9975263194033974,1,0.9972272699529474,1,0.9356052649648566,0.5249166647593181,0.1183666706085205,1,1,0.9999999999999999,1,1,1,1,0.9999999999999999,0.9999999999999999,1,1,2019-05-21T12:00:00Z,2019-06-05T12:00:00Z,2019-06-07T12:00:00Z,2019-07-15T12:00:00Z,2019-08-08T12:00:00Z,2019-08-27T12:00:00Z,2019-08-28T12:00:00Z,2019-09-08T12:00:00Z,2019-09-16T12:00:00Z,2019-10-05T12:00:00Z,2019-10-11T12:00:00Z,2019-06-04T12:00:00Z,2019-06-06T12:00:00Z,2019-07-14T12:00:00Z,2019-08-07T12:00:00Z,2019-08-26T12:00:00Z,2019-08-27T12:00:00Z,2019-09-07T12:00:00Z,2019-09-15T12:00:00Z,2019-10-04T12:00:00Z,2019-10-10T12:00:00Z,2019-10-25T12:00:00Z,141,156,158,196,220,239,240,251,259,278,284,15,2,38,24,19,1,11,8,19,6,15,155,157,195,219,238,239,250,258,277,283,298
63,63,crookston_mn,47.805,-96.61426667,-0.5,2018-05-23,1,2018,mid00,799.9891286701167,11,2018-05-09,2018-05-23,88,2018-08-19,2018-08-27,2018-09-10,Harvested at Maturity.,1.596666697412729,0.7400000244379044,3.540769207219665,2.86999998241663,1.0299999850491683,0.41999998688697815,0.8849999844096601,0,0.05166666706403096,3.04499997314997,2.4319999925792217,1.596666697412729,0.7400000244379044,3.540769207219665,2.86999998241663,1.0299999850491683,0.41999998688697815,0.8849999844096601,0,0.05166666706403096,3.04499997314997,2.4319999925792217,22.501333649953207,24.80500030517578,22.57076929165767,23.813809576488676,22.730476106916157,22.65999984741211,20.794999599456787,22.577999877929688,20.989999771118164,17.146250009536743,15.814000002543132,22.947333017985027,32.05500030517578,27.190384498009315,29.898095267159597,28.85142844063895,22.510000228881836,29.552500247955322,34.05400009155274,31.546666463216145,27.08500027656555,24.004666646321613,14.862333180507024,24.52250027656555,20.6076922416687,23.531666619437082,22.119047528221493,15.849999904632568,22.99625015258789,25.800000190734863,23.743333260218304,20.879375159740448,17.775666650136312,6.777333343029022,16.990000247955322,14.024999985328087,17.165237971714564,15.386666615804037,9.1899995803833,16.44000005722046,17.546000289916993,15.940000057220459,14.673750042915344,11.546666653951009,5.8649326446303975,13.6574802377522,8.451206057862242,10.561315716680344,10.369260778310746,5.6094221755595415,12.478131613057617,13.19536157154876,11.82745026494662,10.799458204506337,7.2449408762109275,5.8649326446303975,13.6574802377522,8.451206057862242,10.561315716680344,10.369260778310746,5.6094221755595415,12.478131613057617,13.19536157154876,11.82745026494662,10.799458204506337,7.2449408762109275,0,0,219.7313575044182,441.5189875547054,659.273463899231,664.8828860747906,714.7954125270211,780.772220384765,851.7369219744446,938.1325876104954,938.1325876104954,0,0,0.9010961495912992,0.9957619031270345,0.9833571411314465,0.5849999904632569,1,1,0.9793333371480306,0.9703750073909759,0.056433331171671555,1,1,1,1,1,1,1,1,1,1,1,0.5004333249727885,1,0.9010961495912992,0.9957619031270345,0.9833571411314465,0.5849999904632569,1,1,0.9793333371480306,0.9703750073909759,0.7656666660308838,1,1,1,1,1,1,1,0.9999999999999998,0.9999999999999999,0.9999999999999999,1,2018-05-09T12:00:00Z,2018-05-24T12:00:00Z,2018-05-26T12:00:00Z,2018-06-21T12:00:00Z,2018-07-12T12:00:00Z,2018-08-02T12:00:00Z,2018-08-03T12:00:00Z,2018-08-07T12:00:00Z,2018-08-12T12:00:00Z,2018-08-18T12:00:00Z,2018-08-26T12:00:00Z,2018-05-23T12:00:00Z,2018-05-25T12:00:00Z,2018-06-20T12:00:00Z,2018-07-11T12:00:00Z,2018-08-01T12:00:00Z,2018-08-02T12:00:00Z,2018-08-06T12:00:00Z,2018-08-11T12:00:00Z,2018-08-17T12:00:00Z,2018-08-25T12:00:00Z,2018-09-09T12:00:00Z,129,144,146,172,193,214,215,219,224,230,238,15,2,26,21,21,1,4,5,6,8,15,143,145,171,192,213,214,218,223,229,237,252
64,64,shelly_mn,47.4264,-96.8317,-0.5,2018-05-24,31,2018,mid00,774.1647990637446,11,2018-05-10,2018-05-24,87,2018-08-19,2018-08-28,2018-09-11,Harvested at Maturity.,1.1659999945511421,1.3266666655739148,3.3216667395705977,3.0914285327529623,1.5295238089525984,0.5099999904632568,0.4150000046938658,0,0.3700000047683716,5.496666611068779,1.4186666811505952,1.1659999945511421,1.3266666655739148,3.3216667395705977,3.0914285327529623,1.5295238089525984,0.5099999904632568,0.4150000046938658,0,0.3700000047683716,5.496666611068779,1.4186666811505952,23.048666985829673,23.036666870117188,22.657083412011463,23.813809576488676,22.730476106916157,22.65999984741211,20.794999599456787,22.577999877929688,20.989999771118164,16.387777752346462,16.43866672515869,24.00666675567627,33.199999491373696,27.545833269755047,29.82857150123233,28.691428502400715,23.59000015258789,29.96750020980835,34.44199981689453,32.17499987284342,26.222222646077473,24.18666674296061,16.059666713078816,24.903332869211834,20.9262499610583,23.467381068638392,22.02309513092041,16.480000019073486,23.385000109672546,25.90099992752075,24.308333158493042,20.225000116560192,17.93733336130778,8.112666670481364,16.60666624704997,14.306666652361551,17.106190636044456,15.354761759440104,9.369999885559082,16.802500009536743,17.36000003814697,16.44166644414266,14.227777587042915,11.687999979654947,6.821019364111871,13.240525331250828,8.7121141743183,10.541016808940999,10.352917630926523,6.225024456065426,12.9862545569915,12.987168383404915,11.932554719227554,10.196250600298246,7.584834130179883,6.821019364111871,13.240525331250828,8.7121141743183,10.541016808940999,10.352917630926523,6.225024456065426,12.9862545569915,12.987168383404915,11.932554719227554,10.196250600298246,7.584834130179883,0,0,209.09074018363924,430.45209317140024,647.8633634208571,654.0883878769225,706.0334061048885,770.9692480219131,842.5645763372785,934.3308317399626,934.3308317399626,0,0,0.9146041671435038,0.9933333351498559,0.9824047633579799,0.6480000019073486,1,1,0.9966666618982951,0.9344444539811876,0.03706666310628256,1,1,1,1,1,1,1,1,1,1,1,0.5730666700998942,1,0.9146041671435038,0.9933333351498559,0.9824047633579799,0.6480000019073486,1,1,0.9966666618982951,0.9344444539811876,0.7792000007629395,1,1,1,1,1,1,0.9999999999999998,1,1,1,1,2018-05-10T12:00:00Z,2018-05-25T12:00:00Z,2018-05-28T12:00:00Z,2018-06-21T12:00:00Z,2018-07-12T12:00:00Z,2018-08-02T12:00:00Z,2018-08-03T12:00:00Z,2018-08-07T12:00:00Z,2018-08-12T12:00:00Z,2018-08-18T12:00:00Z,2018-08-27T12:00:00Z,2018-05-24T12:00:00Z,2018-05-27T12:00:00Z,2018-06-20T12:00:00Z,2018-07-11T12:00:00Z,2018-08-01T12:00:00Z,2018-08-02T12:00:00Z,2018-08-06T12:00:00Z,2018-08-11T12:00:00Z,2018-08-17T12:00:00Z,2018-08-26T12:00:00Z,2018-09-10T12:00:00Z,130,145,148,172,193,214,215,219,224,230,239,15,3,24,21,21,1,4,5,6,9,15,144,147,171,192,213,214,218,223,229,238,253
65,65,casselton_nd,46.8866,-97.2386,-0.5,2018-05-07,4,2018,mid00,771.2879996886971,11,2018-04-23,2018-05-07,95,2018-08-10,2018-08-17,2018-08-31,Harvested at Maturity.,0.44266665788988274,1.8400000059045851,2.5425000068886825,3.2217390955952196,4.502999952994287,NA,1.755714315654976,0.4900000035762787,0.7983333384618163,0.6928571475935834,3.837999956433972,0.44266665788988274,1.8400000059045851,2.5425000068886825,3.2217390955952196,4.502999952994287,NA,1.755714315654976,0.4900000035762787,0.7983333384618163,0.6928571475935834,3.837999956433972,23.343999926249186,20.050000071525574,22.830833355585735,22.110434490701426,22.628499960899354,NA,24.092857360839844,22.41200008392334,20.259999752044678,21.498571395874023,15.717999935150146,21.364666557312013,21.21250021457672,27.855416615804035,27.794782472693402,29.54199981689453,NA,26.199999945504324,27.894000244140624,31.33833376566569,33.032857349940706,25.633999888102213,12.699333280324936,13.745000186609104,20.510000015298527,21.995217323303223,23.24849989414215,NA,19.81571422304426,20.635000133514403,24.079166889190674,25.036428587777273,19.520999908447266,4.0340000033378605,6.277500158641487,13.164583414793015,16.195652173913043,16.95499997138977,NA,13.431428500584193,13.376000022888183,16.82000001271566,17.03999982561384,13.407999928792318,4.379433593573918,4.915490496867575,8.768754452683753,9.651262833316155,10.769876239895709,NA,9.26695736469098,10.147253423147816,13.04050574110409,12.166530464109353,8.43392219290495,4.379433593573918,4.915490496867575,8.768754452683753,9.651262833316155,10.769876239895709,NA,9.26695736469098,10.147253423147816,13.04050574110409,12.166530464109353,8.43392219290495,0,0,210.45010686441003,432.4291520306816,647.8266768285957,NA,712.6953783814326,763.4316454971719,841.6746799437964,926.840393192562,926.840393192562,0,0,0.8476874992251396,0.9666956507641337,0.9946000003814697,NA,0.9364999975476946,0.9022000026702881,1,0.9957857200077602,0.06666666666666667,1,1,1,1,1,NA,1,1,1,1,1,0.3104666648308436,0.42400001585483554,0.8476874992251396,0.9666956507641337,0.9946000003814697,NA,0.9364999975476946,0.9022000026702881,1,0.9957857200077602,0.8486666615804037,1,1,1,1,1,NA,0.9999999999999999,0.9999999999999999,0.9999999999999999,0.9999999999999999,1,2018-04-23T12:00:00Z,2018-05-08T12:00:00Z,2018-05-16T12:00:00Z,2018-06-09T12:00:00Z,2018-07-02T12:00:00Z,NA,2018-07-22T12:00:00Z,2018-07-29T12:00:00Z,2018-08-03T12:00:00Z,2018-08-09T12:00:00Z,2018-08-16T12:00:00Z,2018-05-07T12:00:00Z,2018-05-15T12:00:00Z,2018-06-08T12:00:00Z,2018-07-01T12:00:00Z,2018-07-21T12:00:00Z,NA,2018-07-28T12:00:00Z,2018-08-02T12:00:00Z,2018-08-08T12:00:00Z,2018-08-15T12:00:00Z,2018-08-30T12:00:00Z,113,128,136,160,183,NA,203,210,215,221,228,15,8,24,23,20,0,7,5,6,7,15,127,135,159,182,202,NA,209,214,220,227,242
66,66,ottawa_ont,45.3712,-75.72575,-0.5,2018-05-18,5,2018,mid00,712.5401902159401,11,2018-05-04,2018-05-18,103,2018-08-29,2018-09-06,2018-09-20,Harvested at Maturity.,0.9706666485716899,3.812857197597623,2.6591428748198918,1.3065217458845482,7.38764711589936,5.099999904632568,0.17200000137090682,1.1633333048472803,2.7599999319229807,1.92750003375113,0.6746666592856249,0.9706666485716899,3.812857197597623,2.6591428748198918,1.3065217458845482,7.38764711589936,5.099999904632568,0.17200000137090682,1.1633333048472803,2.7599999319229807,1.92750003375113,0.6746666592856249,23.63266658782959,21.355714389256068,21.61514276776995,25.6260870228643,17.9317647709566,20.110000610351563,22.242000007629393,18.111666599909466,15.478571346827916,14.774999856948853,16.308666547139484,18.440666707356772,20.257142748151505,22.72542849949428,27.552608655846637,26.462352864882526,26.149999618530273,27.179999923706056,25.50499979654948,24.985714503696986,26.268750190734863,23.93333346048991,11.079666700959205,14.003571340015956,17.04057137625558,21.66108693247256,22.459999925949994,21.489999771118164,21.334000015258788,20.400833288828533,19.86214283534459,21.26062512397766,18.12000010808309,3.7186666945616405,7.749999931880406,11.355714253016881,15.769565209098484,18.457646987017462,16.829999923706055,15.488000106811523,15.296666781107586,14.738571166992188,16.25250005722046,12.30666675567627,2.968387904246872,4.717728173647608,6.029289268347215,9.97806637317687,12.107710820215779,11.489999771118164,11.403379916673899,10.455228216878574,10.105116858106,11.538142404650152,7.337200714548429,2.968387904246872,4.717728173647608,6.029289268347215,9.97806637317687,12.107710820215779,11.489999771118164,11.403379916673899,10.455228216878574,10.105116858106,11.538142404650152,7.337200714548429,0,0,211.02512439215255,440.52065097522063,646.3517349188888,657.841734690007,714.8586342733765,777.590003574648,848.32582158139,940.6309608185912,940.6309608185912,0,0,0.6798571395874023,0.9443043460016666,0.9922941151787253,1,0.9938999938964844,0.9803333361943564,0.9201428685869489,0.9063750028610229,0.06666666666666667,1,1,1,1,1,1,1,1,1,1,1,0.16103333512941997,0.4098571368626186,0.6798571395874023,0.9443043460016666,0.9922941151787253,1,0.9938999938964844,0.9803333361943564,0.9201428685869489,0.9063750028610229,0.7174333381652832,1,1,1,1,1,1,0.9999999999999999,1,0.9999999999999999,1,1,2018-05-04T12:00:00Z,2018-05-19T12:00:00Z,2018-05-26T12:00:00Z,2018-06-30T12:00:00Z,2018-07-23T12:00:00Z,2018-08-09T12:00:00Z,2018-08-10T12:00:00Z,2018-08-15T12:00:00Z,2018-08-21T12:00:00Z,2018-08-28T12:00:00Z,2018-09-05T12:00:00Z,2018-05-18T12:00:00Z,2018-05-25T12:00:00Z,2018-06-29T12:00:00Z,2018-07-22T12:00:00Z,2018-08-08T12:00:00Z,2018-08-09T12:00:00Z,2018-08-14T12:00:00Z,2018-08-20T12:00:00Z,2018-08-27T12:00:00Z,2018-09-04T12:00:00Z,2018-09-19T12:00:00Z,124,139,146,181,204,221,222,227,233,240,248,15,7,35,23,17,1,5,6,7,8,15,138,145,180,203,220,221,226,232,239,247,262
67,67,lapocatiere_que,47.357,-70.023,-0.5,2018-05-28,6,2018,mid00,515.8134412950434,11,2018-05-14,2018-05-28,134,2018-10-09,2018-10-25,2018-11-08,Harvested at Maturity.,2.033333350966374,0.964285705637719,2.0331579217883315,4.080952347921474,2.212692346208944,NA,1.0033333527131214,2.690000017406419,1.6587500132154673,4.227500010281801,4.364000058795015,2.033333350966374,0.964285705637719,2.0331579217883315,4.080952347921474,2.212692346208944,NA,1.0033333527131214,2.690000017406419,1.6587500132154673,4.227500010281801,4.364000058795015,21.963333384195963,24.039285693849838,21.578947456259478,17.59333342597598,16.591153621673584,NA,16.284444173177082,12.056250035762787,10.326875030994415,6.0193749368190765,4.704666654268901,14.502666600545247,16.2299998828343,21.441315776423405,24.806666601271857,22.900769233703613,NA,19.31777752770318,20.267500042915344,13.28187495470047,7.464999921619892,2.8733333468437197,8.71799996693929,11.583571314811707,16.76276317395662,20.998809541974747,18.375769175015964,NA,14.257777690887451,15.893124967813492,8.881249988742638,4.085624974220991,0.8029999994983276,2.933333333333333,6.937142746789115,12.084210571489836,17.19095248267764,13.850769116328312,NA,9.197777854071722,11.51874989271164,4.480625022784807,0.7062500268220901,-1.2673333478470643,1.447982430562582,2.6753905992056644,5.668983460834079,10.35852176541498,8.383343362482236,NA,6.6305511351578765,7.579209667435661,5.1590052292410284,5.090430379621685,0,1.447982430562582,2.6753905992056644,5.668983460834079,10.35852176541498,8.383343362482236,NA,6.6305511351578765,7.579209667435661,5.1590052292410284,5.090430379621685,0,0,0,215.421371511695,432.9503285854098,650.9172560099479,NA,710.5922162263687,771.225893565854,853.7699772337105,935.2168633076576,935.2168633076576,0,0,0.6505394722286024,0.9867857115609305,0.7998846145776602,NA,0.4323333263397217,0.5743124932050705,0.06918749958276749,0.019093751907348633,0,1,1,1,1,1,NA,1,1,1,1,1,0.05953333536783855,0.2093928473336356,0.6505394722286024,0.9867857115609305,0.7998846145776602,NA,0.4323333263397217,0.5743124932050705,0.06918749958276749,0.019093751907348633,0,1,1,1,0.9999999999999999,0.9999999999999999,NA,0.9999999999999999,1,1,1,1,2018-05-14T12:00:00Z,2018-05-29T12:00:00Z,2018-06-12T12:00:00Z,2018-07-20T12:00:00Z,2018-08-10T12:00:00Z,NA,2018-09-05T12:00:00Z,2018-09-14T12:00:00Z,2018-09-22T12:00:00Z,2018-10-08T12:00:00Z,2018-10-24T12:00:00Z,2018-05-28T12:00:00Z,2018-06-11T12:00:00Z,2018-07-19T12:00:00Z,2018-08-09T12:00:00Z,2018-09-04T12:00:00Z,NA,2018-09-13T12:00:00Z,2018-09-21T12:00:00Z,2018-10-07T12:00:00Z,2018-10-23T12:00:00Z,2018-11-07T12:00:00Z,134,149,163,201,222,NA,248,257,265,281,297,15,14,38,21,26,0,9,8,16,16,15,148,162,200,221,247,NA,256,264,280,296,311
68,68,stmathieudebeloeil_que,45.5834,-73.2422,-0.5,2018-05-24,7,2018,mid00,606.1726250260057,11,2018-05-10,2018-05-24,95,2018-08-27,2018-09-03,2018-09-17,Harvested at Maturity.,1.4859999953458707,1.7083333476136129,2.606875000637956,1.6895238099885839,3.6187499118968844,6.730000019073486,1.759999978542328,2.340000057220459,1.5099999750299113,2.507142867360796,3.67666664707164,1.4859999953458707,1.7083333476136129,2.606875000637956,1.6895238099885839,3.6187499118968844,6.730000019073486,1.759999978542328,2.340000057220459,1.5099999750299113,2.507142867360796,3.67666664707164,22.21133327484131,19.918333212534588,22.857499912381172,25.34238084157308,17.82375007867813,14.460000038146973,22.157999801635743,15.888000106811523,19.26285743713379,14.76999991280692,16.51000016530355,18.582666651407877,22.331666628519695,22.83968761563301,28.022857211884997,28.543124794960022,27.940000534057617,27.618000030517578,25.941999816894533,27.14000047956194,27.961428778512136,25.043333435058592,12.15066664616267,16.450833320617676,17.594375051558018,22.174523921239945,23.944687396287918,23.895000457763672,21.919999980926512,21.410000038146972,20.915000234331405,22.27500009536743,19.63500008583069,5.71866664091746,10.570000012715658,12.349062487483025,16.32619063059489,19.346249997615814,19.850000381469727,16.22199993133545,16.878000259399414,14.689999989100864,16.588571412222727,14.226666736602784,3.4121361239322523,6.471611752366027,6.434707016944682,10.469948938113331,13.37564862821329,13.895000457763672,11.958011255660056,11.44231377670288,11.06431170754092,12.295954918565068,8.774783420653145,3.4121361239322523,6.471611752366027,6.434707016944682,10.469948938113331,13.37564862821329,13.895000457763672,11.958011255660056,11.44231377670288,11.06431170754092,12.295954918565068,8.774783420653145,0,0,205.91062454222975,425.7795522426096,639.7899302940223,653.6849307517859,713.4749870300863,770.6865559136006,848.1367378663871,934.2084222963426,934.2084222963426,0,0,0.6897812567651272,0.9621904759179978,1,1,1,0.9556999969482421,0.9684285776955741,0.9268571444920132,0.06666666666666667,1,1,1,1,1,1,1,1,1,1,1,0.2563666645685832,0.6450833320617676,0.6897812567651272,0.9621904759179978,1,1,1,0.9556999969482421,0.9684285776955741,0.9268571444920132,0.8046000083287557,1,1,1,1,1,1,0.9999999999999999,1,0.9999999999999999,0.9999999999999999,1,2018-05-10T12:00:00Z,2018-05-25T12:00:00Z,2018-05-31T12:00:00Z,2018-07-02T12:00:00Z,2018-07-23T12:00:00Z,2018-08-08T12:00:00Z,2018-08-09T12:00:00Z,2018-08-14T12:00:00Z,2018-08-19T12:00:00Z,2018-08-26T12:00:00Z,2018-09-02T12:00:00Z,2018-05-24T12:00:00Z,2018-05-30T12:00:00Z,2018-07-01T12:00:00Z,2018-07-22T12:00:00Z,2018-08-07T12:00:00Z,2018-08-08T12:00:00Z,2018-08-13T12:00:00Z,2018-08-18T12:00:00Z,2018-08-25T12:00:00Z,2018-09-01T12:00:00Z,2018-09-16T12:00:00Z,130,145,151,183,204,220,221,226,231,238,245,15,6,32,21,16,1,5,5,7,7,15,144,150,182,203,219,220,225,230,237,244,259
69,69,ames_ia,42.0215,-93.7745,1.5,2018-05-25,15,2018,mid1,985.184581991834,11,2018-05-11,2018-05-25,92,2018-08-25,2018-09-01,2018-09-15,Harvested at Maturity.,2.5146666365365187,0.00499999988824129,6.437142794220043,5.111000067088753,0.8611764618579079,1.2000000476837158,7.115999948978424,2.2099999679873386,5.509090827269987,4.501428684219718,7.77466656267643,2.5146666365365187,0.00499999988824129,6.437142794220043,5.111000067088753,0.8611764618579079,1.2000000476837158,7.115999948978424,2.2099999679873386,5.509090827269987,4.501428684219718,7.77466656267643,18.92933349609375,27.975000381469727,21.663928610937937,23.44150004386902,24.017058821285474,21.059999465942383,18.07800006866455,24.271667162577312,15.95999999479814,15.075714451926094,16.14599978129069,24.89666659037272,34.8700008392334,29.026785714285715,29.561499977111815,28.142941194422104,30.3799991607666,30.952000045776366,30.60000006357829,27.91545469110662,28.452857153756277,25.13733329772949,19.25199991861979,27.200000762939453,23.64339303970337,24.18924984931946,22.76970582849839,23.304999351501465,24.891000080108643,24.202500025431316,22.485454732721504,22.694999967302596,20.547000058492024,13.607333246866862,19.530000686645508,18.260000365121023,18.8169997215271,17.39647046257468,16.229999542236328,18.830000114440917,17.804999987284344,17.055454774336383,16.937142780848912,15.956666819254558,9.303932246658801,13.713052963614466,10.017542447716501,10.727184704486882,11.038772236071482,12.360089364330674,13.187133729162118,13.666347395973446,12.423686709155819,12.678577856498105,9.629333368937175,9.303932246658801,13.713052963614466,10.017542447716501,10.727184704486882,11.038772236071482,12.360089364330674,13.187133729162118,13.666347395973446,12.423686709155819,12.678577856498105,9.629333368937175,0,0,280.491188536062,495.0348826257996,682.6940106390148,695.0541000033454,760.9897686491561,842.9878530249968,979.6484068257108,1068.3984518211976,1068.3984518211976,0,0,0.9952857170786177,1,0.9934411750120276,1,1,1,0.9654090881347657,0.9551428658621652,0.06666666666666667,1,1,1,1,1,1,1,1,1,1,1,0.8191999975840251,1,0.9952857170786177,1,0.9934411750120276,1,1,1,0.9654090881347657,0.9551428658621652,0.8836333338419596,1,1,1,1,0.9999999999999999,1,0.9999999999999999,0.9999999999999999,0.9999999999999999,0.9999999999999999,1,2018-05-11T12:00:00Z,2018-05-26T12:00:00Z,2018-05-28T12:00:00Z,2018-06-25T12:00:00Z,2018-07-15T12:00:00Z,2018-08-01T12:00:00Z,2018-08-02T12:00:00Z,2018-08-07T12:00:00Z,2018-08-13T12:00:00Z,2018-08-24T12:00:00Z,2018-08-31T12:00:00Z,2018-05-25T12:00:00Z,2018-05-27T12:00:00Z,2018-06-24T12:00:00Z,2018-07-14T12:00:00Z,2018-07-31T12:00:00Z,2018-08-01T12:00:00Z,2018-08-06T12:00:00Z,2018-08-12T12:00:00Z,2018-08-23T12:00:00Z,2018-08-30T12:00:00Z,2018-09-14T12:00:00Z,131,146,148,176,196,213,214,219,225,236,243,15,2,28,20,17,1,5,6,11,7,15,145,147,175,195,212,213,218,224,235,242,257
70,70,kanawha_ia,42.9333,-93.7924,1.5,2018-05-18,39,2018,mid1,989.4035953317792,11,2018-05-04,2018-05-18,106,2018-09-01,2018-09-11,2018-09-25,Harvested at Maturity.,2.8160000517964363,4.763999986648559,6.666999972735842,4.4033333252938025,2.389047652128197,4.980000019073486,7.426666647195817,1.6666666269302368,7.774285768823964,10.044999897480011,8.393333179255327,2.8160000517964363,4.763999986648559,6.666999972735842,4.4033333252938025,2.389047652128197,4.980000019073486,7.426666647195817,1.6666666269302368,7.774285768823964,10.044999897480011,8.393333179255327,20.973333485921223,17.186000061035156,22.344666703542075,23.741428602309455,23.614761942908878,10.789999961853027,20.883333524068195,18.101666927337646,15.752142906188965,14.109999847412109,17.022666422526044,22.240666898091636,23.27400016784668,27.939999961853026,27.811428705851238,25.585714249383837,26.6299991607666,27.356666882832844,27.15666675567627,24.90071419307164,23.542000198364256,25.11200008392334,16.187666813532513,17.519999980926514,22.680666716893516,22.851904755546933,20.518333366939,22.73499965667725,22.37750013669332,22.430000225702923,19.88357138633728,19.517000055313108,19.551000038782757,10.13466672897339,11.765999794006348,17.421333471934002,17.892380805242627,15.450952484494163,18.84000015258789,17.39833339055379,17.703333695729572,14.866428579602923,15.491999912261964,13.98999999364217,6.5180417594019575,7.570479479594231,9.320204326553503,9.631372808974882,8.977819352803467,11.945336364027536,11.97029202989992,12.425306016322669,10.211693095476711,10.068811662451626,9.300660668989817,6.5180417594019575,7.570479479594231,9.320204326553503,9.631372808974882,8.977819352803467,11.945336364027536,11.97029202989992,12.425306016322669,10.211693095476711,10.068811662451626,9.300660668989817,0,0,279.60612979660505,481.8649587850776,670.3991651939505,682.344501557978,754.1662537373776,828.7180898353135,971.6817931719874,1072.369909796504,1072.369909796504,0,0,0.9677666664123535,0.9996428580511184,0.9443571385883149,1,1,1,0.8721071345465524,0.7996500062942505,0.042800000508626306,1,1,1,1,1,1,1,1,1,1,1,0.628166675567627,0.7175000095367432,0.9677666664123535,0.9996428580511184,0.9443571385883149,1,1,1,0.8721071345465524,0.7996500062942505,0.7929000043869019,1,1,1,0.9999999999999999,1,1,0.9999999999999999,1,1,0.9999999999999999,1,2018-05-04T12:00:00Z,2018-05-19T12:00:00Z,2018-05-24T12:00:00Z,2018-06-23T12:00:00Z,2018-07-14T12:00:00Z,2018-08-04T12:00:00Z,2018-08-05T12:00:00Z,2018-08-11T12:00:00Z,2018-08-17T12:00:00Z,2018-08-31T12:00:00Z,2018-09-10T12:00:00Z,2018-05-18T12:00:00Z,2018-05-23T12:00:00Z,2018-06-22T12:00:00Z,2018-07-13T12:00:00Z,2018-08-03T12:00:00Z,2018-08-04T12:00:00Z,2018-08-10T12:00:00Z,2018-08-16T12:00:00Z,2018-08-30T12:00:00Z,2018-09-09T12:00:00Z,2018-09-24T12:00:00Z,124,139,144,174,195,216,217,223,229,243,253,15,5,30,21,21,1,6,6,14,10,15,138,143,173,194,215,216,222,228,242,252,267
71,71,wanatah_in,41.4444,-86.9437,1.5,2018-05-25,20,2018,mid1,871.18446718944,11,2018-05-11,2018-05-25,94,2018-08-27,2018-09-03,2018-09-17,Harvested at Maturity.,3.833333295583725,0.15000000596046448,4.079687531630043,1.2294736793754917,2.7382353846641148,0,7.460000211000443,1.3559999659657478,4.382727232846347,2.642857135406562,2.744666688765089,3.833333295583725,0.15000000596046448,4.079687531630043,1.2294736793754917,2.7382353846641148,0,7.460000211000443,1.3559999659657478,4.382727232846347,2.642857135406562,2.744666688765089,18.12599973678589,25.920000076293945,19.993125021457672,25.578421140971937,20.102941232569076,25.13999938964844,18.71200008392334,22.72400016784668,15.607272624969482,17.914285523550852,16.647333240509035,21.397333335876464,30.204999923706055,25.988437354564667,28.985789349204616,26.713529474595013,33.7400016784668,29.868000411987303,29.554000091552734,26.85909080505371,28.930000032697407,26.609333292643228,16.278333393732705,24.714999675750732,21.343593686819077,24.012894755915593,22.105588295880487,26.730000495910645,25.35,24.486000061035156,22.819999824870717,24.062857151031494,21.766999912261962,11.15933345158895,19.22499942779541,16.698750019073486,19.04000016262657,17.497647117165958,19.719999313354492,20.831999588012696,19.41800003051758,18.780908844687723,19.195714269365585,16.924666531880696,6.329374308856527,14.137703281629086,8.76881098760437,11.189658573954057,10.873639959777861,13.783039759006895,14.760179654095895,14.443205038146973,12.819999824870717,13.551659771619525,10.424910451815924,6.329374308856527,14.137703281629086,8.76881098760437,11.189658573954057,10.873639959777861,13.783039759006895,14.760179654095895,14.443205038146973,12.819999824870717,13.551659771619525,10.424910451815924,0,0,280.6019516033398,493.2054645084669,678.0573438246906,691.8403835836975,765.641281854177,837.8573070449119,978.8773051184896,1073.7389235198264,1073.7389235198264,0,0,0.948312497138977,0.99442105042307,0.9998529406154857,1,1,1,0.9895454493435947,0.9843571390424456,0.06666666666666667,1,1,1,1,1,1,1,1,1,1,1,0.6103000052769979,1,0.948312497138977,0.99442105042307,0.9998529406154857,1,1,1,0.9895454493435947,0.9843571390424456,0.9284000015258789,1,1,1,1,0.9999999999999999,1,1,1,1,1,1,2018-05-11T12:00:00Z,2018-05-26T12:00:00Z,2018-05-28T12:00:00Z,2018-06-29T12:00:00Z,2018-07-18T12:00:00Z,2018-08-04T12:00:00Z,2018-08-05T12:00:00Z,2018-08-10T12:00:00Z,2018-08-15T12:00:00Z,2018-08-26T12:00:00Z,2018-09-02T12:00:00Z,2018-05-25T12:00:00Z,2018-05-27T12:00:00Z,2018-06-28T12:00:00Z,2018-07-17T12:00:00Z,2018-08-03T12:00:00Z,2018-08-04T12:00:00Z,2018-08-09T12:00:00Z,2018-08-14T12:00:00Z,2018-08-25T12:00:00Z,2018-09-01T12:00:00Z,2018-09-16T12:00:00Z,131,146,148,180,199,216,217,222,227,238,245,15,2,32,19,17,1,5,5,11,7,15,145,147,179,198,215,216,221,226,237,244,259
72,72,eastlansing_mi,42.6296,-84.4375,1.5,2018-06-07,16,2018,mid1,786.5445699027171,11,2018-05-24,2018-06-07,101,2018-09-16,2018-09-25,2018-10-09,Harvested at Maturity.,2.6139999561011793,5.60749981040135,1.1793750136857852,2.231818175620653,3.3749999398631707,2.2200000286102295,4.031428613833019,8.566666715467969,1.7469230623772511,2.864444524049759,5.579333303372065,2.6139999561011793,5.60749981040135,1.1793750136857852,2.231818175620653,3.3749999398631707,2.2200000286102295,4.031428613833019,8.566666715467969,1.7469230623772511,2.864444524049759,5.579333303372065,24.812000020345053,15.900000095367432,23.53624990582466,20.111818140203304,18.604285648890905,17.579999923706055,16.16285719190325,16.24833329518636,15.567692243135893,16.334444363911945,9.474666659037272,25.45466677347819,23.797499656677246,26.8943749666214,26.568181731484152,28.81642872946603,27.65999984741211,26.580000196184432,28.010000228881836,24.93153821505033,26.863333172268337,20.988666661580403,19.74833337465922,18.588749885559082,21.330312445759773,21.39999998699535,23.52714306967599,22.59500026702881,21.116428715842112,22.39750035603841,20.00807677782499,20.577777703603108,15.152999989191692,14.04199997584025,13.380000114440918,15.766249924898148,16.23181824250655,18.23785740988595,17.530000686645508,15.652857235499791,16.785000483194988,15.084615340599647,14.29222223493788,9.317333316802978,9.737413823817969,8.588749885559082,8.513965069475498,9.845977821283741,13.285506785033938,12.595000267028809,11.200988094352825,12.313635788320502,10.398226384268357,11.10210127670765,5.15390891718785,9.737413823817969,8.588749885559082,8.513965069475498,9.845977821283741,13.285506785033938,12.595000267028809,11.200988094352825,12.313635788320502,10.398226384268357,11.10210127670765,5.15390891718785,0,0,272.44688222321594,489.0583942914582,675.0554892819333,687.6504895489621,766.057406209432,839.939220939355,975.1161639348436,1075.0350754252124,1075.0350754252124,0,0,0.9346406251192093,0.9806136369705201,1,1,0.9619285719735282,0.9507500092188518,0.8193461454831638,0.8703333377838135,0.045633335113525395,1,1,1,1,1,1,1,1,1,1,1,0.8390333382288615,0.8588749885559082,0.9346406251192093,0.9806136369705201,1,1,0.9619285719735282,0.9507500092188518,0.8193461454831638,0.8703333377838135,0.49453333218892415,1,1,1,1,0.9999999999999999,1,0.9999999999999999,0.9999999999999999,0.9999999999999999,0.9999999999999999,1,2018-05-24T12:00:00Z,2018-06-08T12:00:00Z,2018-06-12T12:00:00Z,2018-07-14T12:00:00Z,2018-08-05T12:00:00Z,2018-08-19T12:00:00Z,2018-08-20T12:00:00Z,2018-08-27T12:00:00Z,2018-09-02T12:00:00Z,2018-09-15T12:00:00Z,2018-09-24T12:00:00Z,2018-06-07T12:00:00Z,2018-06-11T12:00:00Z,2018-07-13T12:00:00Z,2018-08-04T12:00:00Z,2018-08-18T12:00:00Z,2018-08-19T12:00:00Z,2018-08-26T12:00:00Z,2018-09-01T12:00:00Z,2018-09-14T12:00:00Z,2018-09-23T12:00:00Z,2018-10-08T12:00:00Z,144,159,163,195,217,231,232,239,245,258,267,15,4,32,22,14,1,7,6,13,9,15,158,162,194,216,230,231,238,244,257,266,281
73,73,saginaw_mi,43.4003,-83.8684,1.5,2018-05-21,32,2018,mid1,881.0609885387042,11,2018-05-07,2018-05-21,110,2018-09-08,2018-09-18,2018-10-02,Harvested at Maturity.,3.302000035966436,0.38999999267980456,2.107179487028565,2.239999996498227,2.8041175840532078,NA,0.9750000198061267,4.638571481619562,7.660833285811047,0.2460000026971102,3.919333306948344,3.302000035966436,0.38999999267980456,2.107179487028565,2.239999996498227,2.8041175840532078,NA,0.9750000198061267,4.638571481619562,7.660833285811047,0.2460000026971102,3.919333306948344,19.90533332824707,24.74750018119812,22.631538415566467,22.908695718516473,20.414117476519415,NA,16.416666507720947,16.345714296613423,15.685833295186361,15.499999856948852,11.482666619618733,18.36533342997233,23.522500038146973,24.692564279605183,26.347826086956523,26.43823533899644,NA,27.35333315531413,24.85714258466448,26.376666863759358,23.12100009918213,20.259333483378093,12.382000064849853,17.241250157356262,19.676666797735752,21.866521731666896,21.999117654912613,NA,23.219166437784832,20.667142731802805,22.3337500890096,18.76150002479553,16.086000029246012,6.398666699727376,10.960000276565552,14.660769315866323,17.385217376377273,17.559999970828784,NA,19.084999720255535,16.477142878941127,18.290833314259846,14.401999950408936,11.912666575113933,3.421477926419874,7.280632047434151,7.1229022998459035,9.402841030611699,11.219530099263379,NA,13.21916643778483,10.678584485147681,12.384084472132722,9.013626177419424,5.356156865273515,3.421477926419874,7.280632047434151,7.1229022998459035,9.402841030611699,11.219530099263379,NA,13.21916643778483,10.678584485147681,12.384084472132722,9.013626177419424,5.356156865273515,0,0,277.79318969399026,494.0585333980592,684.7905450855368,NA,764.1055437122458,838.8556351082796,987.4646487738722,1077.6009105480664,1077.6009105480664,0,0,0.8406538498707307,0.9916521735813307,0.9924117677352008,NA,1,0.9657857077462333,0.9430000066757203,0.8075999975204469,0.06666666666666667,1,1,1,1,1,NA,1,1,1,1,1,0.2725000063578288,0.7095000147819519,0.8406538498707307,0.9916521735813307,0.9924117677352008,NA,1,0.9657857077462333,0.9430000066757203,0.8075999975204469,0.5698333358764649,1,1,1,0.9999999999999999,0.9999999999999999,NA,1,1,1,0.9999999999999999,1,2018-05-07T12:00:00Z,2018-05-22T12:00:00Z,2018-05-26T12:00:00Z,2018-07-04T12:00:00Z,2018-07-27T12:00:00Z,NA,2018-08-13T12:00:00Z,2018-08-19T12:00:00Z,2018-08-26T12:00:00Z,2018-09-07T12:00:00Z,2018-09-17T12:00:00Z,2018-05-21T12:00:00Z,2018-05-25T12:00:00Z,2018-07-03T12:00:00Z,2018-07-26T12:00:00Z,2018-08-12T12:00:00Z,NA,2018-08-18T12:00:00Z,2018-08-25T12:00:00Z,2018-09-06T12:00:00Z,2018-09-16T12:00:00Z,2018-10-01T12:00:00Z,127,142,146,185,208,NA,225,231,238,250,260,15,4,39,23,17,0,6,7,12,10,15,141,145,184,207,224,NA,230,237,249,259,274
74,74,danvers_mn,45.2803,-95.7591,1.5,2018-05-21,33,2018,mid1,1088.2939250195896,11,2018-05-07,2018-05-21,112,2018-09-10,2018-09-17,2018-10-01,Harvested at Maturity.,1.383999972169598,3.0066667621334395,4.271714316095625,6.038260819147462,1.7730000163428485,0,0.830000001937151,4.803750078892335,2.732666625082493,0.10142857368503298,3.1533333122730256,1.383999972169598,3.0066667621334395,4.271714316095625,6.038260819147462,1.7730000163428485,0,0.830000001937151,4.803750078892335,2.732666625082493,0.10142857368503298,3.1533333122730256,19.823333168029784,18.290000279744465,19.94314286368234,22.42217383177384,21.546999883651733,22.280000686645508,21.202000236511232,15.138749957084656,15.598000113169352,14.764285632542203,10.535333347320556,22.818666648864745,27.05666669209798,27.37999986921038,28.422608499941617,26.692500114440918,30.469999313354492,29.554000473022462,26.00249981880188,24.392666880289713,27.817142759050643,17.29533341725667,15.934999990463258,21.15500020980835,21.623857034955705,23.068260752636455,20.80625009536743,23.6899995803833,23.52000036239624,20.476874947547913,18.74600008328756,21.744285651615687,12.287333361307779,9.051333332061768,15.253333727518717,15.867714200701032,17.71391300533129,14.920000076293945,16.90999984741211,17.48600025177002,14.951250076293945,13.0993332862854,15.671428544180735,7.279333305358887,6.40448984828631,11.15500020980835,7.858693016517951,9.335627507831544,9.440633881732785,13.178537761044003,12.982653167513647,10.653440933372826,9.3699164721274375,11.774557474120174,2.585240035135498,6.40448984828631,11.15500020980835,7.858693016517951,9.335627507831544,9.440633881732785,13.178537761044003,12.982653167513647,10.653440933372826,9.3699164721274375,11.774557474120174,2.585240035135498,0,0,275.0542555781283,489.7736882582538,678.5863658929094,691.7649036539534,756.6781694915217,841.9056969585043,982.4544440404158,1064.876346359257,1064.876346359257,0,0,0.9606714289528983,0.9983478255893873,0.9394000029563904,1,1,0.9465000033378601,0.8147333415349325,0.9354285648890904,0.06666666666666667,1,1,1,1,1,1,1,1,1,1,1,0.5771000003814697,0.9496666749318441,0.9606714289528983,0.9983478255893873,0.9394000029563904,1,1,0.9465000033378601,0.8147333415349325,0.9354285648890904,0.27563333193461104,1,1,1,1,1,1,1,0.9999999999999999,0.9999999999999999,0.9999999999999999,1,2018-05-07T12:00:00Z,2018-05-22T12:00:00Z,2018-05-25T12:00:00Z,2018-06-29T12:00:00Z,2018-07-22T12:00:00Z,2018-08-11T12:00:00Z,2018-08-12T12:00:00Z,2018-08-17T12:00:00Z,2018-08-25T12:00:00Z,2018-09-09T12:00:00Z,2018-09-16T12:00:00Z,2018-05-21T12:00:00Z,2018-05-24T12:00:00Z,2018-06-28T12:00:00Z,2018-07-21T12:00:00Z,2018-08-10T12:00:00Z,2018-08-11T12:00:00Z,2018-08-16T12:00:00Z,2018-08-24T12:00:00Z,2018-09-08T12:00:00Z,2018-09-15T12:00:00Z,2018-09-30T12:00:00Z,127,142,145,180,203,223,224,229,237,252,259,15,3,35,23,20,1,5,8,15,7,15,141,144,179,202,222,223,228,236,251,258,273
75,75,rosemount_mn,44.707,-93.101,1.5,2018-05-19,9,2018,mid1,962.4251021845374,11,2018-05-05,2018-05-19,107,2018-09-03,2018-09-13,2018-09-27,Harvested at Maturity.,2.624000002692143,0.46750000584870577,5.434857169964483,3.4117391409109468,1.3294736908650713,NA,0.06833333242684603,1.745999976620078,4.23538456355723,8.51600024793297,6.262000001594425,2.624000002692143,0.46750000584870577,5.434857169964483,3.4117391409109468,1.3294736908650713,NA,0.06833333242684603,1.745999976620078,4.23538456355723,8.51600024793297,6.262000001594425,18.975999959309895,18.440000295639038,19.01371419089181,22.781738965407662,20.871052591424238,NA,22.71666653951009,17.400000381469727,13.751538239992582,16.218000078201293,13.169999885559083,22.216000175476076,23.21749973297119,26.577714320591518,28.38608675417693,27.523684351067793,NA,32.18000030517578,29.931999969482423,26.096923094529373,23.50399990081787,23.17466672261556,15.669000101089477,17.311249911785126,21.514571489606585,22.945434715436853,21.47026320507652,NA,25.22916682561239,23.95399990081787,20.75153842339149,18.49099998474121,18.17733335494995,9.122000026702882,11.40500009059906,16.45142865862165,17.504782676696777,15.416842059085244,NA,18.278333346048992,17.97599983215332,15.406153752253605,13.478000068664551,13.179999987284342,6.074538200635115,7.483573741484433,8.041637144289192,9.355725925190347,9.962374286410233,NA,13.889801615370617,13.817124655771256,11.035705794632435,9.297983209986686,7.627574902455608,6.074538200635115,7.483573741484433,8.041637144289192,9.355725925190347,9.962374286410233,NA,13.889801615370617,13.817124655771256,11.035705794632435,9.297983209986686,7.627574902455608,0,0,281.4573000501218,496.63899632949983,685.9241077712944,NA,769.2629174635181,838.3485407423743,981.812716072596,1074.7925481724628,1074.7925481724628,0,0,0.9568285724094936,0.999913043561189,0.9653157911802593,NA,1,1,0.915923074575571,0.7602999925613403,0.06666666666666667,1,1,1,1,1,NA,1,1,1,1,1,0.5733000071843465,0.7116249978542328,0.9568285724094936,0.999913043561189,0.9653157911802593,NA,1,1,0.915923074575571,0.7602999925613403,0.6735999981562297,1,1,1,1,0.9999999999999999,NA,0.9999999999999999,0.9999999999999999,1,0.9999999999999999,1,2018-05-05T12:00:00Z,2018-05-20T12:00:00Z,2018-05-24T12:00:00Z,2018-06-28T12:00:00Z,2018-07-21T12:00:00Z,NA,2018-08-09T12:00:00Z,2018-08-15T12:00:00Z,2018-08-20T12:00:00Z,2018-09-02T12:00:00Z,2018-09-12T12:00:00Z,2018-05-19T12:00:00Z,2018-05-23T12:00:00Z,2018-06-27T12:00:00Z,2018-07-20T12:00:00Z,2018-08-08T12:00:00Z,NA,2018-08-14T12:00:00Z,2018-08-19T12:00:00Z,2018-09-01T12:00:00Z,2018-09-11T12:00:00Z,2018-09-26T12:00:00Z,125,140,144,179,202,NA,221,227,232,245,255,15,4,35,23,19,0,6,5,13,10,15,139,143,178,201,220,NA,226,231,244,254,269
76,76,mead_ne,41.15785,-96.42075,1.5,2018-05-17,10,2018,mid1,975.0687523361936,11,2018-05-03,2018-05-17,91,2018-08-16,2018-08-23,2018-09-06,Harvested at Maturity.,2.145333310216665,2.3300000205636024,3.343846171377943,7.585000000055879,1.7506249971920624,NA,2.595714251111661,1.7816666613022487,2.8230000540614126,11.021428780896324,7.892666599402825,2.145333310216665,2.3300000205636024,3.343846171377943,7.585000000055879,1.7506249971920624,NA,2.595714251111661,1.7816666613022487,2.8230000540614126,11.021428780896324,7.892666599402825,21.036000219980874,12.610000014305115,25.544615342066837,20.964500141143798,26.17312490940094,NA,21.829999787466868,24.78000005086263,21.41300001144409,15.50428567613874,13.745333417256672,26.778000005086263,23.28749990463257,32.544615525465744,29.71299982070923,32.60125005245209,NA,29.367142813546316,32.22166665395101,32.72200012207031,27.608571188790457,27.753333282470702,19.713999938964843,17.975000023841858,25.693269307796772,24.5589998960495,26.32531249523163,NA,23.352857249123712,24.924166599909466,26.216500091552735,23.01642860685076,23.141666730244953,12.649999872843425,12.662500143051147,18.8419230901278,19.40499997138977,20.04937493801117,NA,17.3385716847011,17.62666654586792,19.711000061035158,18.424286024911062,18.530000178019208,9.716702431389093,7.975000023841859,10.7567690059682,10.620377622264616,11.972601202196754,NA,11.71120656644446,12.633123413060275,13.98180713639303,12.723139510594097,12.15977689827601,9.716702431389093,7.975000023841859,10.7567690059682,10.620377622264616,11.972601202196754,NA,11.71120656644446,12.633123413060275,13.98180713639303,12.723139510594097,12.15977689827601,0,0,279.67599415517316,492.08354660046535,683.6451658356134,NA,765.6236118007247,841.4223522790862,981.2404236430166,1070.302400217175,1070.302400217175,0,0,0.9979423082791842,0.9998750019073487,0.9953437507152557,NA,1,1,1,0.9869285787854876,0.05603333155314128,1,1,1,1,1,NA,1,1,1,1,1,0.9206000010172527,0.7613750100135803,0.9979423082791842,0.9998750019073487,0.9953437507152557,NA,1,1,1,0.9869285787854876,0.9741999975840251,1,1,1,1,1,NA,0.9999999999999999,1,1,0.9999999999999999,1,2018-05-03T12:00:00Z,2018-05-18T12:00:00Z,2018-05-22T12:00:00Z,2018-06-17T12:00:00Z,2018-07-07T12:00:00Z,NA,2018-07-23T12:00:00Z,2018-07-30T12:00:00Z,2018-08-05T12:00:00Z,2018-08-15T12:00:00Z,2018-08-22T12:00:00Z,2018-05-17T12:00:00Z,2018-05-21T12:00:00Z,2018-06-16T12:00:00Z,2018-07-06T12:00:00Z,2018-07-22T12:00:00Z,NA,2018-07-29T12:00:00Z,2018-08-04T12:00:00Z,2018-08-14T12:00:00Z,2018-08-21T12:00:00Z,2018-09-05T12:00:00Z,123,138,142,168,188,NA,204,211,217,227,234,15,4,26,20,16,0,7,6,10,7,15,137,141,167,187,203,NA,210,216,226,233,248
77,77,ridgetown_ont,42.4527,-81.8803,1.5,2018-05-31,40,2018,mid1,752.7668934958806,11,2018-05-17,2018-05-31,98,2018-09-06,2018-09-15,2018-09-29,Harvested at Maturity.,1.961333340406418,3.606666629513105,2.9824242642657324,3.17600001078099,2.364000036691626,NA,1.9279999732971191,4.372857119355883,2.1849999755620955,2.6688889182276196,3.5893333514531456,1.961333340406418,3.606666629513105,2.9824242642657324,3.17600001078099,2.364000036691626,NA,1.9279999732971191,4.372857119355883,2.1849999755620955,2.6688889182276196,3.5893333514531456,22.955999883015952,20.181666374206543,23.239090991742682,21.96850004196167,19.716000111897788,NA,15.723999881744385,16.20857129778181,18.46199998855591,11.805555290646023,13.960666592915853,23.519333521525066,20.71000035603841,25.322424223928742,26.513999938964844,27.366000111897787,NA,27.970000076293946,25.10428592136928,27.946999549865723,23.697777854071724,23.81333325703939,18.088666741053263,15.925000190734863,20.940000013871625,22.58924994468689,23.81900011698405,NA,24.3939998626709,21.575000013623917,24.364999771118164,20.393333382076687,19.744666608174644,12.657999960581462,11.140000025431315,16.557575803814512,18.664499950408935,20.272000122070313,NA,20.817999649047852,18.045714105878556,20.782999992370605,17.08888891008165,15.675999959309896,8.198956491946777,6.0031030259907245,8.23084176378066,10.538814413032588,13.286338949615926,NA,14.3939998626709,11.583896305894,14.363116014953853,10.343923270204332,8.815333239237468,8.198956491946777,6.0031030259907245,8.23084176378066,10.538814413032588,13.286338949615926,NA,14.3939998626709,11.583896305894,14.363116014953853,10.343923270204332,8.815333239237468,0,0,271.6177782047618,482.3940664654136,681.6891507096525,NA,753.659150023007,834.746424164265,978.3775843138036,1071.4728937456423,1071.4728937456423,0,0,0.92789394494259,0.9998499989509583,1,NA,1,0.9816428525107247,1,0.9071666558583578,0.06666666666666667,1,1,1,1,1,NA,1,1,1,1,1,0.7252333402633667,0.5925000190734864,0.92789394494259,0.9998499989509583,1,NA,1,0.9816428525107247,1,0.9071666558583578,0.8395333290100098,1,1,1,1,1,NA,0.9999999999999999,0.9999999999999999,0.9999999999999999,0.9999999999999999,1,2018-05-17T12:00:00Z,2018-06-01T12:00:00Z,2018-06-07T12:00:00Z,2018-07-10T12:00:00Z,2018-07-30T12:00:00Z,NA,2018-08-14T12:00:00Z,2018-08-19T12:00:00Z,2018-08-26T12:00:00Z,2018-09-05T12:00:00Z,2018-09-14T12:00:00Z,2018-05-31T12:00:00Z,2018-06-06T12:00:00Z,2018-07-09T12:00:00Z,2018-07-29T12:00:00Z,2018-08-13T12:00:00Z,NA,2018-08-18T12:00:00Z,2018-08-25T12:00:00Z,2018-09-04T12:00:00Z,2018-09-13T12:00:00Z,2018-09-28T12:00:00Z,137,152,158,191,211,NA,226,231,238,248,257,15,6,33,20,15,0,5,7,10,9,15,151,157,190,210,225,NA,230,237,247,256,271
78,78,stpauls_ont,43.32515,-81.1402,1.5,2018-05-23,13,2018,mid1,835.1142836662,11,2018-05-09,2018-05-23,110,2018-09-10,2018-09-18,2018-10-02,Harvested at Maturity.,2.809333313256502,0.29499999852851033,1.714499978441745,2.99090909500691,3.0449999754782766,NA,4.563333469753464,4.677142795707498,1.6438461696872344,2.087499998509884,2.452666695167621,2.809333313256502,0.29499999852851033,1.714499978441745,2.99090909500691,3.0449999754782766,NA,4.563333469753464,4.677142795707498,1.6438461696872344,2.087499998509884,2.452666695167621,20.399999872843424,25.62249994277954,22.811750054359436,22.044545477086846,20.456250071525574,NA,16.609999974568684,15.591428484235491,16.326923076923077,14.068749964237213,12.125333261489867,18.588000043233237,25.022500038146973,25.847500061988832,27.582272616299715,27.650624990463257,NA,27.964999834696453,24.738571439470565,25.87000010563777,24.78125023841858,20.879333368937175,11.788000032057365,17.996249973773956,19.75512503385544,21.93136353926225,22.56281253695488,NA,23.300833225250244,20.39714288711548,21.442307728987473,19.412500143051147,16.01333328882853,4.988000020881494,10.96999990940094,13.662750005722046,16.280454462224785,17.475000083446503,NA,18.636666615804035,16.055714334760392,17.014615352337177,14.043750047683716,11.147333208719889,3.237763966657321,8.115198569737377,7.0743536400061755,9.59008006899494,11.850122045404229,NA,13.300833225250244,10.447380310916902,11.601519889122706,9.990180640244484,5.289875000920693,3.237763966657321,8.115198569737377,7.0743536400061755,9.59008006899494,11.850122045404229,NA,13.300833225250244,10.447380310916902,11.601519889122706,9.990180640244484,5.289875000920693,0,0,282.974145600247,493.95590711813577,683.5578598446034,NA,763.3628591961049,836.4945213725232,987.3142799311184,1067.2357250530742,1067.2357250530742,0,0,0.8364125049114227,0.9814090923829513,1,NA,1,0.9501428604125977,0.9125000036679781,0.8046875059604645,0.06666666666666667,1,1,1,1,1,NA,1,1,1,1,1,0.22046666860580447,0.7996249973773957,0.8364125049114227,0.9814090923829513,1,NA,1,0.9501428604125977,0.9125000036679781,0.8046875059604645,0.5701000022888184,1,1,1,1,1,NA,0.9999999999999999,1,1,1,1,2018-05-09T12:00:00Z,2018-05-24T12:00:00Z,2018-05-28T12:00:00Z,2018-07-07T12:00:00Z,2018-07-29T12:00:00Z,NA,2018-08-14T12:00:00Z,2018-08-20T12:00:00Z,2018-08-27T12:00:00Z,2018-09-09T12:00:00Z,2018-09-17T12:00:00Z,2018-05-23T12:00:00Z,2018-05-27T12:00:00Z,2018-07-06T12:00:00Z,2018-07-28T12:00:00Z,2018-08-13T12:00:00Z,NA,2018-08-19T12:00:00Z,2018-08-26T12:00:00Z,2018-09-08T12:00:00Z,2018-09-16T12:00:00Z,2018-10-01T12:00:00Z,129,144,148,188,210,NA,226,232,239,252,260,15,4,40,22,16,0,6,7,13,8,15,143,147,187,209,225,NA,231,238,251,259,274
79,79,woodstock_ont,43.14542,-80.78348,1.5,2018-05-25,8,2018,mid1,893.5693928429532,11,2018-05-11,2018-05-25,101,2018-09-03,2018-09-09,2018-09-23,Harvested at Maturity.,3.0146666146814822,0.2966666767994563,2.3452777709398003,2.5735000179149212,2.695625003078021,2.640000104904175,0.3059999976307154,3.4883334254845977,3.5850000083446503,0.6933333364625771,4.104666690528393,3.0146666146814822,0.2966666767994563,2.3452777709398003,2.5735000179149212,2.695625003078021,2.640000104904175,0.3059999976307154,3.4883334254845977,3.5850000083446503,0.6933333364625771,4.104666690528393,22.0839999516805,24.423333485921226,22.460277795791626,23.938499808311462,19.313749969005585,20.31999969482422,22.83800048828125,16.366666793823242,15.649166584014893,16.471666653951008,14.54199997584025,21.23333320617676,27.450000127156574,26.016388840145535,29.149000263214113,27.848125219345093,29.790000915527344,29.37799987792969,27.885000228881836,26.58666690190633,28.693333943684895,24.41933339436849,14.382999952634176,21.086666742960613,20.49097218778398,23.378250098228456,23.323750257492065,23.565000534057617,23.90699996948242,23.52333354949951,22.111250122388203,24.229167143503826,19.806333382924397,7.532666699091593,14.723333358764648,14.965555535422432,17.6074999332428,18.799375295639038,17.34000015258789,18.436000061035156,19.161666870117188,17.635833342870075,19.765000343322754,15.193333371480305,5.037476912043492,10.995674484280746,7.703237406636337,10.383600012374274,12.029620735869901,13.254119911142752,13.809803557256592,13.523333549499512,12.1094748770232,14.03722207629482,9.429666709899903,5.037476912043492,10.995674484280746,7.703237406636337,10.383600012374274,12.029620735869901,13.254119911142752,13.809803557256592,13.523333549499512,12.1094748770232,14.03722207629482,9.429666709899903,0,0,277.3165466389081,484.9885468863936,677.4624786603123,690.716598571455,759.7656163577379,840.905617654735,986.2193161790134,1070.4426486367822,1070.4426486367822,0,0,0.8988194386164348,0.9952999997138977,1,1,1,1,0.9792916774749756,0.996750005086263,0.037666667302449545,1,1,1,1,1,1,1,1,1,1,1,0.46069999535878503,0.95616668065389,0.8988194386164348,0.9952999997138977,1,1,1,1,0.9792916774749756,0.996750005086263,0.836166664759318,1,1,1,0.9999999999999999,0.9999999999999999,1,1,1,1,0.9999999999999999,1,2018-05-11T12:00:00Z,2018-05-26T12:00:00Z,2018-05-29T12:00:00Z,2018-07-04T12:00:00Z,2018-07-24T12:00:00Z,2018-08-09T12:00:00Z,2018-08-10T12:00:00Z,2018-08-15T12:00:00Z,2018-08-21T12:00:00Z,2018-09-02T12:00:00Z,2018-09-08T12:00:00Z,2018-05-25T12:00:00Z,2018-05-28T12:00:00Z,2018-07-03T12:00:00Z,2018-07-23T12:00:00Z,2018-08-08T12:00:00Z,2018-08-09T12:00:00Z,2018-08-14T12:00:00Z,2018-08-20T12:00:00Z,2018-09-01T12:00:00Z,2018-09-07T12:00:00Z,2018-09-22T12:00:00Z,131,146,149,185,205,221,222,227,233,245,251,15,3,36,20,16,1,5,6,12,6,15,145,148,184,204,220,221,226,232,244,250,265
80,80,ames_ia,42.0215,-93.7745,2.5,2018-05-25,15,2018,mid2,1132.9837392881864,11,2018-05-11,2018-05-25,103,2018-09-05,2018-09-13,2018-09-27,Harvested at Maturity.,2.5146666365365187,0.00499999988824129,6.437142794220043,4.420000050365925,1.9076470405082493,10.710000038146973,2.2099999679873386,3.4614285911832536,9.627333267157276,4.992499897722155,4.100666677827636,2.5146666365365187,0.00499999988824129,6.437142794220043,4.420000050365925,1.9076470405082493,10.710000038146973,2.2099999679873386,3.4614285911832536,9.627333267157276,4.992499897722155,4.100666677827636,18.92933349609375,27.975000381469727,21.663928610937937,23.565600051879883,22.359411744510425,19.31999969482422,24.271667162577312,16.667142868041992,13.901333363850911,17.448749661445618,15.776666577657064,24.89666659037272,34.8700008392334,29.026785714285715,29.526399993896483,28.77823526719037,27.40999984741211,30.60000006357829,29.66285732814244,27.03066660563151,23.357500076293945,25.35199966430664,19.25199991861979,27.200000762939453,23.64339303970337,24.266999893188476,22.808235196506278,24.21500015258789,24.202500025431316,24.370000294276647,22.04133332570394,18.42062509059906,19.665666500727337,13.607333246866862,19.530000686645508,18.260000365121023,19.00759979248047,16.83823512582218,21.020000457763672,17.804999987284344,19.077143260410853,17.052000045776367,13.483750104904175,13.97933333714803,9.303932246658801,13.713052963614466,8.739899438340158,9.691671179941858,10.33171709332733,12.842521842141256,12.910081271720957,14.002176082914325,12.108536812478702,8.999494006303697,9.127417355648676,9.303932246658801,13.713052963614466,8.739899438340158,9.691671179941858,10.33171709332733,12.842521842141256,12.910081271720957,14.002176082914325,12.108536812478702,8.999494006303697,9.127417355648676,0,0,244.71718427352437,487.0089637720708,662.6481543586351,675.4906762007764,752.9511638311023,850.9663964115026,1032.5944485986834,1104.590400649113,1104.590400649113,0,0,0.9952857170786177,1,0.9934411750120276,1,1,1,0.9537000020345052,0.7818125009536744,0.06666666666666667,1,1,1,1,1,1,1,1,1,1,1,0.8191999975840251,1,0.9952857170786177,1,0.9934411750120276,1,1,1,0.9537000020345052,0.7818125009536744,0.7542999951044719,1,1,1,1,1,1,1,1,0.9999999999999999,1,1,2018-05-11T12:00:00Z,2018-05-26T12:00:00Z,2018-05-28T12:00:00Z,2018-06-25T12:00:00Z,2018-07-20T12:00:00Z,2018-08-06T12:00:00Z,2018-08-07T12:00:00Z,2018-08-13T12:00:00Z,2018-08-20T12:00:00Z,2018-09-04T12:00:00Z,2018-09-12T12:00:00Z,2018-05-25T12:00:00Z,2018-05-27T12:00:00Z,2018-06-24T12:00:00Z,2018-07-19T12:00:00Z,2018-08-05T12:00:00Z,2018-08-06T12:00:00Z,2018-08-12T12:00:00Z,2018-08-19T12:00:00Z,2018-09-03T12:00:00Z,2018-09-11T12:00:00Z,2018-09-26T12:00:00Z,131,146,148,176,201,218,219,225,232,247,255,15,2,28,25,17,1,6,7,15,8,15,145,147,175,200,217,218,224,231,246,254,269
81,81,pontiac_il,40.82216667,-88.62016667,2.5,2018-05-08,35,2018,mid2,1156.885009052265,11,2018-04-24,2018-05-08,108,2018-08-24,2018-08-29,2018-09-12,Harvested at Maturity.,0.8606666433314483,2.6800000220537186,3.9379310477524996,4.7503845581355,2.109411762041204,0.02999999932944774,0.964444426405761,1.4783333456143737,3.736428546719253,1.4400000289082526,5.620666610325376,0.8606666433314483,2.6800000220537186,3.9379310477524996,4.7503845581355,2.109411762041204,0.02999999932944774,0.964444426405761,1.4783333456143737,3.736428546719253,1.4400000289082526,5.620666610325376,23.869333521525064,18.294999837875366,22.059655304612786,22.423077033116268,23.915882222792682,27.06999969482422,20.201111210717094,21.37833325068156,19.123571395874023,17.472000503540038,15.657999738057454,22.086666615804038,24.800000190734863,27.403793334960938,28.583461468036358,28.484705756692325,30.1200008392334,27.66888893975152,32.16166718800863,30.60499940599714,29.366000366210937,27.322666549682616,14.962666600942612,18.50125014781952,21.270344915061163,23.959038459337673,23.01941167607027,23.645000457763672,21.830555597941082,26.18000030517578,24.751785278320313,23.92000036239624,22.28466663360596,7.838666586081187,12.202500104904175,15.136896495161386,19.334615450638992,17.554117595448215,17.170000076293945,15.992222256130642,20.198333422342937,18.898571150643484,18.47400035858154,17.246666717529298,6.039502349720871,8.501250147819519,8.330948714411797,9.487173509243997,9.848702786765335,11.146970411115186,10.123569681232441,13.311560495476181,13.876954067588036,13.112619760674237,10.688194730011622,6.039502349720871,8.501250147819519,8.330948714411797,9.487173509243997,9.848702786765335,11.146970411115186,10.123569681232441,13.311560495476181,13.876954067588036,13.112619760674237,10.688194730011622,0,0,241.59751271794215,488.264023958286,655.6919713332968,666.838941744412,757.9510688755039,837.8204318483611,1032.0977887945935,1097.6608875979646,1097.6608875979646,0,0,0.93153448269285,0.9935384621986976,0.9962352949030259,1,1,1,0.9984642846243722,0.9890999984741211,0.06666666666666667,1,1,1,1,1,1,1,1,1,1,1,0.5156666696071625,0.8320000171661378,0.93153448269285,0.9935384621986976,0.9962352949030259,1,1,1,0.9984642846243722,0.9890999984741211,0.9324333318074545,1,1,1,1,0.9999999999999999,1,1,1,0.9999999999999999,0.9999999999999999,1,2018-04-24T12:00:00Z,2018-05-09T12:00:00Z,2018-05-13T12:00:00Z,2018-06-11T12:00:00Z,2018-07-07T12:00:00Z,2018-07-24T12:00:00Z,2018-07-25T12:00:00Z,2018-08-03T12:00:00Z,2018-08-09T12:00:00Z,2018-08-23T12:00:00Z,2018-08-28T12:00:00Z,2018-05-08T12:00:00Z,2018-05-12T12:00:00Z,2018-06-10T12:00:00Z,2018-07-06T12:00:00Z,2018-07-23T12:00:00Z,2018-07-24T12:00:00Z,2018-08-02T12:00:00Z,2018-08-08T12:00:00Z,2018-08-22T12:00:00Z,2018-08-27T12:00:00Z,2018-09-11T12:00:00Z,114,129,133,162,188,205,206,215,221,235,240,15,4,29,26,17,1,9,6,14,5,15,128,132,161,187,204,205,214,220,234,239,254
82,82,urbana_il,40.05325,-88.23485,2.5,2018-05-07,17,2018,mid2,1044.4147826685596,11,2018-04-23,2018-05-07,103,2018-08-18,2018-08-23,2018-09-06,Harvested at Maturity.,1.1493333185712495,2.0524999042972922,2.212399999350309,6.543750086644043,3.147058831527829,NA,1.351111090845532,5.636249995324761,1.4835714119087373,7.2560000836849214,2.0340000189840794,1.1493333185712495,2.0524999042972922,2.212399999350309,6.543750086644043,3.147058831527829,NA,1.351111090845532,5.636249995324761,1.4835714119087373,7.2560000836849214,2.0340000189840794,22.997333526611328,22.27999973297119,22.507200164794924,20.63083340724309,25.61117654688218,NA,22.503332985772026,19.281250178813934,21.133571284157888,15.29000015258789,18.015333366394042,20.87066650390625,26.610000133514404,27.76360008239746,28.71499991416931,29.926470476038315,NA,27.97111087375217,26.414999961853027,30.428571564810618,28.947999572753908,29.771999994913738,14.392999958992004,19.768750190734863,22.324200019836425,24.042708257834118,24.730882364160873,NA,22.858888732062447,21.56124997138977,25.002499989100865,24.373999786376952,24.470333353678384,7.915333414077759,12.927500247955322,16.88479995727539,19.37041660149892,19.535294252283432,NA,17.746666590372723,16.707499980926514,19.576428413391113,19.8,19.168666712443034,5.443596497182002,9.768750190734863,9.589711878311604,9.800389413843128,10.798193679159395,NA,10.454585525078233,10.104031327398554,14.14289881017151,14.373999786376952,12.912443811878363,5.443596497182002,9.768750190734863,9.589711878311604,9.800389413843128,10.798193679159395,NA,10.454585525078233,10.104031327398554,14.14289881017151,14.373999786376952,12.912443811878363,0,0,239.74279695779012,474.9521428900253,658.5214354357349,NA,752.6127051614391,833.4449557806275,1031.4455391230283,1103.3155380549133,1103.3155380549133,0,0,0.9911799983978271,0.9998125016689301,0.9983823551851161,NA,1,1,1,1,0.06666666666666667,1,1,1,1,1,NA,1,1,1,1,1,0.46049999753634135,0.9300000190734863,0.9911799983978271,0.9998125016689301,0.9983823551851161,NA,1,1,1,1,0.9905666637420655,1,1,1,1,1,NA,1,1,0.9999999999999999,1,1,2018-04-23T12:00:00Z,2018-05-08T12:00:00Z,2018-05-12T12:00:00Z,2018-06-06T12:00:00Z,2018-06-30T12:00:00Z,NA,2018-07-17T12:00:00Z,2018-07-26T12:00:00Z,2018-08-03T12:00:00Z,2018-08-17T12:00:00Z,2018-08-22T12:00:00Z,2018-05-07T12:00:00Z,2018-05-11T12:00:00Z,2018-06-05T12:00:00Z,2018-06-29T12:00:00Z,2018-07-16T12:00:00Z,NA,2018-07-25T12:00:00Z,2018-08-02T12:00:00Z,2018-08-16T12:00:00Z,2018-08-21T12:00:00Z,2018-09-05T12:00:00Z,113,128,132,157,181,NA,198,207,215,229,234,15,4,25,24,17,0,9,8,14,5,15,127,131,156,180,197,NA,206,214,228,233,248
83,83,wanatah_in,41.4444,-86.9437,2.5,2018-05-25,20,2018,mid2,972.530057252524,11,2018-05-11,2018-05-25,104,2018-09-06,2018-09-13,2018-09-27,Harvested at Maturity.,3.833333295583725,0.15000000596046448,4.079687531630043,2.330400055348873,2.1780000288039445,8.180000305175781,2.480000035216411,3.0766667226950326,4.3339999685684845,3.4871428537049463,1.4053333142151434,3.833333295583725,0.15000000596046448,4.079687531630043,2.330400055348873,2.1780000288039445,8.180000305175781,2.480000035216411,3.0766667226950326,4.3339999685684845,3.4871428537049463,1.4053333142151434,18.12599973678589,25.920000076293945,19.993125021457672,23.645200080871582,20.98266658782959,17.780000686645508,22.735000292460125,15.356666564941406,17.325333245595296,13.43142829622541,16.995333353678387,21.397333335876464,30.204999923706055,25.988437354564667,28.26159996032715,28.215333557128908,26.920000076293945,29.836666742960613,27.99833329518636,28.357999928792317,23.36571420942034,26.658000055948893,16.278333393732705,24.714999675750732,21.343593686819077,23.516800022125246,23.287333424886068,23.63000011444092,24.515000025431316,24.008333206176758,23.74366658528646,19.52571419307164,21.095999972025552,11.15933345158895,19.22499942779541,16.698750019073486,18.77200008392334,18.359333292643228,20.34000015258789,19.19333330790202,20.018333117167156,19.1293332417806,15.685714176722936,15.533999888102214,6.329374308856527,14.137703281629086,7.688972629775362,9.76257312021634,11.276073439338054,12.702004853795442,13.928993797561219,14.008333206176758,13.322818000702858,9.504746724975961,10.326681865034502,6.329374308856527,14.137703281629086,7.688972629775362,9.76257312021634,11.276073439338054,12.702004853795442,13.928993797561219,14.008333206176758,13.322818000702858,9.504746724975961,10.326681865034502,0,0,246.04712415281156,490.1114521582202,659.2525537482908,671.9545586020862,755.5285213874536,839.5785206245141,1039.420790635057,1105.9540177098888,1105.9540177098888,0,0,0.948312497138977,0.9957599983215332,0.9998333326975505,1,1,1,0.985033327738444,0.8542142868041992,0.06310000101725262,1,1,1,1,1,1,1,1,1,1,1,0.6103000052769979,1,0.948312497138977,0.9957599983215332,0.9998333326975505,1,1,1,0.985033327738444,0.8542142868041992,0.9043000062306722,1,1,1,1,0.9999999999999999,1,0.9999999999999999,1,1,0.9999999999999999,1,2018-05-11T12:00:00Z,2018-05-26T12:00:00Z,2018-05-28T12:00:00Z,2018-06-29T12:00:00Z,2018-07-24T12:00:00Z,2018-08-08T12:00:00Z,2018-08-09T12:00:00Z,2018-08-15T12:00:00Z,2018-08-21T12:00:00Z,2018-09-05T12:00:00Z,2018-09-12T12:00:00Z,2018-05-25T12:00:00Z,2018-05-27T12:00:00Z,2018-06-28T12:00:00Z,2018-07-23T12:00:00Z,2018-08-07T12:00:00Z,2018-08-08T12:00:00Z,2018-08-14T12:00:00Z,2018-08-20T12:00:00Z,2018-09-04T12:00:00Z,2018-09-11T12:00:00Z,2018-09-26T12:00:00Z,131,146,148,180,205,220,221,227,233,248,255,15,2,32,25,15,1,6,6,15,7,15,145,147,179,204,219,220,226,232,247,254,269
84,84,eastlansing_mi,42.6296,-84.4375,2.5,2018-06-07,16,2018,mid2,885.0213098956185,11,2018-05-24,2018-06-07,112,2018-09-27,2018-10-08,2018-10-22,Harvested at Maturity.,2.6139999561011793,5.60749981040135,1.1793750136857852,3.2153845883619327,2.1157142482697964,0,5.670000068311181,6.550000019903694,1.814210564682358,6.572727252136577,2.254666725297769,2.6139999561011793,5.60749981040135,1.1793750136857852,3.2153845883619327,2.1157142482697964,0,5.670000068311181,6.550000019903694,1.814210564682358,6.572727252136577,2.254666725297769,24.812000020345053,15.900000095367432,23.53624990582466,19.805769186753494,18.375714233943395,23.670000076293945,14.352857181004115,17.378571374075754,14.682105214972244,9.893636270002885,9.792666784922282,25.45466677347819,23.797499656677246,26.8943749666214,26.984615325927734,27.897142955235072,27.030000686645508,27.761428833007813,28.648571286882675,24.856841940628854,19.850908973000266,14.792666689554851,19.74833337465922,18.588749885559082,21.330312445759773,21.872500034478996,22.523214442389353,19.71000051498413,22.504285948617117,23.66071421759469,19.091842049046566,13.994999950582331,9.487333323558172,14.04199997584025,13.380000114440918,15.766249924898148,16.760384743030254,17.14928592954363,12.390000343322754,17.247143064226425,18.67285714830671,13.326842157464279,8.139090928164395,4.181999957561493,9.737413823817969,8.588749885559082,7.383836537553528,9.513787514617926,12.209514580111613,9.71000051498413,12.386166750098978,13.546078999248572,9.733338144176885,6.64397314457216,2.4570170877251525,9.737413823817969,8.588749885559082,7.383836537553528,9.513787514617926,12.209514580111613,9.71000051498413,12.386166750098978,13.546078999248572,9.733338144176885,6.64397314457216,2.4570170877251525,0,0,236.28276920171288,483.64124458177895,654.5744487033417,664.2844492183258,750.9876164690186,845.8101694637585,1030.7435942031193,1103.8272987934129,1103.8272987934129,0,0,0.9346406251192093,0.9835961543596708,0.9899999959128244,0.9710000514984132,0.9438571521214076,0.9964999880109514,0.799657896945351,0.3938636302947998,0.029600000381469725,1,1,1,1,1,1,1,1,1,1,1,0.8390333382288615,0.8588749885559082,0.9346406251192093,0.9835961543596708,0.9899999959128244,0.9710000514984132,0.9438571521214076,0.9964999880109514,0.799657896945351,0.3938636302947998,0.2250000031789144,1,1,1,1,1,1,0.9999999999999999,1,0.9999999999999999,1,1,2018-05-24T12:00:00Z,2018-06-08T12:00:00Z,2018-06-12T12:00:00Z,2018-07-14T12:00:00Z,2018-08-09T12:00:00Z,2018-08-23T12:00:00Z,2018-08-24T12:00:00Z,2018-08-31T12:00:00Z,2018-09-07T12:00:00Z,2018-09-26T12:00:00Z,2018-10-07T12:00:00Z,2018-06-07T12:00:00Z,2018-06-11T12:00:00Z,2018-07-13T12:00:00Z,2018-08-08T12:00:00Z,2018-08-22T12:00:00Z,2018-08-23T12:00:00Z,2018-08-30T12:00:00Z,2018-09-06T12:00:00Z,2018-09-25T12:00:00Z,2018-10-06T12:00:00Z,2018-10-21T12:00:00Z,144,159,163,195,221,235,236,243,250,269,280,15,4,32,26,14,1,7,7,19,11,15,158,162,194,220,234,235,242,249,268,279,294
85,85,lenawee_mi,41.9,-84.07,2.5,2018-05-29,41,2018,mid2,992.9709266562886,11,2018-05-15,2018-05-29,112,2018-09-18,2018-09-25,2018-10-09,Harvested at Maturity.,2.1053332903732858,6.496666828791301,2.3851515367965805,2.032758580906124,2.7230769400126658,5.519999980926514,3.5175000024028122,1.9228570881698812,2.8824999508215114,1.5185713738735234,4.302666708330313,2.1053332903732858,6.496666828791301,2.3851515367965805,2.032758580906124,2.7230769400126658,5.519999980926514,3.5175000024028122,1.9228570881698812,2.8824999508215114,1.5185713738735234,4.302666708330313,21.86000016530355,21.59999974568685,20.96606055173007,22.07551719402445,21.082307668832634,8.079999923706055,18.639999747276306,17.814285687037877,14.844374924898148,15.795714378356934,11.445999908447266,24.613999938964845,27.773333231608074,25.671212109652433,26.928275930470434,29.203846124502327,27.059999465942383,26.183749675750732,28.85428537641253,26.38187527656555,26.917142868041992,22.67600021362305,18.7649999777476,22.65333318710327,20.62984849467422,21.41965520792994,23.68499986941998,23.469999313354492,20.959999918937683,23.27071407863072,21.13906255364418,20.44928560938154,16.484666848182677,12.916000016530354,17.53333314259847,15.588484879696008,15.911034485389447,18.166153614337627,19.8799991607666,15.736250162124634,17.687142780848912,15.896249830722809,13.981428350721087,10.293333482742309,8.72617490196109,12.653333187103271,7.049915510484047,8.698079684437184,12.705809221655787,13.469999313354492,11.058269366632402,13.103482637228284,11.324919928464293,11.122872829116242,6.270357771365444,8.72617490196109,12.653333187103271,7.049915510484047,8.698079684437184,12.705809221655787,13.469999313354492,11.058269366632402,13.103482637228284,11.324919928464293,11.122872829116242,6.270357771365444,0,0,232.64721184597357,484.89152269465177,650.0670425761771,663.5370418895316,752.0031968225908,843.7275752831887,1024.926294138617,1102.786403942431,1102.786403942431,0,0,0.8961363633473715,0.9758448321243812,1,1,0.9568124949932099,0.9889999934605189,0.8681875079870224,0.8428571326392038,0.04940000216166179,1,1,1,1,1,1,1,1,1,1,1,0.7789333327611287,1,0.8961363633473715,0.9758448321243812,1,1,0.9568124949932099,0.9889999934605189,0.8681875079870224,0.8428571326392038,0.6071000123023987,1,1,1,1,1,1,0.9999999999999999,0.9999999999999999,0.9999999999999999,0.9999999999999999,1,2018-05-15T12:00:00Z,2018-05-30T12:00:00Z,2018-06-02T12:00:00Z,2018-07-05T12:00:00Z,2018-08-03T12:00:00Z,2018-08-16T12:00:00Z,2018-08-17T12:00:00Z,2018-08-25T12:00:00Z,2018-09-01T12:00:00Z,2018-09-17T12:00:00Z,2018-09-24T12:00:00Z,2018-05-29T12:00:00Z,2018-06-01T12:00:00Z,2018-07-04T12:00:00Z,2018-08-02T12:00:00Z,2018-08-15T12:00:00Z,2018-08-16T12:00:00Z,2018-08-24T12:00:00Z,2018-08-31T12:00:00Z,2018-09-16T12:00:00Z,2018-09-23T12:00:00Z,2018-10-08T12:00:00Z,135,150,153,186,215,228,229,237,244,260,267,15,3,33,29,13,1,8,7,16,7,15,149,152,185,214,227,228,236,243,259,266,281
86,86,lamberton_mn,44.24095,-95.3115,2.5,2018-05-16,42,2018,mid2,1204.788710452446,11,2018-05-02,2018-05-16,126,2018-09-19,2018-09-30,2018-10-14,Harvested at Maturity.,3.617333309849103,1.9660000070929526,6.630000035080946,5.259354857427459,2.2605262795757306,0,6.027777668502596,3.183750009164214,3.934999926119215,8.830000168220563,3.887333312382301,3.617333309849103,1.9660000070929526,6.630000035080946,5.259354857427459,2.2605262795757306,0,6.027777668502596,3.183750009164214,3.934999926119215,8.830000168220563,3.887333312382301,19.4979998588562,17.503999996185303,20.053030274131082,23.10677433013916,21.28894755714818,23.020000457763672,16.45222240024143,14.736249685287476,15.709999720255533,11.221818121996792,7.07133329709371,21.611999956766766,23.518000030517577,27.260000055486508,27.158386968797252,25.74578947769968,29.559999465942383,24.98777749803331,24.518749713897705,25.216666751437717,18.486363757740367,11.590666548411052,15.242666705449421,17.2289999961853,21.871969757658064,22.286128920893514,20.412894675606175,23.40499973297119,20.538888878292507,19.29312491416931,20.438333405388725,13.68772729960355,6.891666607558727,8.87333345413208,10.939999961853028,16.48393945982962,17.41387087298978,15.07999987351267,17.25,16.090000258551704,14.067500114440918,15.660000059339735,8.88909084146673,2.192666666706403,5.702943523482482,7.341238788022995,7.230736052217621,7.901960177094431,8.78965259310137,12.57777398990486,10.514025191908068,9.856166378944367,10.805968681098024,6.4782766933785245,0.7962860634213189,5.702943523482482,7.341238788022995,7.230736052217621,7.901960177094431,8.78965259310137,12.57777398990486,10.514025191908068,9.856166378944367,10.805968681098024,6.4782766933785245,0.7962860634213189,0,0,238.6142897231815,483.5750552131088,650.5784544820349,663.1562284719397,757.7824551991123,836.6317862306673,1031.1392224904316,1102.4002661175953,1102.4002661175953,0,0,0.9561969655932803,0.9976451612287952,0.9267631530761719,1,0.937444437874688,0.8244999885559082,0.87741666369968,0.37690909559076485,0,1,1,1,1,1,1,1,1,1,1,1,0.5316000048319499,0.682799997329712,0.9561969655932803,0.9976451612287952,0.9267631530761719,1,0.937444437874688,0.8244999885559082,0.87741666369968,0.37690909559076485,0.04033332824707032,1,1,1,0.9999999999999999,0.9999999999999999,1,0.9999999999999999,0.9999999999999999,1,0.9999999999999999,1,2018-05-02T12:00:00Z,2018-05-17T12:00:00Z,2018-05-22T12:00:00Z,2018-06-24T12:00:00Z,2018-07-25T12:00:00Z,2018-08-13T12:00:00Z,2018-08-14T12:00:00Z,2018-08-23T12:00:00Z,2018-08-31T12:00:00Z,2018-09-18T12:00:00Z,2018-09-29T12:00:00Z,2018-05-16T12:00:00Z,2018-05-21T12:00:00Z,2018-06-23T12:00:00Z,2018-07-24T12:00:00Z,2018-08-12T12:00:00Z,2018-08-13T12:00:00Z,2018-08-22T12:00:00Z,2018-08-30T12:00:00Z,2018-09-17T12:00:00Z,2018-09-28T12:00:00Z,2018-10-13T12:00:00Z,122,137,142,175,206,225,226,235,243,261,272,15,5,33,31,19,1,9,8,18,11,15,136,141,174,205,224,225,234,242,260,271,286
87,87,waseca_mn,44.07345,-93.53225,2.5,2018-05-17,43,2018,mid2,1050.8475279045751,11,2018-05-03,2018-05-17,122,2018-09-16,2018-09-24,2018-10-08,Harvested at Maturity.,4.066000008583069,0.9519999712705612,6.42818179732245,3.5060000002384184,1.5884210443810414,NA,1.875714259488242,5.497499845921993,5.296666479359071,13.47374968091026,2.4746666569262743,4.066000008583069,0.9519999712705612,6.42818179732245,3.5060000002384184,1.5884210443810414,NA,1.875714259488242,5.497499845921993,5.296666479359071,13.47374968091026,2.4746666569262743,19.844666544596354,18.28600025177002,19.036060564445727,22.799333175023396,20.328420940198395,NA,18.43714305332729,12.526249766349792,16.317222171359592,11.347499966621399,8.856000026067099,22.044666798909507,23.084000015258788,27.09606072396943,27.398666763305663,26.94473698264674,NA,28.825714656284877,25.74624991416931,24.39666673872206,24.071250200271606,15.140000089009602,15.631000089645386,16.65799994468689,21.95636376467618,22.349333413441975,21.268947475834896,NA,23.49785736628941,20.743124902248383,19.510555585225422,19.343750178813934,10.113666705290477,9.217333380381266,10.23199987411499,16.81666680538293,17.30000006357829,15.593157969023052,NA,18.170000076293945,15.739999890327454,14.624444431728786,14.616250157356262,5.08733332157135,6.004262019234498,6.753875065251588,7.310965247721166,8.012418364853195,9.540825765724321,NA,13.071021007437718,10.943045188204945,10.0636181508657,10.335369895325602,1.6323595965069533,6.004262019234498,6.753875065251588,7.310965247721166,8.012418364853195,9.540825765724321,NA,13.071021007437718,10.943045188204945,10.0636181508657,10.335369895325602,1.6323595965069533,0,0,241.26185317479843,481.6344041203942,662.910093669156,NA,754.4072407212202,841.9516022268597,1023.0967289424424,1105.7796881050472,1105.7796881050472,0,0,0.9609090906200987,1,0.9541842109278629,NA,1,0.927937489748001,0.8193611171510484,0.7415000021457672,0.03643333435058594,1,1,1,1,1,NA,1,1,1,1,1,0.5689333391189575,0.665799994468689,0.9609090906200987,1,0.9541842109278629,NA,1,0.927937489748001,0.8193611171510484,0.7415000021457672,0.14096667289733888,1,1,1,0.9999999999999999,1,NA,0.9999999999999999,0.9999999999999999,1,1,1,2018-05-03T12:00:00Z,2018-05-18T12:00:00Z,2018-05-23T12:00:00Z,2018-06-25T12:00:00Z,2018-07-25T12:00:00Z,NA,2018-08-13T12:00:00Z,2018-08-20T12:00:00Z,2018-08-28T12:00:00Z,2018-09-15T12:00:00Z,2018-09-23T12:00:00Z,2018-05-17T12:00:00Z,2018-05-22T12:00:00Z,2018-06-24T12:00:00Z,2018-07-24T12:00:00Z,2018-08-12T12:00:00Z,NA,2018-08-19T12:00:00Z,2018-08-27T12:00:00Z,2018-09-14T12:00:00Z,2018-09-22T12:00:00Z,2018-10-07T12:00:00Z,123,138,143,176,206,NA,225,232,240,258,266,15,5,33,30,19,0,7,8,18,8,15,137,142,175,205,224,NA,231,239,257,265,280
88,88,mead_ne,41.15785,-96.42075,2.5,2018-05-17,10,2018,mid2,1203.0802199446994,11,2018-05-03,2018-05-17,103,2018-08-28,2018-09-02,2018-09-16,Harvested at Maturity.,2.145333310216665,2.3300000205636024,3.4732000182569025,5.838846153866213,2.2418749856296927,9.579999923706056,1.6314285695552826,1.3685714304447174,6.9746667871872585,0.9720000185072422,7.249333269397418,2.145333310216665,2.3300000205636024,3.4732000182569025,5.838846153866213,2.2418749856296927,9.579999923706056,1.6314285695552826,1.3685714304447174,6.9746667871872585,0.9720000185072422,7.249333269397418,21.036000219980874,12.610000014305115,25.466399955749512,22.811923173757698,24.353749871253967,14.119999885559082,24.308571406773158,22.452857153756277,16.56866674423218,14.540000057220459,15.543999926249185,26.778000005086263,23.28749990463257,32.35280014038086,30.89499994424673,31.464374899864197,25.920000076293945,31.357142857142858,33.57999965122768,28.537333552042643,28.799999618530272,25.686000061035156,19.713999938964843,17.975000023841858,25.50540006637573,25.16423073181739,25.520624965429306,21.75500011444092,24.490714277539933,26.752142769949778,23.42666680018107,22.90599994659424,21.311333465576173,12.649999872843425,12.662500143051147,18.657999992370605,19.433461519388054,19.576875030994415,17.59000015258789,17.62428569793701,19.924285888671875,18.3160000483195,17.012000274658202,16.936666870117186,9.716702431389093,7.975000023841859,9.547046233611061,9.376322853188043,11.150446960518831,9.883368833200182,11.490824466353875,13.476140544173914,12.756402990381028,12.472246744292974,10.156642192236582,9.716702431389093,7.975000023841859,9.547046233611061,9.376322853188043,11.150446960518831,9.883368833200182,11.490824466353875,13.476140544173914,12.756402990381028,12.472246744292974,10.156642192236582,0,0,238.67615584027655,482.4605500231656,660.867701391467,670.7510702246672,751.1868414891443,845.5198252983618,1036.8658701540771,1099.227103875542,1099.227103875542,0,0,0.9994200019836426,0.9984038463005653,0.9953437507152557,1,1,1,0.9789000034332276,0.9675999927520752,0.06666666666666667,1,1,1,1,1,1,1,1,1,1,1,0.9206000010172527,0.7613750100135803,0.9994200019836426,0.9984038463005653,0.9953437507152557,1,1,1,0.9789000034332276,0.9675999927520752,0.9215333366394043,1,1,1,1,1,1,1,1,1,1,1,2018-05-03T12:00:00Z,2018-05-18T12:00:00Z,2018-05-22T12:00:00Z,2018-06-16T12:00:00Z,2018-07-12T12:00:00Z,2018-07-28T12:00:00Z,2018-07-29T12:00:00Z,2018-08-05T12:00:00Z,2018-08-12T12:00:00Z,2018-08-27T12:00:00Z,2018-09-01T12:00:00Z,2018-05-17T12:00:00Z,2018-05-21T12:00:00Z,2018-06-15T12:00:00Z,2018-07-11T12:00:00Z,2018-07-27T12:00:00Z,2018-07-28T12:00:00Z,2018-08-04T12:00:00Z,2018-08-11T12:00:00Z,2018-08-26T12:00:00Z,2018-08-31T12:00:00Z,2018-09-15T12:00:00Z,123,138,142,167,193,209,210,217,224,239,244,15,4,25,26,16,1,7,7,15,5,15,137,141,166,192,208,209,216,223,238,243,258
89,89,hoytville_oh,41.2126,-83.7578,2.5,2018-05-30,44,2018,mid2,956.7187264286842,11,2018-05-16,2018-05-30,103,2018-09-10,2018-09-17,2018-10-01,Harvested at Maturity.,2.195999995494882,2.0533333383500576,4.009655147662451,1.9167999909818172,3.6660000699261825,0.4300000071525574,4.124285767387066,5.354285835953696,2.368571419801031,3.0528572156493152,1.8386666752398013,2.195999995494882,2.0533333383500576,4.009655147662451,1.9167999909818172,3.6660000699261825,0.4300000071525574,4.124285767387066,5.354285835953696,2.368571419801031,3.0528572156493152,1.8386666752398013,22.05933335622152,20.03333346048991,21.167931112749823,22.95639991760254,18.75799992879232,24.040000915527344,17.504285539899552,18.177143096923828,16.908571311405726,12.644285815102714,14.306000105539958,26.603333282470704,27.15333366394043,26.851724098468647,28.546000137329102,28.10733324686686,28.280000686645508,28.84000015258789,26.388571330479213,29.57000023978097,24.80857127053397,25.07999979654948,20.923000049591064,22.361666997273762,21.921206852485394,23.227600135803222,23.01133327484131,23.01500034332275,23.767857279096333,20.881428582327707,24.716071469443186,19.8064284324646,19.12833325068156,15.242666816711425,17.570000330607098,16.990689606502137,17.909200134277345,17.915333302815753,17.75,18.69571440560477,15.3742858341762,19.862142699105398,14.804285594395228,13.17666670481364,10.823097046165467,12.361666997273764,8.059751433662848,9.760603471627435,11.415405473728457,12.54835273828123,13.644982579020736,11.044377064950977,13.956030978252207,10.075650680611815,8.202100029948156,10.823097046165467,12.361666997273764,8.059751433662848,9.760603471627435,11.415405473728457,12.54835273828123,13.644982579020736,11.044377064950977,13.956030978252207,10.075650680611815,8.202100029948156,0,0,233.7327915762226,477.7478783669085,648.9789604728355,661.5273132111167,757.042191264262,834.3528307189188,1029.7372644144498,1100.2668191787325,1100.2668191787325,0,0,0.9584137933007603,0.9930400009155274,0.9987000020345053,1,1,0.9461428506033761,0.9801071439470563,0.8294999871935164,0.06666666666666667,1,1,1,1,1,1,1,1,1,1,1,0.9191333262125652,0.9916666666666667,0.9584137933007603,0.9930400009155274,0.9987000020345053,1,1,0.9461428506033761,0.9801071439470563,0.8294999871935164,0.7471333281199137,1,1,1,1,1,0.9999999999999998,0.9999999999999999,1,1,1,1,2018-05-16T12:00:00Z,2018-05-31T12:00:00Z,2018-06-03T12:00:00Z,2018-07-02T12:00:00Z,2018-07-27T12:00:00Z,2018-08-11T12:00:00Z,2018-08-12T12:00:00Z,2018-08-19T12:00:00Z,2018-08-26T12:00:00Z,2018-09-09T12:00:00Z,2018-09-16T12:00:00Z,2018-05-30T12:00:00Z,2018-06-02T12:00:00Z,2018-07-01T12:00:00Z,2018-07-26T12:00:00Z,2018-08-10T12:00:00Z,2018-08-11T12:00:00Z,2018-08-18T12:00:00Z,2018-08-25T12:00:00Z,2018-09-08T12:00:00Z,2018-09-15T12:00:00Z,2018-09-30T12:00:00Z,136,151,154,183,208,223,224,231,238,252,259,15,3,29,25,15,1,7,7,14,7,15,150,153,182,207,222,223,230,237,251,258,273
90,90,chatham_ont,42.38,-82.2524,2.5,2018-07-07,18,2018,mid2,630.7009434798531,11,2018-06-23,2018-07-07,105,2018-10-20,2018-11-04,2018-11-18,Harvested at Maturity.,3.5206666573882104,1.4200000079969566,3.127600020468235,3.1642104881374458,2.65250000761201,1.309999942779541,2.1655555102560253,2.113750025164336,2.794615419366612,3.541333288451036,3.025333341956139,3.5206666573882104,1.4200000079969566,3.127600020468235,3.1642104881374458,2.65250000761201,1.309999942779541,2.1655555102560253,2.113750025164336,2.794615419366612,3.541333288451036,3.025333341956139,24.932666524251303,29.446667353312176,20.738000087738037,18.295789492757695,17.416666825612385,21.280000686645508,10.855555693308512,15.158750176429749,10.76692308829381,7.417999998728434,5.098666699727376,26.814666748046875,27.420000076293945,26.294000091552736,27.181578987523128,27.728333314259846,31.31999969482422,23.073333316379124,25.90000009536743,18.840384520017185,10.621999899546305,5.633333353201548,22.35633341471354,22.010000069936115,22.33980001449585,23.268157933887682,23.887916684150696,27.364999771118164,19.483333322736954,21.40000009536743,14.298269174419916,7.1506666302680975,2.941000009328127,17.898000081380207,16.60000006357829,18.385599937438965,19.354736880252236,20.047500054041546,23.40999984741211,15.893333329094782,16.90000009536743,9.756153828822649,3.6793333609898884,0.24866666545470556,12.327973932992617,12.010000069936115,9.626297426678091,12.73949808553029,13.865613191327453,16.73006011815071,9.526921540910667,11.499390828454496,7.156108668807836,5,0.10104007680972421,12.327973932992617,12.010000069936115,9.626297426678091,12.73949808553029,13.865613191327453,16.73006011815071,9.526921540910667,11.499390828454496,7.156108668807836,5,0.10104007680972421,0,0,240.6574356669523,482.7078992920279,649.0952575879573,665.8253177061081,751.5676115743042,843.5627382019402,1029.621563590944,1104.621563590944,1104.621563590944,0,0,0.9980200023651123,0.9937105254123085,0.9976666688919067,1,0.8690555625491673,0.9411249995231629,0.46930768856635463,0.0057999992370605475,0,1,1,1,1,1,1,1,1,1,1,1,0.9493666712443034,1,0.9980200023651123,0.9937105254123085,0.9976666688919067,1,0.8690555625491673,0.9411249995231629,0.46930768856635463,0.0057999992370605475,0.0027333323160807295,1,1,1,0.9999999999999999,1,1,0.9999999999999999,0.9999999999999999,0.9999999999999999,1,1,2018-06-23T12:00:00Z,2018-07-08T12:00:00Z,2018-07-11T12:00:00Z,2018-08-05T12:00:00Z,2018-08-24T12:00:00Z,2018-09-05T12:00:00Z,2018-09-06T12:00:00Z,2018-09-15T12:00:00Z,2018-09-23T12:00:00Z,2018-10-19T12:00:00Z,2018-11-03T12:00:00Z,2018-07-07T12:00:00Z,2018-07-10T12:00:00Z,2018-08-04T12:00:00Z,2018-08-23T12:00:00Z,2018-09-04T12:00:00Z,2018-09-05T12:00:00Z,2018-09-14T12:00:00Z,2018-09-22T12:00:00Z,2018-10-18T12:00:00Z,2018-11-02T12:00:00Z,2018-11-17T12:00:00Z,174,189,192,217,236,248,249,258,266,292,307,15,3,25,19,12,1,9,8,26,15,15,188,191,216,235,247,248,257,265,291,306,321
91,91,ivesdale_il,39.9481,-88.44975,4.5,2018-05-14,26,2018,mid4,1881.737621803193,11,2018-04-30,2018-05-14,143,2018-10-04,2018-10-08,2018-10-22,Harvested at Maturity.,1.6486666279534499,1.5100000301996868,5.77700009578839,2.3178124777041376,4.0613043500191495,6.980000019073486,2.5740000028163195,7.560999860242009,1.332727292383259,7.187500201165676,1.1773333441466094,1.6486666279534499,1.5100000301996868,5.77700009578839,2.3178124777041376,4.0613043500191495,6.980000019073486,2.5740000028163195,7.560999860242009,1.332727292383259,7.187500201165676,1.1773333441466094,21.488000043233235,19.646666844685875,22.36375002861023,24.827187478542328,19.856521751569666,11.140000343322754,18.495999908447267,15.803999996185302,16.493181748823687,12.089999914169312,12.627333386739094,25.651333363850913,26.446667353312176,28.235750102996825,28.714687287807465,28.251304211823836,26.469999313354492,27.73000011444092,27.645000076293947,26.798636436462402,27.81500005722046,16.82599976857503,19.57333325544993,20.736666997273762,23.240875029563902,23.655781239271164,23.54782608281011,22.414999961853027,22.8010000705719,22.864000129699708,20.61749996922233,21.43250012397766,10.83266653418541,13.49533314704895,15.026666641235352,18.24599995613098,18.596875190734863,18.844347953796387,18.360000610351563,17.87200002670288,18.08300018310547,14.436363501982255,15.050000190734863,4.839333299795786,9.690198635614415,10.736666997273762,6.735319714557865,7.536090975710987,10.968098798966896,11.74417833551887,12.509971250254068,12.4911065059489,10.951087252567437,11.633846737918258,2.9406400133752544,9.690198635614415,10.736666997273762,6.735319714557865,7.536090975710987,10.968098798966896,11.74417833551887,12.509971250254068,12.4911065059489,10.951087252567437,11.633846737918258,2.9406400133752544,0,0,269.4127885823146,510.56769980506624,762.8339721813048,774.5781505168237,899.6778630193644,1024.588928078853,1265.5128476353373,1312.0482345870105,1312.0482345870105,0,0,0.9920249998569488,0.9969062492251396,0.99628260653951894,1,0.9851999950408936,0.9234999942779542,0.8680227247151462,0.9502500057220459,0.06666666666666667,1,1,1,1,1,1,1,1,1,1,1,0.8665666667620341,1,0.9920249998569488,0.9969062492251396,0.99628260653951894,1,0.9851999950408936,0.9234999942779542,0.8680227247151462,0.9502500057220459,0.24609999974568686,1,1,1,0.9999999999999999,1,1,1,1,1,0.9999999999999999,1,2018-04-30T12:00:00Z,2018-05-15T12:00:00Z,2018-05-18T12:00:00Z,2018-06-27T12:00:00Z,2018-07-29T12:00:00Z,2018-08-21T12:00:00Z,2018-08-22T12:00:00Z,2018-09-01T12:00:00Z,2018-09-11T12:00:00Z,2018-10-03T12:00:00Z,2018-10-07T12:00:00Z,2018-05-14T12:00:00Z,2018-05-17T12:00:00Z,2018-06-26T12:00:00Z,2018-07-28T12:00:00Z,2018-08-20T12:00:00Z,2018-08-21T12:00:00Z,2018-08-31T12:00:00Z,2018-09-10T12:00:00Z,2018-10-02T12:00:00Z,2018-10-06T12:00:00Z,2018-10-21T12:00:00Z,120,135,138,178,210,233,234,244,254,276,280,15,3,40,32,23,1,10,10,22,4,15,134,137,177,209,232,233,243,253,275,279,294
92,92,neoga_il,39.323,-88.452,4.5,2018-05-11,45,2018,mid4,1956.440942115792,11,2018-04-27,2018-05-11,139,2018-09-27,2018-10-02,2018-10-16,Harvested at Maturity.,1.653333330526948,0.0849999999627471,4.670810834630519,4.127499969443306,3.9648000393807887,4.46999979019165,6.596000118926168,0.8333333486484157,4.408571366398108,0.7059999961405993,1.4840000142653782,1.653333330526948,0.0849999999627471,4.670810834630519,4.127499969443306,3.9648000393807887,4.46999979019165,6.596000118926168,0.8333333486484157,4.408571366398108,0.7059999961405993,1.4840000142653782,23.236000124613444,17.114999771118164,22.862162229177112,23.745937436819077,21.14359998703003,19.6200008392334,17.26599998474121,19.77333312564426,15.94095230102539,15.176000213623047,11.832666683197022,23.32866687774658,27.535000801086426,28.37027018779033,28.735937654972076,27.480400009155275,29.399999618530273,26.84699993133545,29.448888778686523,27.28476179213751,22.620000076293945,22.857333374023437,17.03433345258236,23.410000324249268,23.48945938574301,24.078750014305115,22.887800006866456,25.22000026702881,22.67749991416931,24.72222227520413,21.924999872843426,16.408000040054322,17.37799993356069,10.740000027418136,19.28499984741211,18.608648583695697,19.421562373638153,18.295200004577637,21.040000915527344,18.507999897003174,19.995555771721733,16.56523795354934,10.196000003814696,11.898666493097942,7.622671880107683,13.410000324249268,7.370837954693249,7.551140241029936,9.77421654242483,13.6092096569218,12.133796209224263,14.469537828285164,11.910572871248496,7.733761435077191,7.737365651154121,7.622671880107683,13.410000324249268,7.370837954693249,7.551140241029936,9.77421654242483,13.6092096569218,12.133796209224263,14.469537828285164,11.910572871248496,7.733761435077191,7.737365651154121,0,0,272.72100432365016,514.3574920366082,758.7129055972288,772.3221152541506,893.6600773463931,1023.8859178009594,1274.007948097178,1312.6767552725637,1312.6767552725637,0,0,0.9949864851461875,0.9993750005960464,0.9983200035095214,1,0.985750002861023,1,0.9278333277929397,0.6408000040054321,0.06666666666666667,1,1,1,1,1,1,1,1,1,1,1,0.6902000117301941,1,0.9949864851461875,0.9993750005960464,0.9983200035095214,1,0.985750002861023,1,0.9278333277929397,0.6408000040054321,0.6467666641871135,1,1,1,0.9999999999999999,0.9999999999999999,1,0.9999999999999999,0.9999999999999999,0.9999999999999999,1,1,2018-04-27T12:00:00Z,2018-05-12T12:00:00Z,2018-05-14T12:00:00Z,2018-06-20T12:00:00Z,2018-07-22T12:00:00Z,2018-08-16T12:00:00Z,2018-08-17T12:00:00Z,2018-08-27T12:00:00Z,2018-09-05T12:00:00Z,2018-09-26T12:00:00Z,2018-10-01T12:00:00Z,2018-05-11T12:00:00Z,2018-05-13T12:00:00Z,2018-06-19T12:00:00Z,2018-07-21T12:00:00Z,2018-08-15T12:00:00Z,2018-08-16T12:00:00Z,2018-08-26T12:00:00Z,2018-09-04T12:00:00Z,2018-09-25T12:00:00Z,2018-09-30T12:00:00Z,2018-10-15T12:00:00Z,117,132,134,171,203,228,229,239,248,269,274,15,2,37,32,25,1,10,9,21,5,15,131,133,170,202,227,228,238,247,268,273,288
93,93,urbana_il,40.05325,-88.23485,4.5,2018-05-08,17,2018,mid4,1845.6308610588487,11,2018-04-24,2018-05-08,143,2018-09-28,2018-10-03,2018-10-17,Harvested at Maturity.,0.8526666646202405,2.7366665390630565,3.899230818144786,3.8133333366590016,2.6387999891489744,14.869999885559082,3.7620000759139653,1.7100000067148358,3.819090883586217,0.005999999865889548,3.285999989757935,0.8526666646202405,2.7366665390630565,3.899230818144786,3.8133333366590016,2.6387999891489744,14.869999885559082,3.7620000759139653,1.7100000067148358,3.819090883586217,0.005999999865889548,3.285999989757935,23.869333521525064,20.456666310628254,22.033333448263313,22.91969701015588,21.208399906158448,15.710000038146973,17.178000354766844,17.419999718666077,16.19909074089744,12.91200008392334,10.785333347320556,21.495999908447267,26.96666653951009,28.39179488940117,28.713636282718543,29.049199981689455,29.06999969482422,28.424999809265138,30.482500076293945,27.440909038890492,24.671999359130858,21.91000010172526,14.867666665712992,20.44000005722046,23.16589745497092,23.857121149698894,23.722199935913086,25.3149995803833,23.511499881744385,25.07312512397766,21.722727277062155,17.64899969100952,16.19966674844424,8.239333422978719,13.913333574930826,17.940000020540676,19.000606016679242,18.39519989013672,21.559999465942383,18.597999954223635,19.663750171661377,16.00454551523382,10.626000022888183,10.489333395163218,5.824767706553886,10.440000057220459,6.984332926304783,7.1702838788057255,10.200037454963786,13.704612034188273,12.781130672856476,14.092578817629814,11.477002002774856,8.906064217864275,6.737004385703727,5.824767706553886,10.440000057220459,6.984332926304783,7.1702838788057255,10.200037454963786,13.704612034188273,12.781130672856476,14.092578817629814,11.477002002774856,8.906064217864275,6.737004385703727,0,0,272.38898412588657,509.00835212647536,764.00928850057,777.7139005347583,905.5252072633232,1018.2658378043616,1270.7598818654085,1315.2902029547297,1315.2902029547297,0,0,0.9942307692307693,0.9991666678226355,1,1,0.9858499956130982,1,0.9124545422467318,0.7212999725341798,0.06666666666666667,1,1,1,1,1,1,1,1,1,1,1,0.5079666682084402,0.9815000057220459,0.9942307692307693,0.9991666678226355,1,1,0.9858499956130982,1,0.9124545422467318,0.7212999725341798,0.5726333363850912,1,1,1,1,1,1,1,0.9999999999999999,1,1,1,2018-04-24T12:00:00Z,2018-05-09T12:00:00Z,2018-05-12T12:00:00Z,2018-06-20T12:00:00Z,2018-07-23T12:00:00Z,2018-08-17T12:00:00Z,2018-08-18T12:00:00Z,2018-08-28T12:00:00Z,2018-09-05T12:00:00Z,2018-09-27T12:00:00Z,2018-10-02T12:00:00Z,2018-05-08T12:00:00Z,2018-05-11T12:00:00Z,2018-06-19T12:00:00Z,2018-07-22T12:00:00Z,2018-08-16T12:00:00Z,2018-08-17T12:00:00Z,2018-08-27T12:00:00Z,2018-09-04T12:00:00Z,2018-09-26T12:00:00Z,2018-10-01T12:00:00Z,2018-10-16T12:00:00Z,114,129,132,171,204,229,230,240,248,270,275,15,3,39,33,25,1,10,8,22,5,15,128,131,170,203,228,229,239,247,269,274,289
94,94,manhattan_ks,38.1326,-96.62,4.5,2018-05-18,27,2018,mid4,1807.5193244772397,11,2018-05-04,2018-05-18,126,2018-09-21,2018-09-25,2018-10-09,Harvested at Maturity.,1.806666649505496,7.316666768242915,2.5978788393126293,4.582963055344643,3.0713043216939857,20.280000686645508,8.68400006890297,1.8544444522509973,5.043333320981927,4.757500112056732,7.829999951273203,1.806666649505496,7.316666768242915,2.5978788393126293,4.582963055344643,3.0713043216939857,20.280000686645508,8.68400006890297,1.8544444522509973,5.043333320981927,4.757500112056732,7.829999951273203,23.727333386739094,17.626667022705078,25.710303075385816,24.680370330810547,23.127391234688137,12.15999984741211,15.536000156402588,21.287777794731987,15.997222185134888,17.820000410079956,11.340666580200196,30.505333201090494,25.890000025431316,32.440605799357094,33.30925927338777,32.26086931643279,27.43000030517578,27.925,33.12888844807943,28.227222230699326,25.739999771118164,24.785333251953126,23.63033326466878,20.778333346048992,26.51151501048695,27.996481436270255,26.25239125542019,24.489999771118164,23.523499917984008,27.36777771843804,23.556944449742634,19.81499993801117,19.231000089645384,16.75533332824707,15.666666666666666,20.582424221616805,22.683703599152743,20.243913194407586,21.549999237060547,19.12199983596802,21.606666988796658,18.886666668785942,13.890000104904175,13.676666927337646,13.07814105945905,10.77833334604899,8.164172146346532,8.661103548076417,10.915466757477942,12.734531306820344,12.675267903791259,14.880591633921199,13.28222997554044,10.210314363446832,8.500904847580195,13.07814105945905,10.77833334604899,8.164172146346532,8.661103548076417,10.915466757477942,12.734531306820344,12.675267903791259,14.880591633921199,13.28222997554044,10.210314363446832,8.500904847580195,0,0,269.41768082943554,503.2674766274988,754.3232120494914,767.0577433563118,893.8104223942244,1027.7357470995153,1266.815886659243,1307.6571441130304,1307.6571441130304,0,0,0.9945757605812766,0.9925925925925926,1,1,1,1,0.9798888868755764,0.7952500224113465,0.06666666666666667,1,1,1,1,1,1,1,1,1,1,1,0.9863000043233235,0.9318333307902018,0.9945757605812766,0.9925925925925926,1,1,1,1,0.9798888868755764,0.7952500224113465,0.775666667620341,1,1,1,1,1,1,1,1,0.9999999999999999,1,1,2018-05-04T12:00:00Z,2018-05-19T12:00:00Z,2018-05-22T12:00:00Z,2018-06-24T12:00:00Z,2018-07-21T12:00:00Z,2018-08-13T12:00:00Z,2018-08-14T12:00:00Z,2018-08-24T12:00:00Z,2018-09-02T12:00:00Z,2018-09-20T12:00:00Z,2018-09-24T12:00:00Z,2018-05-18T12:00:00Z,2018-05-21T12:00:00Z,2018-06-23T12:00:00Z,2018-07-20T12:00:00Z,2018-08-12T12:00:00Z,2018-08-13T12:00:00Z,2018-08-23T12:00:00Z,2018-09-01T12:00:00Z,2018-09-19T12:00:00Z,2018-09-23T12:00:00Z,2018-10-08T12:00:00Z,124,139,142,175,202,225,226,236,245,263,267,15,3,33,27,23,1,10,9,18,4,15,138,141,174,201,224,225,235,244,262,266,281
95,95,onaga_ks,39.4889,-96.17,4.5,2018-05-11,46,2018,mid4,1819.536709224837,11,2018-04-27,2018-05-11,139,2018-09-27,2018-10-03,2018-10-17,Harvested at Maturity.,3.567999980971217,2.5066666454076767,3.4470270329431907,2.74451612416775,3.064166715523849,0.6600000262260437,7.5979999614879485,9.153333057959875,3.063181851736524,1.1466666708389919,9.989333306004603,3.567999980971217,2.5066666454076767,3.4470270329431907,2.74451612416775,3.064166715523849,0.6600000262260437,7.5979999614879485,9.153333057959875,3.063181851736524,1.1466666708389919,9.989333306004603,22.481333351135255,19.023333231608074,24.37243230922802,24.469032226070283,22.12250006198883,18.93000030517578,16.40999975204468,18.245555347866482,16.165454365990378,9.993333141009012,9.758666721979777,27.45133336385091,30.009999593098957,31.883243354591162,33.64612899288054,32.75750001271566,30.450000762939453,28.771000099182128,30.90999984741211,26.43590918454257,21.341666380564373,16.904666646321616,20.00933328469594,23.56166664759318,25.52459464202056,27.450161257097797,26.162083288033802,25.475000381469727,23.615499925613403,25.70111110475328,21.115454532883383,15.714166522026064,11.160333350300789,12.567333205540974,17.113333702087402,19.165945929449958,21.254193521315052,19.566666563351948,20.5,18.459999752044677,20.492222362094456,15.794999881224198,10.086666663487753,5.416000054279963,10.162276002352337,13.040186434553068,7.206656997435073,7.5282604861702165,10.461999752278885,13.56329900891326,12.261673887406527,14.496978227651782,11.321226448036866,7.559560555583239,2.8356451234227418,10.162276002352337,13.040186434553068,7.206656997435073,7.5282604861702165,10.461999752278885,13.56329900891326,12.261673887406527,14.496978227651782,11.321226448036866,7.559560555583239,2.8356451234227418,0,0,266.6463089050977,500.0223839763744,751.1103780310674,764.6736770399807,887.290415914046,1017.763219962912,1266.8302018197228,1312.1875651532223,1312.1875651532223,0,0,0.9828378290743441,0.9803548351410897,0.995312507947286,1,1,1,0.8825227293101224,0.5546666502952576,0.06666666666666667,1,1,1,1,1,1,1,1,1,1,1,0.8694666759173075,1,0.9828378290743441,0.9803548351410897,0.995312507947286,1,1,1,0.8825227293101224,0.5546666502952576,0.293666664759318,1,1,1,0.9999999999999999,0.9292137654127602,1,0.9665948102407675,1,0.9999999999999999,1,1,2018-04-27T12:00:00Z,2018-05-12T12:00:00Z,2018-05-15T12:00:00Z,2018-06-21T12:00:00Z,2018-07-22T12:00:00Z,2018-08-15T12:00:00Z,2018-08-16T12:00:00Z,2018-08-26T12:00:00Z,2018-09-04T12:00:00Z,2018-09-26T12:00:00Z,2018-10-02T12:00:00Z,2018-05-11T12:00:00Z,2018-05-14T12:00:00Z,2018-06-20T12:00:00Z,2018-07-21T12:00:00Z,2018-08-14T12:00:00Z,2018-08-15T12:00:00Z,2018-08-25T12:00:00Z,2018-09-03T12:00:00Z,2018-09-25T12:00:00Z,2018-10-01T12:00:00Z,2018-10-16T12:00:00Z,117,132,135,172,203,227,228,238,247,269,275,15,3,37,31,24,1,10,9,22,6,15,131,134,171,202,226,227,237,246,268,274,289
96,96,ottawa_ks,38.5404,-95.2477,4.5,2018-05-15,21,2018,mid4,1796.62188845544,11,2018-05-01,2018-05-15,129,2018-09-21,2018-09-25,2018-10-09,Harvested at Maturity.,2.3433333687484263,2.586666633064548,3.751470572643859,3.177586192714757,2.1224999860084304,11.59000015258789,9.875555494179329,4.672222145315674,3.60666656639013,1.8125000298023224,10.953333395843705,2.3433333687484263,2.586666633064548,3.751470572643859,3.177586192714757,2.1224999860084304,11.59000015258789,9.875555494179329,4.672222145315674,3.60666656639013,1.8125000298023224,10.953333395843705,21.762666702270508,23.753333409627277,24.95970588571885,24.658620505497375,22.52625008424123,16.729999542236328,15.793333212534586,20.107777913411457,16.118333339691162,18.132500171661377,11.496666685740152,28.513333384195963,28.083333333333332,30.48999999551212,34.11241406407849,33.205833514531456,29.229999542236328,28.4988890753852,31.10555542839898,27.890555487738716,25.577499866485596,25.095333607991538,22.55566670099894,21.835000038146973,25.09985302476322,28.249827878228547,26.513541797796886,25.229999542236328,23.833333333333332,26.43611102634006,23.30444426006741,19.894999980926514,19.47400010426839,16.59800001780192,15.586666742960611,19.70970605401432,22.387241692378602,19.821250081062317,21.229999542236328,19.167777591281467,21.766666624281143,18.718333032396107,14.212500095367432,13.852666600545247,12.51913953958432,11.83500003814697,7.91974652562045,8.227614859461928,10.622459271808635,13.454501600489476,12.627845323838695,15.472218968253665,13.16429731617305,10.373035027030111,8.805560953801473,12.51913953958432,11.83500003814697,7.91974652562045,8.227614859461928,10.622459271808635,13.454501600489476,12.627845323838695,15.472218968253665,13.16429731617305,10.373035027030111,8.805560953801473,0,0,269.27138187109534,507.8722127954913,762.8112353188985,776.265736919388,889.9163448339364,1029.1663155482192,1266.123667239334,1307.6158073474546,1307.6158073474546,0,0,0.9979411756291109,0.9752758486517544,0.999916668732961,1,1,1,0.9728333287768894,0.8276249885559082,0.06666666666666667,1,1,1,1,1,1,1,1,1,1,1,0.9880666700998942,1,0.9979411756291109,0.9752758486517544,0.999916668732961,1,1,1,0.9728333287768894,0.8276249885559082,0.8121000003814698,1,1,1,1,0.9603660903857819,1,1,1,1,1,1,2018-05-01T12:00:00Z,2018-05-16T12:00:00Z,2018-05-19T12:00:00Z,2018-06-22T12:00:00Z,2018-07-21T12:00:00Z,2018-08-14T12:00:00Z,2018-08-15T12:00:00Z,2018-08-24T12:00:00Z,2018-09-02T12:00:00Z,2018-09-20T12:00:00Z,2018-09-24T12:00:00Z,2018-05-15T12:00:00Z,2018-05-18T12:00:00Z,2018-06-21T12:00:00Z,2018-07-20T12:00:00Z,2018-08-13T12:00:00Z,2018-08-14T12:00:00Z,2018-08-23T12:00:00Z,2018-09-01T12:00:00Z,2018-09-19T12:00:00Z,2018-09-23T12:00:00Z,2018-10-08T12:00:00Z,121,136,139,173,202,226,227,236,245,263,267,15,3,34,29,24,1,9,9,18,4,15,135,138,172,201,225,226,235,244,262,266,281
97,97,novelty_mo,39.9428,-92.0534,4.5,2018-05-16,47,2018,mid4,1683.3182147324444,11,2018-05-02,2018-05-16,139,2018-10-02,2018-10-06,2018-10-20,Harvested at Maturity.,3.282666688784957,1.4800000041723251,2.3900000062329987,1.5841935383336199,2.983636336655102,5.995000123977661,12.85888933059242,9.481111185418236,1.110869556746405,1.9024999509565532,8.19933346013228,3.282666688784957,1.4800000041723251,2.3900000062329987,1.5841935383336199,2.983636336655102,5.995000123977661,12.85888933059242,9.481111185418236,1.110869556746405,1.9024999509565532,8.19933346013228,21.3046667098999,15.956666946411133,22.797894753907855,25.32000006398847,20.690454591404308,13.065000057220459,19.02666685316298,13.593333138359917,17.389999970145848,13.695000171661377,10.445999892552694,26.61266657511393,23.923333485921223,30.970789357235557,34.19999977850145,32.01863635670055,29.53499984741211,31.099999957614475,28.25666681925456,25.520869628242824,26.675000190734863,17.4633331934611,21.281000010172527,19.516666730244953,25.225526295210187,27.35016119864679,25.856590791182086,24.635000228881836,25.316111087799072,24.22944450378418,19.760000063025434,20.93375015258789,12.12566662033399,15.94933344523112,15.109999974568685,19.480263233184814,20.500322618792133,19.694545225663617,19.735000610351563,19.53222221798367,20.2022221883138,13.999130497808043,15.192500114440918,6.788000047206879,11.281000010172527,9.516666730244955,7.08495369752219,7.854485845850047,10.971689811485152,13.477083393143113,13.457010980408452,14.064738967641194,10.384636629165515,11.321681175553799,3.6391752356383202,11.281000010172527,9.516666730244955,7.08495369752219,7.854485845850047,10.971689811485152,13.477083393143113,13.457010980408452,14.064738967641194,10.384636629165515,11.321681175553799,3.6391752356383202,0,0,269.22824050584313,512.7173017271945,754.0944775798678,781.048644366154,902.1617431898302,1028.744393898601,1267.591036369408,1312.8777610716234,1312.8777610716234,0,0,0.9938684212534051,0.9949354879317746,1,1,1,0.9857777807447645,0.7998913060063901,0.8723749995231629,0.06166666666666667,1,1,1,1,1,1,1,1,1,1,1,0.9662666734059652,0.9351666609446208,0.9938684212534051,0.9949354879317746,1,1,1,0.9857777807447645,0.7998913060063901,0.8723749995231629,0.3353333298365275,1,1,1,1,0.8223323382928261,0.9800778921140828,0.9198594171017624,0.9999999999999999,1,1,1,2018-05-02T12:00:00Z,2018-05-17T12:00:00Z,2018-05-20T12:00:00Z,2018-06-27T12:00:00Z,2018-07-28T12:00:00Z,2018-08-19T12:00:00Z,2018-08-21T12:00:00Z,2018-08-30T12:00:00Z,2018-09-08T12:00:00Z,2018-10-01T12:00:00Z,2018-10-05T12:00:00Z,2018-05-16T12:00:00Z,2018-05-19T12:00:00Z,2018-06-26T12:00:00Z,2018-07-27T12:00:00Z,2018-08-18T12:00:00Z,2018-08-20T12:00:00Z,2018-08-29T12:00:00Z,2018-09-07T12:00:00Z,2018-09-30T12:00:00Z,2018-10-04T12:00:00Z,2018-10-19T12:00:00Z,122,137,140,178,209,231,233,242,251,274,278,15,3,38,31,22,2,9,9,23,4,15,136,139,177,208,230,232,241,250,273,277,292
98,98,portagevilleclay_mo,36.3987,-88.6051,4.5,2018-05-28,29,2018,mid4,1484.351336536422,11,2018-05-14,2018-05-28,115,2018-09-20,2018-09-22,2018-10-06,Harvested at Maturity.,4.443333334724108,27.845000743865967,4.2523333751906955,2.3987500054451325,1.248095223591441,0.8199999928474426,2.54444446021484,1.141249974258244,2.3883333654246397,0.0599999986588955,8.9719999405245,4.443333334724108,27.845000743865967,4.2523333751906955,2.3987500054451325,1.248095223591441,0.8199999928474426,2.54444446021484,1.141249974258244,2.3883333654246397,0.0599999986588955,8.9719999405245,21.507333437601726,18.864999771118164,23.817666880289714,24.482916633288067,21.88523801167806,16.260000228881836,17.519999716016983,18.72374999523163,17.816666894488865,18.31999969482422,13.1299999554952,28.053333282470703,27.78499984741211,29.381333541870116,30.696666797002155,29.348095121837797,31.18000030517578,29.805555555555557,32.59124994277954,31.5627777311537,35.69999885559082,26.286000061035157,23.86900005340576,24.755000114440918,25.267500098546346,26.471875150998432,24.75833325158982,26.324999809265137,25.335555500454372,27.318750023841858,25.939166678322685,29.15999937057495,22.093999989827473,19.68466682434082,21.725000381469727,21.153666655222576,22.24708350499471,20.168571381341845,21.469999313354492,20.86555544535319,22.046250104904175,20.315555625491672,22.619999885559082,17.901999918619794,13.868495432653427,14.755000114440918,8.934439023906132,10.184074419264558,11.784581648186244,14.556129627264946,14.580538833006024,14.984460796755553,13.893537003701264,14.312294795656204,10.952555200740496,13.868495432653427,14.755000114440918,8.934439023906132,10.184074419264558,11.784581648186244,14.556129627264946,14.580538833006024,14.984460796755553,13.893537003701264,14.312294795656204,10.952555200740496,0,0,268.033170717184,512.4509567795334,759.9271713914443,774.4833010187092,905.7081505157636,1025.5838368898078,1275.667502956431,1304.292092547743,1304.292092547743,0,0,1,1,1,1,1,1,0.9932500018013848,1,0.06666666666666667,1,1,1,1,1,1,1,1,1,1,1,1,1,1,1,1,1,1,1,0.9932500018013848,1,0.9422999954223633,1,1,1,0.9999999999999999,0.9999999999999999,1,0.9999999999999999,1,0.9999999999999999,1,1,2018-05-14T12:00:00Z,2018-05-29T12:00:00Z,2018-05-31T12:00:00Z,2018-06-30T12:00:00Z,2018-07-24T12:00:00Z,2018-08-14T12:00:00Z,2018-08-15T12:00:00Z,2018-08-24T12:00:00Z,2018-09-01T12:00:00Z,2018-09-19T12:00:00Z,2018-09-21T12:00:00Z,2018-05-28T12:00:00Z,2018-05-30T12:00:00Z,2018-06-29T12:00:00Z,2018-07-23T12:00:00Z,2018-08-13T12:00:00Z,2018-08-14T12:00:00Z,2018-08-23T12:00:00Z,2018-08-31T12:00:00Z,2018-09-18T12:00:00Z,2018-09-20T12:00:00Z,2018-10-05T12:00:00Z,134,149,151,181,205,226,227,236,244,262,264,15,2,30,24,21,1,9,8,18,2,15,148,150,180,204,225,226,235,243,261,263,278
99,99,portagevilleloam_mo,36.39516667,-89.6102,4.5,2018-05-01,30,2018,mid4,1806.1133780647483,11,2018-04-17,2018-05-01,122,2018-08-31,2018-09-02,2018-09-16,Harvested at Maturity.,5.447333271428943,4.080000082651774,4.1333332695756795,3.555555597016657,2.285833357445275,0.06000000052154064,0.3781818286939101,2.0533333607017994,2.5647058881380977,2.615000009536743,2.8640000578016043,5.447333271428943,4.080000082651774,4.1333332695756795,3.555555597016657,2.285833357445275,0.06000000052154064,0.3781818286939101,2.0533333607017994,2.5647058881380977,2.615000009536743,2.8640000578016043,21.252666982014976,12.763333638509115,22.396666632758247,24.56777788091589,24.93291672070821,23.0649995803833,22.1509089903398,21.654444482591416,18.452941109152402,17.024999618530273,17.90599994659424,20.059999847412108,24.929999669392902,28.156666649712456,29.95444460268374,31.53249994913737,28.074999809265137,29.459090839732777,31.768888473510742,31.214705972110522,29.260000228881836,30.771999486287434,13.788999915122986,21.78333314259847,23.697777801089817,25.69277781027335,27.32687497138977,24.21500015258789,24.599545392123137,27.09833314683702,26.392352917615106,26.25250005722046,25.54366652170817,7.517999982833862,18.636666615804035,19.23888895246718,21.431111017862957,23.12124999364217,20.355000495910645,19.739999944513496,22.427777820163303,21.569999863119687,23.244999885559082,20.315333557128906,4.561281113478342,11.783333142598472,9.690582799559284,9.106677728116496,10.359341057963372,10.114769765752683,11.046861004304313,13.410823037267267,14.816888782231812,16.25250005722046,12.798172705233098,4.561281113478342,11.783333142598472,9.690582799559284,9.106677728116496,10.359341057963372,10.114769765752683,11.046861004304313,13.410823037267267,14.816888782231812,16.25250005722046,12.798172705233098,0,0,261.6457355881007,507.52603424724623,756.1502196383673,776.3797591698726,897.8952302172202,1018.5926375526255,1270.4797468505662,1302.9847469650072,1302.9847469650072,0,0,0.9964074064184119,1,1,1,1,1,1,1,0.06666666666666667,1,1,1,1,1,1,1,1,1,1,1,0.40089999119440717,1,0.9964074064184119,1,1,1,1,1,1,1,0.999299996693929,1,1,0.9999999999999999,1,1,1,1,1,1,1,1,2018-04-17T12:00:00Z,2018-05-02T12:00:00Z,2018-05-05T12:00:00Z,2018-06-01T12:00:00Z,2018-06-28T12:00:00Z,2018-07-22T12:00:00Z,2018-07-24T12:00:00Z,2018-08-04T12:00:00Z,2018-08-13T12:00:00Z,2018-08-30T12:00:00Z,2018-09-01T12:00:00Z,2018-05-01T12:00:00Z,2018-05-04T12:00:00Z,2018-05-31T12:00:00Z,2018-06-27T12:00:00Z,2018-07-21T12:00:00Z,2018-07-23T12:00:00Z,2018-08-03T12:00:00Z,2018-08-12T12:00:00Z,2018-08-29T12:00:00Z,2018-08-31T12:00:00Z,2018-09-15T12:00:00Z,107,122,125,152,179,203,205,216,225,242,244,15,3,27,27,24,2,11,9,17,2,15,121,124,151,178,202,204,215,224,241,243,258
100,100,rockport_mo,40.273,-95.4743,4.5,2018-05-22,48,2018,mid4,1807.176023416778,11,2018-05-08,2018-05-22,150,2018-10-19,2018-10-26,2018-11-09,Harvested at Maturity.,1.8020000255356232,0.03499999921768904,4.389500024635344,2.110344838222553,5.823043531211822,0.02999999932944774,11.213333345121807,3.1691666864790022,5.085312532668468,0.012857143368039812,1.2766666716585557,1.8020000255356232,0.03499999921768904,4.389500024635344,2.110344838222553,5.823043531211822,0.02999999932944774,11.213333345121807,3.1691666864790022,5.085312532668468,0.012857143368039812,1.2766666716585557,20.594666544596354,24.880000114440918,24.34449996948242,24.90620703532778,19.12869567456453,23.13999938964844,15.465555720859104,15.299166798591614,11.763750098645687,14.24000004359654,8.14800001780192,27.513333384195963,30.96000099182129,32.012249851226805,32.82241360894565,31.042174214902133,32.11000061035156,28.51888910929362,25.28916660944621,19.56374979019165,17.462856973920548,11.690666596094767,21.26166664759318,25.285000324249268,25.81537494659424,26.39758608259004,25.15326101883598,24.710000038146973,24.320555686950684,20.576666673024494,14.045468649128452,10.221428492239543,7.34033328294754,15.009999910990397,19.609999656677246,19.61850004196167,19.972758556234425,19.264347822769828,17.309999465942383,20.122222264607746,15.864166736602783,8.527187508065253,2.980000010558537,2.9899999698003135,11.242748991209666,14.720300128185748,6.686311251684675,8.257097587391463,11.139050097093417,13.69251625295984,13.88223206391732,10.827360615083078,7.6437823181183076,5.5871705442308315,1.0042643540456893,11.242748991209666,14.720300128185748,6.686311251684675,8.257097587391463,11.139050097093417,13.69251625295984,13.88223206391732,10.827360615083078,7.6437823181183076,5.5871705442308315,1.0042643540456893,0,0,267.4524500673871,506.9082801017394,763.1064323348879,776.7989485878478,901.7390371631036,1031.6673645441006,1276.2683987238863,1315.3785925335023,1315.3785925335023,0,0,0.9954624986648559,0.9937069004979627,0.9914565210757048,1,0.9873888863457574,0.903249994913737,0.4096093684434891,0.11499999420983452,0,1,1,1,1,1,1,1,1,1,1,1,0.985700003306071,1,0.9954624986648559,0.9937069004979627,0.9914565210757048,1,0.9873888863457574,0.903249994913737,0.4096093684434891,0.11499999420983452,0.03603332916895549,1,1,1,1,0.991103445989208,1,0.9999999999999999,1,0.9999999999999999,0.9999999999999999,1,2018-05-08T12:00:00Z,2018-05-23T12:00:00Z,2018-05-25T12:00:00Z,2018-07-04T12:00:00Z,2018-08-02T12:00:00Z,2018-08-25T12:00:00Z,2018-08-26T12:00:00Z,2018-09-04T12:00:00Z,2018-09-16T12:00:00Z,2018-10-18T12:00:00Z,2018-10-25T12:00:00Z,2018-05-22T12:00:00Z,2018-05-24T12:00:00Z,2018-07-03T12:00:00Z,2018-08-01T12:00:00Z,2018-08-24T12:00:00Z,2018-08-25T12:00:00Z,2018-09-03T12:00:00Z,2018-09-15T12:00:00Z,2018-10-17T12:00:00Z,2018-10-24T12:00:00Z,2018-11-08T12:00:00Z,128,143,145,185,214,237,238,247,259,291,298,15,2,40,29,23,1,9,12,32,7,15,142,144,184,213,236,237,246,258,290,297,312
101,101,thiefriverfalls_mn,48.1283,-96.2427,-0.5,2018-06-16,3,2018,mid00,712.7222543353721,11,2018-06-02,2018-06-16,89,2018-09-13,2018-09-25,2018-10-09,Harvested at Maturity.,4.696000000089406,1.9133333520342906,2.6777272818779405,0.6527272763408043,0.8233333492858542,0,5.189999942667782,0.7642857328589474,1.597500029951334,2.8774999884578087,2.9813332855701447,4.696000000089406,1.9133333520342906,2.6777272818779405,0.6527272763408043,0.8233333492858542,0,5.189999942667782,0.7642857328589474,1.597500029951334,2.8774999884578087,2.9813332855701447,22.068666712443033,25.073333104451496,24.937727321277965,22.82863629948009,20.00666676627265,22.739999771118164,14.914999802907309,18.070000103541783,14.617499649524689,10.998333215713501,7.955333280563354,25.397333272298177,25.676666895548504,29.32727267525413,28.05772703344172,30.17666678958469,25.399999618530273,25.209999720255535,24.371428625924246,24.136250257492065,21.540833473205566,10.053333473205566,18.894666735331217,19.88166681925456,22.9940908388658,21.404318115927957,23.10888891749912,19.024999618530273,19.34583314259847,17.87714283806937,18.031250149011612,15.09250005086263,5.331333413347602,12.392000198364258,14.086666742960611,16.660909002477474,14.750909198414195,16.041111045413547,12.649999618530272,13.481666564941406,11.382857050214495,11.926250040531158,8.644166628519693,0.6093333534896374,8.914679303908745,9.881666819254557,10.120828842969843,9.82233581965045,11.905757434082382,9.024999618530272,9.676150428652763,8.848175575870275,8.806934948421269,7.4054114765403165,0.3659606779994815,8.914679303908745,9.881666819254557,10.120828842969843,9.82233581965045,11.905757434082382,9.024999618530272,9.676150428652763,8.848175575870275,8.806934948421269,7.4054114765403165,0.3659606779994815,0,0,222.65823454533657,438.7496225776465,653.0532563911295,662.0782560096598,720.1351585815763,782.0723876126684,852.5278672000386,941.3928049185222,941.3928049185222,0,0,0.990909090909091,0.9557499928907914,0.9732222265667385,0.9024999618530274,0.8973333199818929,0.7677857194628034,0.7722500115633012,0.4929166674613953,0,1,1,1,1,1,1,1,1,1,1,1,0.8097666708628337,0.9734999974568685,0.990909090909091,0.9557499928907914,0.9732222265667385,0.9024999618530274,0.8973333199818929,0.7677857194628034,0.7722500115633012,0.4929166674613953,0.004833335876464844,1,1,1,0.9999999999999999,0.9999999999999999,1,0.9999999999999999,0.9999999999999999,1,1,1,2018-06-02T12:00:00Z,2018-06-17T12:00:00Z,2018-06-20T12:00:00Z,2018-07-12T12:00:00Z,2018-08-03T12:00:00Z,2018-08-21T12:00:00Z,2018-08-22T12:00:00Z,2018-08-28T12:00:00Z,2018-09-04T12:00:00Z,2018-09-12T12:00:00Z,2018-09-24T12:00:00Z,2018-06-16T12:00:00Z,2018-06-19T12:00:00Z,2018-07-11T12:00:00Z,2018-08-02T12:00:00Z,2018-08-20T12:00:00Z,2018-08-21T12:00:00Z,2018-08-27T12:00:00Z,2018-09-03T12:00:00Z,2018-09-11T12:00:00Z,2018-09-23T12:00:00Z,2018-10-08T12:00:00Z,153,168,171,193,215,233,234,240,247,255,267,15,3,22,22,18,1,6,7,8,12,15,167,170,192,214,232,233,239,246,254,266,281
102,102,crookston_mn,47.805,-96.61426667,0.5,2018-05-23,1,2018,mid0,1006.7279351795988,11,2018-05-09,2018-05-23,101,2018-09-01,2018-09-11,2018-09-25,Harvested at Maturity.,1.596666697412729,0.7400000244379044,3.2552777611547046,2.22166663977421,1.036999985575676,0,0.05166666706403096,2.0333333810170493,3.0299999345093966,1.8340000042691826,2.23666667068998,1.596666697412729,0.7400000244379044,3.2552777611547046,2.22166663977421,1.036999985575676,0,0.05166666706403096,2.0333333810170493,3.0299999345093966,1.8340000042691826,2.23666667068998,22.501333649953207,24.80500030517578,22.837222271495396,24.91777780320909,21.24199981689453,23.13999938964844,21.12000020345052,18.22666645050049,15.900999927520752,16.959000015258788,12.55266679128011,22.947333017985027,32.05500030517578,27.86555544535319,30.309444427490234,28.285000038146972,32.95000076293945,33.25333340962728,29.244999885559082,24.7810001373291,24.75299987792969,21.942666562398276,14.862333180507024,24.52250027656555,21.369305478201973,23.58388884862264,21.63824999332428,26.05500030517578,25.56083345413208,21.918333292007446,18.70650005340576,18.286499977111816,15.363333241144815,6.777333343029022,16.990000247955322,14.873055511050755,16.858333269755047,14.991499948501588,19.15999984741211,17.868333498636883,14.59166669845581,12.631999969482422,11.820000076293946,8.783999919891357,5.8649326446303975,13.6574802377522,8.083217444689849,9.739989670927905,9.893271578633891,13.78266706958044,12.047226434821702,11.432455093987782,9.326197991575599,9.060817210709454,5.268801983780464,5.8649326446303975,13.6574802377522,8.083217444689849,9.739989670927905,9.893271578633891,13.78266706958044,12.047226434821702,11.432455093987782,9.326197991575599,9.060817210709454,5.268801983780464,0,0,290.99582800883456,466.3156420855369,664.1810736582148,677.9637407277952,750.2470993367255,818.8418299006521,912.103809816408,1002.7119819235024,1002.7119819235024,0,0,0.9260972181955973,1,0.9617749977111817,1,0.9793333371480306,0.9735000133514404,0.8298999977111817,0.8107999992370606,0.05966666539510091,1,1,1,1,1,1,1,1,1,1,1,0.5004333249727885,1,0.9260972181955973,1,0.9617749977111817,1,0.9793333371480306,0.9735000133514404,0.8298999977111817,0.8107999992370606,0.5104333289464315,1,1,1,0.9999999999999999,0.9999999999999999,1,1,0.9999999999999999,1,1,1,2018-05-09T12:00:00Z,2018-05-24T12:00:00Z,2018-05-26T12:00:00Z,2018-07-01T12:00:00Z,2018-07-19T12:00:00Z,2018-08-08T12:00:00Z,2018-08-09T12:00:00Z,2018-08-15T12:00:00Z,2018-08-21T12:00:00Z,2018-08-31T12:00:00Z,2018-09-10T12:00:00Z,2018-05-23T12:00:00Z,2018-05-25T12:00:00Z,2018-06-30T12:00:00Z,2018-07-18T12:00:00Z,2018-08-07T12:00:00Z,2018-08-08T12:00:00Z,2018-08-14T12:00:00Z,2018-08-20T12:00:00Z,2018-08-30T12:00:00Z,2018-09-09T12:00:00Z,2018-09-24T12:00:00Z,129,144,146,182,200,220,221,227,233,243,253,15,2,36,18,20,1,6,6,10,10,15,143,145,181,199,219,220,226,232,242,252,267
103,103,shelly_mn,47.4264,-96.8317,0.5,2018-05-24,31,2018,mid0,975.1084524711632,11,2018-05-10,2018-05-24,100,2018-09-01,2018-09-11,2018-09-25,Harvested at Maturity.,1.1659999945511421,1.3266666655739148,3.1332353374318167,2.34588232209139,1.5485714279292595,0,0.3700000047683716,3.3249998887379966,3.422000022418797,1.6220000145956874,2.5086665987968444,1.1659999945511421,1.3266666655739148,3.1332353374318167,2.34588232209139,1.5485714279292595,0,0.3700000047683716,3.3249998887379966,3.422000022418797,1.6220000145956874,2.5086665987968444,23.048666985829673,23.036666870117188,22.91382359055912,25.122941185446347,21.2509522210984,23.13999938964844,21.12000020345052,18.22666645050049,15.900999927520752,16.959000015258788,12.55266679128011,24.00666675567627,33.199999491373696,28.0335293377147,30.54294137393727,28.29190472194127,34.34000015258789,33.92499955495199,28.763333638509113,24.484000205993652,24.929000091552734,22.991333389282225,16.059666713078816,24.903332869211834,21.54808819995207,23.807058951433966,21.639285655248734,26.55500030517578,26.012499729792278,21.61666671435038,18.549500036239625,18.508500051498412,16.28733336130778,8.112666670481364,16.60666624704997,15.06264706218944,17.071176528930664,14.986666588556199,18.770000457763672,18.09999990463257,14.46999979019165,12.614999866485595,12.088000011444091,9.583333333333334,6.821019364111871,13.240525331250828,8.267930746927876,9.87468279944717,9.945680843634621,13.128194583627256,12.081717047126949,11.085750903727611,9.186914752243757,9.179775152645112,5.944430828380982,6.821019364111871,13.240525331250828,8.267930746927876,9.87468279944717,9.945680843634621,13.128194583627256,12.081717047126949,11.085750903727611,9.186914752243757,9.179775152645112,5.944430828380982,0,0,281.1096453955477,448.9792529861498,657.8385507024767,670.966745286104,743.4570475688657,809.9715529912313,901.8407005136688,993.63845204012,993.63845204012,0,0,0.9356029426350313,1,0.9656428586869013,1,0.9966666618982951,0.9383333285649618,0.8222500085830688,0.8315500020980835,0.06200000127156576,1,1,1,1,1,1,1,1,1,1,1,0.5730666700998942,1,0.9356029426350313,1,0.9656428586869013,1,0.9966666618982951,0.9383333285649618,0.8222500085830688,0.8315500020980835,0.5772999986012777,1,1,1,1,1,1,1,0.9999999999999999,1,1,1,2018-05-10T12:00:00Z,2018-05-25T12:00:00Z,2018-05-28T12:00:00Z,2018-07-01T12:00:00Z,2018-07-18T12:00:00Z,2018-08-08T12:00:00Z,2018-08-09T12:00:00Z,2018-08-15T12:00:00Z,2018-08-21T12:00:00Z,2018-08-31T12:00:00Z,2018-09-10T12:00:00Z,2018-05-24T12:00:00Z,2018-05-27T12:00:00Z,2018-06-30T12:00:00Z,2018-07-17T12:00:00Z,2018-08-07T12:00:00Z,2018-08-08T12:00:00Z,2018-08-14T12:00:00Z,2018-08-20T12:00:00Z,2018-08-30T12:00:00Z,2018-09-09T12:00:00Z,2018-09-24T12:00:00Z,130,145,148,182,199,220,221,227,233,243,253,15,3,34,17,21,1,6,6,10,10,15,144,147,181,198,219,220,226,232,242,252,267
104,104,casselton_nd,46.8866,-97.2386,0.5,2018-05-07,4,2018,mid0,1004.5279994063048,11,2018-04-23,2018-05-07,106,2018-08-21,2018-08-31,2018-09-14,Harvested at Maturity.,0.44266665788988274,1.8400000059045851,2.9682857088212455,3.1788888349094324,3.521818172779273,0,0.8728571491582053,0.001999999955296516,3.5099999096710235,3.433000010251999,1.1026666667312384,0.44266665788988274,1.8400000059045851,2.9682857088212455,3.1788888349094324,3.521818172779273,0,0.8728571491582053,0.001999999955296516,3.5099999096710235,3.433000010251999,1.1026666667312384,23.343999926249186,20.050000071525574,22.615142822265625,22.715555297003853,22.79045458273454,27.100000381469727,19.20857129778181,22.59799995422363,18.40999984741211,15.745999956130982,16.861999956766766,21.364666557312013,21.21250021457672,27.671142741612027,28.579444461398655,28.48181793906472,29.899999618530273,28.981428963797434,34.17000045776367,30.553749799728394,23.928000068664552,26.46866658528646,12.699333280324936,13.745000186609104,20.703142823491778,22.77694450484382,22.176590724424884,22.55999994277954,21.93642881938389,25.801000022888186,23.24687486886978,18.24450001716614,19.621999994913736,4.0340000033378605,6.277500158641487,13.73514290537153,16.974444548288982,15.871363509785045,15.220000267028809,14.891428674970355,17.431999588012697,15.93999993801117,12.560999965667724,12.775333404541016,4.379433593573918,4.915490496867575,8.04693790809938,9.255663302345036,9.588019664895153,11.231845974035968,10.915060892195976,12.797459800789289,11.464948149093987,8.915139375158548,8.847334785832961,4.379433593573918,4.915490496867575,8.04693790809938,9.255663302345036,9.588019664895153,11.231845974035968,10.915060892195976,12.797459800789289,11.464948149093987,8.915139375158548,8.847334785832961,0,0,281.6428267834783,448.244766225689,659.1811988533823,670.4130448274183,746.81847107279,810.8057700767364,902.5253552694884,991.6767490210738,991.6767490210738,0,0,0.8737714266777039,0.9972777790493436,0.9769545446742665,1,0.9301428590502058,1,0.9636875033378601,0.7990999937057496,0.06666666666666667,1,1,1,1,1,1,1,1,1,1,1,0.3104666648308436,0.42400001585483554,0.8737714266777039,0.9972777790493436,0.9769545446742665,1,0.9301428590502058,1,0.9636875033378601,0.7990999937057496,0.9021333312988281,1,1,1,1,1,1,0.9999999999999999,1,1,0.9999999999999999,1,2018-04-23T12:00:00Z,2018-05-08T12:00:00Z,2018-05-16T12:00:00Z,2018-06-20T12:00:00Z,2018-07-08T12:00:00Z,2018-07-30T12:00:00Z,2018-07-31T12:00:00Z,2018-08-07T12:00:00Z,2018-08-12T12:00:00Z,2018-08-20T12:00:00Z,2018-08-30T12:00:00Z,2018-05-07T12:00:00Z,2018-05-15T12:00:00Z,2018-06-19T12:00:00Z,2018-07-07T12:00:00Z,2018-07-29T12:00:00Z,2018-07-30T12:00:00Z,2018-08-06T12:00:00Z,2018-08-11T12:00:00Z,2018-08-19T12:00:00Z,2018-08-29T12:00:00Z,2018-09-13T12:00:00Z,113,128,136,171,189,211,212,219,224,232,242,15,8,35,18,22,1,7,5,8,10,15,127,135,170,188,210,211,218,223,231,241,256
105,105,morris_mn,45.3552,-95.5436,1.5,2018-05-13,34,2018,mid1,1117.2840687335895,11,2018-04-29,2018-05-13,115,2018-09-05,2018-09-14,2018-09-28,Harvested at Maturity.,1.281999966626366,1.1925000045448542,3.827027059739103,4.081304281383105,4.6414286101325635,0.8199999928474426,0.1100000034396847,4.69166677010556,2.5153332982212304,1.967777769598696,3.157333313425382,1.281999966626366,1.1925000045448542,3.827027059739103,4.081304281383105,4.6414286101325635,0.8199999928474426,0.1100000034396847,4.69166677010556,2.5153332982212304,1.967777769598696,3.157333313425382,21.095333290100097,23.21749997138977,19.876216192503232,21.97260860774828,20.98190466562907,18.649999618530273,24.243333498636883,16.986666997273762,14.832666651407878,17.08111111323039,11.18200003306071,22.240666770935057,26.992499828338623,26.800540408572637,28.504782386448074,26.15952391851516,26.239999771118164,31.08500035603841,27.823333104451496,25.007333501180014,24.390000025431316,21.29533341725667,14.559000031153362,19.75124990940094,20.808513415826333,23.290434712949008,20.429285707927885,21.51500034332275,24.36333354314168,22.362500111262,19.438333400090535,18.476666662428116,15.916000016530354,6.877333291371664,12.509999990463257,14.816486423080033,18.07608703944994,14.699047497340612,16.790000915527344,17.641666730244953,16.90166711807251,13.869333299001058,12.563333299424913,10.536666615804037,5.4227927351200576,9.755341856211425,7.447274005015633,9.221698493364324,8.686859126641895,10.654743274715806,13.327772969609542,12.347996437372906,9.831619576400916,9.168644015725453,5.46555206737558,5.4227927351200576,9.755341856211425,7.447274005015633,9.221698493364324,8.686859126641895,10.654743274715806,13.327772969609542,12.347996437372906,9.831619576400916,9.168644015725453,5.46555206737558,0,0,275.54913818557844,487.6482035329579,670.0722451924375,680.7269884671533,760.6936262848105,834.7816049090479,982.2558985550615,1064.7736946965906,1064.7736946965906,0,0,0.9077162169121408,0.9983478255893873,0.9422857171013241,1,1,1,0.8771000083287557,0.798277775446574,0.06666666666666667,1,1,1,1,1,1,1,1,1,1,1,0.46540000279744465,0.877999997138977,0.9077162169121408,0.9983478255893873,0.9422857171013241,1,1,1,0.8771000083287557,0.798277775446574,0.475633331934611,1,1,1,1,1,1,0.9999999999999999,1,1,0.9999999999999999,1,2018-04-29T12:00:00Z,2018-05-14T12:00:00Z,2018-05-18T12:00:00Z,2018-06-24T12:00:00Z,2018-07-17T12:00:00Z,2018-08-07T12:00:00Z,2018-08-08T12:00:00Z,2018-08-14T12:00:00Z,2018-08-20T12:00:00Z,2018-09-04T12:00:00Z,2018-09-13T12:00:00Z,2018-05-13T12:00:00Z,2018-05-17T12:00:00Z,2018-06-23T12:00:00Z,2018-07-16T12:00:00Z,2018-08-06T12:00:00Z,2018-08-07T12:00:00Z,2018-08-13T12:00:00Z,2018-08-19T12:00:00Z,2018-09-03T12:00:00Z,2018-09-12T12:00:00Z,2018-09-27T12:00:00Z,119,134,138,175,198,219,220,226,232,247,256,15,4,37,23,21,1,6,6,15,9,15,133,137,174,197,218,219,225,231,246,255,270
106,106,arthur_il,39.70646667,-88.47023333,3.5,2018-05-07,19,2018,mid3,1517.95819663443,11,2018-04-23,2018-05-07,118,2018-09-02,2018-09-05,2018-09-19,Harvested at Maturity.,1.557333328202367,2.616666647295157,1.6448275799509782,8.69000001721408,3.1280952378043105,0.0599999986588955,5.653333326956878,1.4122222556422155,5.187058916205869,0.006666666517655053,4.377999954422315,1.557333328202367,2.616666647295157,1.6448275799509782,8.69000001721408,3.1280952378043105,0.0599999986588955,5.653333326956878,1.4122222556422155,5.187058916205869,0.006666666517655053,4.377999954422315,21.857333374023437,23.21333376566569,22.70896556459624,21.847826086956523,24.476666586739675,26.149999618530273,21.450000087420147,21.778888808356392,17.39235294566435,20.13666598002116,17.305333391825357,20.904000345865885,26.150000254313152,27.96379312975653,28.71260866911515,28.942381086803618,28.239999771118164,26.640833536783855,28.698888778686523,27.46411761115579,30.366666158040363,27.73333307902018,14.88166687587897,19.545000076293945,22.844827553321576,24.54956521158633,24.03261902218773,22.777499675750732,21.99875017007192,24.056111017862957,23.21294116973877,25.716666539510094,22.48033316930135,8.859333405892054,12.939999898274738,17.725861976886616,20.38652175405751,19.122856957571848,17.3149995803833,17.356666803359985,19.413333257039387,18.96176472832175,21.066666920979817,17.22733325958252,5.6751365332968655,9.545000076293945,8.807221266235002,8.720869982804366,9.290319561875432,9.511325372777135,9.68848083588694,12.724201013215941,13.06984882749241,15.533528576036293,11.21514364533504,5.6751365332968655,9.545000076293945,8.807221266235002,8.720869982804366,9.290319561875432,9.511325372777135,9.68848083588694,12.724201013215941,13.06984882749241,15.533528576036293,11.21514364533504,0,0,255.40941672081507,455.9894263253155,651.0861371246993,670.10878787025365,786.370557900897,900.8883670198404,1123.0757970872114,1169.6763828153205,1169.6763828153205,0,0,0.9936034465658253,1,0.9990476199558803,1,0.9965000073115031,1,0.9916176487417782,1,0.06666666666666667,1,1,1,1,1,1,1,1,1,1,1,0.500866683324178,0.9230000178019205,0.9936034465658253,1,0.9990476199558803,1,0.9965000073115031,1,0.9916176487417782,1,0.9485333283742269,1,1,1,1,0.9999999999999999,1,1,0.9999999999999999,1,0.9999999999999999,1,2018-04-23T12:00:00Z,2018-05-08T12:00:00Z,2018-05-11T12:00:00Z,2018-06-09T12:00:00Z,2018-07-02T12:00:00Z,2018-07-23T12:00:00Z,2018-07-25T12:00:00Z,2018-08-06T12:00:00Z,2018-08-15T12:00:00Z,2018-09-01T12:00:00Z,2018-09-04T12:00:00Z,2018-05-07T12:00:00Z,2018-05-10T12:00:00Z,2018-06-08T12:00:00Z,2018-07-01T12:00:00Z,2018-07-22T12:00:00Z,2018-07-24T12:00:00Z,2018-08-05T12:00:00Z,2018-08-14T12:00:00Z,2018-08-31T12:00:00Z,2018-09-03T12:00:00Z,2018-09-18T12:00:00Z,113,128,131,160,183,204,206,218,227,244,247,15,3,29,23,21,2,12,9,17,3,15,127,130,159,182,203,205,217,226,243,246,261
107,107,urbana_il,40.05325,-88.23485,3.5,2018-05-07,17,2018,mid3,1402.9442162536243,11,2018-04-23,2018-05-07,119,2018-09-03,2018-09-06,2018-09-20,Harvested at Maturity.,1.1493333185712495,2.0524999042972922,2.443448271602392,6.549166741858547,2.2718181970783253,0,4.6990908848291095,1.387777783183588,3.987058861509842,0.023333333432674408,3.9699999667704104,1.1493333185712495,2.0524999042972922,2.443448271602392,6.549166741858547,2.2718181970783253,0,4.6990908848291095,1.387777783183588,3.987058861509842,0.023333333432674408,3.9699999667704104,22.997333526611328,22.27999973297119,22.334138080991547,21.526250064373016,24.15545446222479,23.040000915527344,20.298181837255303,20.771110852559406,16.77470605513629,19.513333002726238,16.47599983215332,20.87066650390625,26.610000133514404,27.95379316395727,28.90624992052714,29.06045436859131,28.68000030517578,27.976363615556195,30.00666681925456,28.77352938932531,32.95666631062826,28.156666564941407,14.392999958992004,19.768750190734863,22.516551757680958,24.47812493642171,23.674090818925336,22.989999771118164,22.93954545801336,24.58111106024848,23.829999979804544,27.291666666666668,22.382666683197023,7.915333414077759,12.927500247955322,17.07931035140465,20.049999952316284,18.287727269259367,17.299999237060547,17.902727300470527,19.155555301242405,18.886470570283777,21.626667022705078,16.608666801452635,5.443596497182002,9.768750190734863,8.367146303482611,8.541789676454973,9.140309356630027,9.830624526850618,10.401981313784358,13.02940846457335,13.506263889119927,15.360186449567475,10.838925957361857,5.443596497182002,9.768750190734863,8.367146303482611,8.541789676454973,9.140309356630027,9.830624526850618,10.401981313784358,13.02940846457335,13.506263889119927,15.360186449567475,10.838925957361857,0,0,242.6472428009958,447.6501950359151,648.737000881776,658.5676254086267,772.9894198602548,890.2540960414148,1119.8605821564536,1165.941141505156,1165.941141505156,0,0,0.9922413793103448,1,0.9987500017339533,1,1,1,0.9916764680077048,1,0.06666666666666667,1,1,1,1,1,1,1,1,1,1,1,0.46049999753634135,0.9300000190734863,0.9922413793103448,1,0.9987500017339533,1,1,1,0.9916764680077048,1,0.9465333302815755,1,1,1,1,1,1,0.9999999999999999,1,1,1,1,2018-04-23T12:00:00Z,2018-05-08T12:00:00Z,2018-05-12T12:00:00Z,2018-06-10T12:00:00Z,2018-07-04T12:00:00Z,2018-07-26T12:00:00Z,2018-07-27T12:00:00Z,2018-08-07T12:00:00Z,2018-08-16T12:00:00Z,2018-09-02T12:00:00Z,2018-09-05T12:00:00Z,2018-05-07T12:00:00Z,2018-05-11T12:00:00Z,2018-06-09T12:00:00Z,2018-07-03T12:00:00Z,2018-07-25T12:00:00Z,2018-07-26T12:00:00Z,2018-08-06T12:00:00Z,2018-08-15T12:00:00Z,2018-09-01T12:00:00Z,2018-09-04T12:00:00Z,2018-09-19T12:00:00Z,113,128,132,161,185,207,208,219,228,245,248,15,4,29,24,22,1,11,9,17,3,15,127,131,160,184,206,207,218,227,244,247,262
108,108,wanatah_in,41.4444,-86.9437,3.5,2018-05-25,20,2018,mid3,1220.262658668626,11,2018-05-11,2018-05-25,121,2018-09-23,2018-09-29,2018-10-13,Harvested at Maturity.,3.833333295583725,0.15000000596046448,3.582432458982677,2.272400056421757,3.2458824089125677,1.0800000429153442,4.539999948607551,2.8455555447273784,2.4547368656647834,2.461666603883107,5.244666626304388,3.833333295583725,0.15000000596046448,3.582432458982677,2.272400056421757,3.2458824089125677,1.0800000429153442,4.539999948607551,2.8455555447273784,2.4547368656647834,2.461666603883107,5.244666626304388,18.12599973678589,25.920000076293945,20.987567643861514,22.989200019836424,20.504117685205795,12.949999809265137,16.777777671813965,17.038888666364883,16.195789462641667,14.601666609446207,10.070666726430257,21.397333335876464,30.204999923706055,26.491351204949456,27.62680000305176,29.205294328577377,27.950000762939453,26.432221942477756,29.298888948228626,26.96210519891036,22.703333536783855,22.295333290100096,16.278333393732705,24.714999675750732,21.862972929671002,22.833800029754638,24.18647064882166,24.280000686645508,22.544444137149387,24.342777834998238,21.987631471533525,17.56500005722046,17.076333292325337,11.15933345158895,19.22499942779541,17.234594654392552,18.04080005645752,19.167646969065945,20.610000610351563,18.656666331821018,19.38666672176785,17.013157744156686,12.426666577657063,11.857333294550578,6.329374308856527,14.137703281629086,6.700068784507148,8.298968931412547,11.66367682007785,13.311869875666057,12.283718508522021,13.861877434243096,11.784099603461906,8.379726752985517,7.195960384621222,6.329374308856527,14.137703281629086,6.700068784507148,8.298968931412547,11.66367682007785,13.311869875666057,12.283718508522021,13.861877434243096,11.784099603461906,8.379726752985517,7.195960384621222,0,0,247.9025450267645,455.37676831207824,653.6592742534018,666.9711441290679,777.524610705766,902.281507613954,1126.17940007973,1176.4577605976433,1176.4577605976433,0,0,0.955297294822899,0.9956599979400634,1,1,0.9872222158643934,0.9878333303663466,0.9434736854151675,0.7045833428700765,0.029399998982747397,1,1,1,1,1,1,1,1,1,1,1,0.6103000052769979,1,0.955297294822899,0.9956599979400634,1,1,0.9872222158643934,0.9878333303663466,0.9434736854151675,0.7045833428700765,0.6782999960581462,1,1,1,1,0.9999999999999999,1,1,1,1,1,1,2018-05-11T12:00:00Z,2018-05-26T12:00:00Z,2018-05-28T12:00:00Z,2018-07-04T12:00:00Z,2018-07-29T12:00:00Z,2018-08-15T12:00:00Z,2018-08-16T12:00:00Z,2018-08-25T12:00:00Z,2018-09-03T12:00:00Z,2018-09-22T12:00:00Z,2018-09-28T12:00:00Z,2018-05-25T12:00:00Z,2018-05-27T12:00:00Z,2018-07-03T12:00:00Z,2018-07-28T12:00:00Z,2018-08-14T12:00:00Z,2018-08-15T12:00:00Z,2018-08-24T12:00:00Z,2018-09-02T12:00:00Z,2018-09-21T12:00:00Z,2018-09-27T12:00:00Z,2018-10-12T12:00:00Z,131,146,148,185,210,227,228,237,246,265,271,15,2,37,25,17,1,9,9,19,6,15,145,147,184,209,226,227,236,245,264,270,285
109,109,novelty_mo,39.9428,-92.0534,3.5,2018-05-15,47,2018,mid3,1372.110873399182,11,2018-05-01,2018-05-15,113,2018-09-05,2018-09-09,2018-09-23,Harvested at Maturity.,3.5453333711872497,1.2525000013411045,1.7324999800351049,2.658695677133358,2.741904726518052,0.119999997317791,1.5900000339373945,2.7887499653734267,8.526875255163759,19.15500020235777,0.9813333431879679,3.5453333711872497,1.2525000013411045,1.7324999800351049,2.658695677133358,2.741904726518052,0.119999997317791,1.5900000339373945,2.7887499653734267,8.526875255163759,19.15500020235777,0.9813333431879679,20.648666636149088,18.142500400543213,24.614999975476945,22.692173957824707,22.87047629129319,24.260000228881836,22.93600015640259,20.173749923706055,17.000625014305115,11.924999952316284,18.737333297729492,26.606666564941406,24.677500247955322,30.990714141300746,32.828695380169414,32.81571424575079,29.93000030517578,33.93400001525879,32.53749990463257,30.288124918937683,27.167500495910645,27.28933334350586,21.264000034332277,19.78375005722046,25.075714298657008,26.67086947482565,26.37261894771031,22.725000381469727,27.201999855041503,26.393749833106995,25.04468747973442,23.61625027656555,21.681333382924397,15.921333503723144,14.889999866485596,19.16071445601327,20.51304356948189,19.92952364966983,15.520000457763672,20.469999694824217,20.24999976158142,19.80125004053116,20.06500005722046,16.073333422342937,11.264000034332275,9.783750057220459,8.858493326885169,8.539855439815986,9.726625656561525,10.2215797295797,12.22223345712571,13.808950254918598,14.090784929797202,13.2892886195302,11.040588417518935,11.264000034332275,9.783750057220459,8.858493326885169,8.539855439815986,9.726625656561525,10.2215797295797,12.22223345712571,13.808950254918598,14.090784929797202,13.2892886195302,11.040588417518935,0,0,248.0378131527847,444.4544882685525,648.7136270563442,658.9352067859239,781.1575413571808,891.6291433965295,1117.0817022732847,1170.2388567514056,1170.2388567514056,0,0,0.9974642821720668,0.9883043537969175,0.9976190521603538,1,1,1,1,0.9680000066757202,0.04636666297912598,1,1,1,1,1,1,1,1,1,1,1,0.9662666734059652,0.9513749957084656,0.9974642821720668,0.9883043537969175,0.9976190521603538,1,1,1,1,0.9680000066757202,0.9013999970753988,1,1,1,1,1,1,0.9221600022580247,0.8880126640023795,1,1,1,2018-05-01T12:00:00Z,2018-05-16T12:00:00Z,2018-05-20T12:00:00Z,2018-06-17T12:00:00Z,2018-07-10T12:00:00Z,2018-07-31T12:00:00Z,2018-08-01T12:00:00Z,2018-08-11T12:00:00Z,2018-08-19T12:00:00Z,2018-09-04T12:00:00Z,2018-09-08T12:00:00Z,2018-05-15T12:00:00Z,2018-05-19T12:00:00Z,2018-06-16T12:00:00Z,2018-07-09T12:00:00Z,2018-07-30T12:00:00Z,2018-07-31T12:00:00Z,2018-08-10T12:00:00Z,2018-08-18T12:00:00Z,2018-09-03T12:00:00Z,2018-09-07T12:00:00Z,2018-09-22T12:00:00Z,121,136,140,168,191,212,213,223,231,247,251,15,4,28,23,21,1,10,8,16,4,15,135,139,167,190,211,212,222,230,246,250,265
110,110,rockport_mo,40.273,-95.4743,3.5,2018-05-23,48,2018,mid3,1415.5207822048765,11,2018-05-09,2018-05-23,115,2018-09-15,2018-09-18,2018-10-02,Harvested at Maturity.,1.8040000254909196,0.01999999955296516,4.888064531248904,2.68000002222305,1.4810526510210413,8.050000190734863,4.855555382039812,8.035000255517662,7.31315791283391,0,2.3566666583220166,1.8040000254909196,0.01999999955296516,4.888064531248904,2.68000002222305,1.4810526510210413,8.050000190734863,4.855555382039812,8.035000255517662,7.31315791283391,0,2.3566666583220166,21.009333165486655,25.140000343322754,23.616128983036166,26.20863652229309,23.652631659256784,21.170000076293945,21.111111058129204,16.306999969482423,14.876842222715679,20.02333386739095,13.792666753133139,27.776000213623046,32.06500053405762,31.546773972049838,34.22090885855935,32.08789474085758,35.7599983215332,32.426667319403755,27.58000030517578,26.28526326229698,30.203332901000977,22.699999809265137,21.537333393096922,26.05750036239624,25.436128923969886,27.74181808124889,25.483947277069092,29.559999465942383,26.13944477505154,22.654000186920165,21.86763166126452,24.93499978383382,17.2486665725708,15.2986665725708,20.050000190734863,19.325483875889933,21.262727303938433,18.87999981328061,23.360000610351563,19.85222223069933,17.72800006866455,17.45000006023206,19.666666666666668,11.797333335876464,11.443122377238273,14.48407018467784,8.264241231772084,8.89454616072147,10.51941072531129,12.333637864706468,12.754814010762882,12.265473466733322,11.82047132658237,14.921486802621683,6.269656723299424,11.443122377238273,14.48407018467784,8.264241231772084,8.89454616072147,10.51941072531129,12.333637864706468,12.754814010762882,12.265473466733322,11.82047132658237,14.921486802621683,6.269656723299424,0,0,256.1914781849347,451.8714937208072,651.7402975017216,664.073935366428,778.8672614632937,901.5219961306268,1126.110951335692,1170.875411743557,1170.875411743557,0,0,0.9996451623978153,0.9839545466683127,1,1,1,0.9803499984741211,0.9329210482145611,1,0.06666666666666667,1,1,1,1,1,1,1,1,1,1,1,0.985700003306071,1,0.9996451623978153,0.9839545466683127,1,1,1,0.9803499984741211,0.9329210482145611,1,0.5688666566212972,1,1,1,1,1,1,1,1,1,0.9999999999999999,1,2018-05-09T12:00:00Z,2018-05-24T12:00:00Z,2018-05-26T12:00:00Z,2018-06-26T12:00:00Z,2018-07-18T12:00:00Z,2018-08-06T12:00:00Z,2018-08-07T12:00:00Z,2018-08-16T12:00:00Z,2018-08-26T12:00:00Z,2018-09-14T12:00:00Z,2018-09-17T12:00:00Z,2018-05-23T12:00:00Z,2018-05-25T12:00:00Z,2018-06-25T12:00:00Z,2018-07-17T12:00:00Z,2018-08-05T12:00:00Z,2018-08-06T12:00:00Z,2018-08-15T12:00:00Z,2018-08-25T12:00:00Z,2018-09-13T12:00:00Z,2018-09-16T12:00:00Z,2018-10-01T12:00:00Z,129,144,146,177,199,218,219,228,238,257,260,15,2,31,22,19,1,9,10,19,3,15,143,145,176,198,217,218,227,237,256,259,274
111,111,urbana_il,40.05325,-88.23485,4.5,2018-05-07,17,2018,mid4,1894.4653039381465,11,2018-04-23,2018-05-07,144,2018-09-28,2018-10-02,2018-10-16,Harvested at Maturity.,1.1493333185712495,2.0524999042972922,3.861578999577384,3.744545458449107,2.8755999874323606,1.6799999475479126,5.2490000644698735,1.5200000059687429,3.819090883586217,0.007499999832361935,3.285999989757935,1.1493333185712495,2.0524999042972922,3.861578999577384,3.744545458449107,2.8755999874323606,1.6799999475479126,5.2490000644698735,1.5200000059687429,3.819090883586217,0.007499999832361935,3.285999989757935,22.997333526611328,22.27999973297119,22.03815800265262,23.120303096193258,21.14319986343384,16.860000610351563,16.545000267028808,17.933333184983994,16.19909074089744,12.857500076293945,10.534000047047932,20.87066650390625,26.610000133514404,28.31526319604171,28.849393844604492,28.888399963378905,30.84000015258789,28.083999824523925,30.704444461398655,27.440909038890492,23.51249933242798,22.950000063578287,14.392999958992004,19.768750190734863,23.05973686670002,23.984242352572355,23.60359992980957,25.97000026702881,23.324499893188477,25.307777828640408,21.722727277062155,16.516249656677246,17.231666735808055,7.915333414077759,12.927500247955322,17.804210537358333,19.11909086054022,18.318799896240236,21.100000381469727,18.564999961853026,19.91111119588216,16.00454551523382,9.519999980926514,11.513333408037822,5.443596497182002,9.768750190734863,6.962472166560781,7.163491701128804,9.965032168457844,13.914315822563797,12.574587344951393,14.278963983808623,11.477002002774856,8.087580315245688,7.597707906188617,5.443596497182002,9.768750190734863,6.962472166560781,7.163491701128804,9.965032168457844,13.914315822563797,12.574587344951393,14.278963983808623,11.477002002774856,8.087580315245688,7.597707906188617,0,0,264.5739423293097,500.9691684665601,750.0949726780062,764.00928850057,889.755161950084,1018.2658378043616,1270.7598818654085,1303.110203126391,1303.110203126391,0,0,0.9940789473684211,0.9991666678226355,1,1,0.9858499956130982,1,0.9124545422467318,0.6516249656677247,0.06666666666666667,1,1,1,1,1,1,1,1,1,1,1,0.46049999753634135,0.9300000190734863,0.9940789473684211,0.9991666678226355,1,1,0.9858499956130982,1,0.9124545422467318,0.6516249656677247,0.6393000030517578,1,1,1,1,0.9999999999999999,1,1,1,1,1,1,2018-04-23T12:00:00Z,2018-05-08T12:00:00Z,2018-05-12T12:00:00Z,2018-06-19T12:00:00Z,2018-07-22T12:00:00Z,2018-08-16T12:00:00Z,2018-08-17T12:00:00Z,2018-08-27T12:00:00Z,2018-09-05T12:00:00Z,2018-09-27T12:00:00Z,2018-10-01T12:00:00Z,2018-05-07T12:00:00Z,2018-05-11T12:00:00Z,2018-06-18T12:00:00Z,2018-07-21T12:00:00Z,2018-08-15T12:00:00Z,2018-08-16T12:00:00Z,2018-08-26T12:00:00Z,2018-09-04T12:00:00Z,2018-09-26T12:00:00Z,2018-09-30T12:00:00Z,2018-10-15T12:00:00Z,113,128,132,170,203,228,229,239,248,270,274,15,4,38,33,25,1,10,9,22,4,15,127,131,169,202,227,228,238,247,269,273,288
112,112,novelty_mo,39.9428,-92.0534,4.5,2018-05-15,47,2018,mid4,1663.979721660609,11,2018-05-01,2018-05-15,140,2018-10-02,2018-10-05,2018-10-19,Harvested at Maturity.,3.5453333711872497,1.2525000013411045,2.237837831867305,1.8429032305195447,2.8539130176700978,4.960000038146973,9.075555817120605,11.1944447391563,2.1337499855241426,0.5533333315203587,8.59600011408329,3.5453333711872497,1.2525000013411045,2.237837831867305,1.8429032305195447,2.8539130176700978,4.960000038146973,9.075555817120605,11.1944447391563,2.1337499855241426,0.5533333315203587,8.59600011408329,20.648666636149088,18.142500400543213,23.2608108262758,24.602258128504598,21.00478265596473,12.65999984741211,19.504444652133518,14.154444270663792,16.83708329995473,15.56000010172526,10.598666588465372,26.606666564941406,24.677500247955322,30.99135125649942,34.195806195659024,31.945652173913043,30.829999923706055,31.40333324008518,28.730000178019207,25.34291672706604,28.740000406901043,17.825333150227866,21.264000034332277,19.78375005722046,25.23432431349883,27.410322481586086,25.733912924061652,25.5600004196167,25.61388889948527,24.48611111111111,19.71666673819224,22.946666876475017,12.422666615247726,15.921333503723144,14.889999866485596,19.477297370498245,20.624838767513154,19.522173674210258,20.290000915527344,19.82444455888536,20.242222044203018,14.090416749318441,17.153333346048992,7.020000080267589,11.264000034332275,9.783750057220459,7.08290916579092,7.80545590969076,10.872074141095236,14.15521565363956,13.65356113592795,14.321405574968125,10.315276780743153,12.866871449438731,4.145502364293436,11.264000034332275,9.783750057220459,7.08290916579092,7.80545590969076,10.872074141095236,14.15521565363956,13.65356113592795,14.321405574968125,10.315276780743153,12.866871449438731,4.145502364293436,0,0,262.06763913426397,504.03677233467744,754.0944775798678,768.2496932335073,891.131743456859,1020.024393631572,1267.591036369408,1306.1916507177243,1306.1916507177243,0,0,0.9937027029089025,0.9949354879317746,1,1,1,1,0.8028958360354106,1,0.03263333320617676,1,1,1,1,1,1,1,1,1,1,1,0.9662666734059652,0.9513749957084656,0.9937027029089025,0.9949354879317746,1,1,1,1,0.8028958360354106,1,0.3650333293279012,1,1,1,1,0.8345814892015248,0.9697924591493526,0.9225222546479567,0.9999999999999999,1,0.9999999999999999,1,2018-05-01T12:00:00Z,2018-05-16T12:00:00Z,2018-05-20T12:00:00Z,2018-06-26T12:00:00Z,2018-07-27T12:00:00Z,2018-08-19T12:00:00Z,2018-08-20T12:00:00Z,2018-08-29T12:00:00Z,2018-09-07T12:00:00Z,2018-10-01T12:00:00Z,2018-10-04T12:00:00Z,2018-05-15T12:00:00Z,2018-05-19T12:00:00Z,2018-06-25T12:00:00Z,2018-07-26T12:00:00Z,2018-08-18T12:00:00Z,2018-08-19T12:00:00Z,2018-08-28T12:00:00Z,2018-09-06T12:00:00Z,2018-09-30T12:00:00Z,2018-10-03T12:00:00Z,2018-10-18T12:00:00Z,121,136,140,177,208,231,232,241,250,274,277,15,4,37,31,23,1,9,9,24,3,15,135,139,176,207,230,231,240,249,273,276,291
113,113,rockport_mo,40.273,-95.4743,4.5,2018-05-23,48,2018,mid4,1778.2561462183849,11,2018-05-09,2018-05-23,150,2018-10-20,2018-10-28,2018-11-11,Harvested at Maturity.,1.8040000254909196,0.01999999955296516,4.442500027501955,2.0368965584142456,6.087727328085086,0.02999999932944774,11.213333345121807,3.1691666864790022,4.931212152890636,0.7662499807775021,0.9033333486566941,1.8040000254909196,0.01999999955296516,4.442500027501955,2.0368965584142456,6.087727328085086,0.02999999932944774,11.213333345121807,3.1691666864790022,4.931212152890636,0.7662499807775021,0.9033333486566941,21.009333165486655,25.140000343322754,24.38274998664856,24.816896685238543,18.82681818441911,23.13999938964844,15.465555720859104,15.299166798591614,11.875454635331126,11.740000069141388,8.454666678110758,27.776000213623046,32.06500053405762,32.01324987411499,32.79827565160291,30.913182085210625,32.11000061035156,28.51888910929362,25.28916660944621,19.56060582941229,15.947499990463257,10.053999916712444,21.537333393096922,26.05750036239624,25.87399995326996,26.287586064174256,25.108181953430176,24.710000038146973,24.320555686950684,20.576666673024494,13.968484736075908,9.757499974220991,5.599999948342641,15.2986665725708,20.050000190734863,19.734750032424927,19.776896476745605,19.303181821649726,17.309999465942383,20.122222264607746,15.864166736602783,8.376363642739527,3.5674999579787254,1.1459999799728393,11.443122377238273,14.48407018467784,6.684032491429014,8.335315270340283,11.195101801844304,13.69251625295984,13.88223206391732,10.827360615083078,7.593482702621953,5.390787350359652,0.6664684649918478,11.443122377238273,14.48407018467784,6.684032491429014,8.335315270340283,11.195101801844304,13.69251625295984,13.88223206391732,10.827360615083078,7.593482702621953,5.390787350359652,0.6664684649918478,0,0,267.3612996571606,509.0854424970287,755.3776821376033,769.0701983905632,894.010286965819,1023.938614346816,1274.5235435333402,1317.6498423362175,1317.6498423362175,0,0,0.9954624986648559,0.9937069004979627,0.9910681811246005,1,0.9873888863457574,0.903249994913737,0.4017575679403363,0.08199999928474427,0.011999997297922772,1,1,1,1,1,1,1,1,1,1,1,0.985700003306071,1,0.9954624986648559,0.9937069004979627,0.9910681811246005,1,0.9873888863457574,0.903249994913737,0.4017575679403363,0.08199999928474427,0.03593333005905152,1,1,1,0.9999999999999999,0.994820995396607,1,1,1,1,1,1,2018-05-09T12:00:00Z,2018-05-24T12:00:00Z,2018-05-26T12:00:00Z,2018-07-05T12:00:00Z,2018-08-03T12:00:00Z,2018-08-25T12:00:00Z,2018-08-26T12:00:00Z,2018-09-04T12:00:00Z,2018-09-16T12:00:00Z,2018-10-19T12:00:00Z,2018-10-27T12:00:00Z,2018-05-23T12:00:00Z,2018-05-25T12:00:00Z,2018-07-04T12:00:00Z,2018-08-02T12:00:00Z,2018-08-24T12:00:00Z,2018-08-25T12:00:00Z,2018-09-03T12:00:00Z,2018-09-15T12:00:00Z,2018-10-18T12:00:00Z,2018-10-26T12:00:00Z,2018-11-10T12:00:00Z,129,144,146,186,215,237,238,247,259,292,300,15,2,40,29,22,1,9,12,33,8,15,143,145,185,214,236,237,246,258,291,299,314
