ID,Site,Latitude,Longitude,Planting,Genetics,ID_Loc,Year,Mat,Yield_Sim,MaxStage,StartDate,PlantingDate_Sim,DTM_Sim,MatDate_Sim,HarvestDate_Sim,EndDate,Result,Rain_1,Rain_2,Rain_3,Rain_4,Rain_5,Rain_6,Rain_7,Rain_8,Rain_9,Rain_10,Rain_11,AccRain_1,AccRain_2,AccRain_3,AccRain_4,AccRain_5,AccRain_6,AccRain_7,AccRain_8,AccRain_9,AccRain_10,AccRain_11,Radn_1,Radn_2,Radn_3,Radn_4,Radn_5,Radn_6,Radn_7,Radn_8,Radn_9,Radn_10,Radn_11,MaxT_1,MaxT_2,MaxT_3,MaxT_4,MaxT_5,MaxT_6,MaxT_7,MaxT_8,MaxT_9,MaxT_10,MaxT_11,MeanT_1,MeanT_2,MeanT_3,MeanT_4,MeanT_5,MeanT_6,MeanT_7,MeanT_8,MeanT_9,MeanT_10,MeanT_11,MinT_1,MinT_2,MinT_3,MinT_4,MinT_5,MinT_6,MinT_7,MinT_8,MinT_9,MinT_10,MinT_11,ThermalTime_1,ThermalTime_2,ThermalTime_3,ThermalTime_4,ThermalTime_5,ThermalTime_6,ThermalTime_7,ThermalTime_8,ThermalTime_9,ThermalTime_10,ThermalTime_11,AccTT_1,AccTT_2,AccTT_3,AccTT_4,AccTT_5,AccTT_6,AccTT_7,AccTT_8,AccTT_9,AccTT_10,AccTT_11,AccEmTT_1,AccEmTT_2,AccEmTT_3,AccEmTT_4,AccEmTT_5,AccEmTT_6,AccEmTT_7,AccEmTT_8,AccEmTT_9,AccEmTT_10,AccEmTT_11,FracGrowthRate_1,FracGrowthRate_2,FracGrowthRate_3,FracGrowthRate_4,FracGrowthRate_5,FracGrowthRate_6,FracGrowthRate_7,FracGrowthRate_8,FracGrowthRate_9,FracGrowthRate_10,FracGrowthRate_11,NutrientStress_1,NutrientStress_2,NutrientStress_3,NutrientStress_4,NutrientStress_5,NutrientStress_6,NutrientStress_7,NutrientStress_8,NutrientStress_9,NutrientStress_10,NutrientStress_11,TempStress_1,TempStress_2,TempStress_3,TempStress_4,TempStress_5,TempStress_6,TempStress_7,TempStress_8,TempStress_9,TempStress_10,TempStress_11,WaterStress_1,WaterStress_2,WaterStress_3,WaterStress_4,WaterStress_5,WaterStress_6,WaterStress_7,WaterStress_8,WaterStress_9,WaterStress_10,WaterStress_11,Period_Start_Date_1,Period_Start_Date_2,Period_Start_Date_3,Period_Start_Date_4,Period_Start_Date_5,Period_Start_Date_6,Period_Start_Date_7,Period_Start_Date_8,Period_Start_Date_9,Period_Start_Date_10,Period_Start_Date_11,Period_End_Date_1,Period_End_Date_2,Period_End_Date_3,Period_End_Date_4,Period_End_Date_5,Period_End_Date_6,Period_End_Date_7,Period_End_Date_8,Period_End_Date_9,Period_End_Date_10,Period_End_Date_11,Period_Start_DOY_1,Period_Start_DOY_2,Period_Start_DOY_3,Period_Start_DOY_4,Period_Start_DOY_5,Period_Start_DOY_6,Period_Start_DOY_7,Period_Start_DOY_8,Period_Start_DOY_9,Period_Start_DOY_10,Period_Start_DOY_11,Duration_1,Duration_2,Duration_3,Duration_4,Duration_5,Duration_6,Duration_7,Duration_8,Duration_9,Duration_10,Duration_11,Period_End_DOY_1,Period_End_DOY_2,Period_End_DOY_3,Period_End_DOY_4,Period_End_DOY_5,Period_End_DOY_6,Period_End_DOY_7,Period_End_DOY_8,Period_End_DOY_9,Period_End_DOY_10,Period_End_DOY_11
1,lafayette_in,40.399,-86.8592,2017-05-28,1,1,2017,early1,763.2111235002212,11,2017-05-14,2017-05-28,95,2017-08-31,2017-09-11,2017-09-25,Harvested at Maturity.,5.186666774749756,0.33250001072883606,5.6651723878136995,6.067647050408756,5.425000071525574,10.3149995803833,0.08571428912026542,0.6750000317891439,4.819166660308838,0.6663636294278231,2.038666653633118,5.186666774749756,0.33250001072883606,5.6651723878136995,6.067647050408756,5.425000071525574,10.3149995803833,0.08571428912026542,0.6750000317891439,4.819166660308838,0.6663636294278231,2.038666653633118,19.50315990447998,25.582999229431152,20.338944287135682,19.91655215095071,19.58810019493103,14.43383502960205,21.72013909476144,20.361550172170006,17.202683846155804,17.705288887023926,15.329100354512532,24.29066670735677,25.65750026702881,28.23482763356176,28.727058747235468,28.71250009536743,24.085000038146973,25.602857317243306,28.088333129882813,26.535833199818928,23.506363955411043,28.214666748046874,18.56733331680298,18.72250008583069,22.005000065112934,23.33911766725428,22.96187511086464,19.737499713897705,19.484999997275217,21.59999982515971,20.46624990304311,17.073636466806587,21.44433348973592,12.843999926249186,11.787499904632568,15.775172496664114,17.951176587273093,17.211250126361847,15.389999389648438,13.367142677307129,15.111666520436605,14.396666606267294,10.640908978202127,14.674000231424968,8.57107931163629,8.722500085830688,9.705670233307865,11.366049914902543,12.034267643680243,9.64369830713909,9.812313903179339,11.791648727355401,10.783890496057271,8.261499711448767,10.677049539684852,8.57107931163629,8.722500085830688,9.705670233307865,11.366049914902543,12.034267643680243,9.64369830713909,9.812313903179339,11.791648727355401,10.783890496057271,8.261499711448767,10.677049539684852,0,0,281.4644367659281,474.68728531927144,667.2355676181555,686.5229642324337,755.209161554689,825.9590539188214,955.3657398715086,1046.2422366974452,1046.2422366974452,0,0,0.9397241395095299,0.9999705903670367,0.9948437511920929,0.8177499771118164,0.9146428585052491,0.9556666692097981,0.9114166577657064,0.6914090958508579,0.028966668446858728,1,1,1,1,1,1,1,1,1,1,1,0.7757666619618734,0.8650000214576722,0.9397241395095299,0.9999705903670367,0.9948437511920929,0.8177499771118164,0.9146428585052491,0.9556666692097981,0.9114166577657064,0.6914090958508579,0.8776999982198079,1,1,1,0.9999999999999999,1,1,0.9999999999999999,0.9999999999999999,0.9999999999999999,0.9999999999999999,1,2017-05-14,2017-05-29,2017-06-02,2017-07-01,2017-07-18,2017-08-03,2017-08-05,2017-08-12,2017-08-18,2017-08-30,2017-09-10,2017-05-28,2017-06-01,2017-06-30,2017-07-17,2017-08-02,2017-08-04,2017-08-11,2017-08-17,2017-08-29,2017-09-09,2017-09-24,134,149,153,182,199,215,217,224,230,242,253,15,4,29,17,16,2,7,6,12,11,15,148,152,181,198,214,216,223,229,241,252,267
2,rosemount_mn,44.707,-93.101,2017,1,2,2017,early1,931.9643651120344,11,2017-04-05,2017-04-19,142,2017-09-08,2017-09-17,2017-10-01,Harvested at Maturity.,6.743333244323731,2.8200000723203025,4.473750078429778,2.490000035451806,7.034210547020561,10.170000076293944,4.826666726006402,9.27571405683245,2.4766667246818543,0.23222221268547905,2.9346666872501372,6.743333244323731,2.8200000723203025,4.473750078429778,2.490000035451806,7.034210547020561,10.170000076293944,4.826666726006402,9.27571405683245,2.4766667246818543,0.23222221268547905,2.9346666872501372,15.444449520111084,18.71723328696357,20.152721842130024,21.124573666116465,19.05832626945094,14.924154281616213,17.779516220092773,14.478361538478307,15.661713790893556,17.264297803243,11.251307741800945,15.178666687011718,14.69555558098687,23.505833208560944,27.32391299372134,27.32526307356985,23.610000610351563,24.11111111111111,24.95857129778181,22.816000111897786,26.68111144171821,23.24400011698405,9.791999999682108,9.240000015331638,17.705104132493336,21.22065212415612,21.81421054036994,18.290000438690186,18.704444461398655,20.02785703114101,17.639666716257732,19.649444633060032,17.863000106811523,4.405333312352498,3.784444449676408,11.90437505642573,15.117391254590906,16.303158007170026,12.970000267028809,13.297777811686197,15.097142764500209,12.463333320617675,12.617777824401855,12.482000096638997,1.9239693374291436,2.1342459542627137,5.963890527734992,8.29106878284024,10.219515597071291,7.857894729035825,8.830943061890437,10.099515312405144,8.267487556322417,10.3233114506344,6.998261158437331,1.9239693374291436,2.1342459542627137,5.963890527734992,8.29106878284024,10.219515597071291,7.857894729035825,8.830943061890437,10.099515312405144,8.267487556322417,10.3233114506344,6.998261158437331,0,0,286.2667453312797,476.9613273366053,671.1321236809597,678.9900184099955,758.4685059670094,829.1651131538454,953.1774264986816,1046.0872295543911,1046.0872295543911,0,0,0.693979165951411,0.9289999941120977,0.965394737845973,0.8290000438690186,0.8677777820163304,0.9581428459712438,0.7597333399454753,0.8430555555555556,0.06666666666666667,1,1,1,1,1,1,1,1,1,1,1,0.13486667186021806,0.13974999719195896,0.693979165951411,0.9289999941120977,0.965394737845973,0.8290000438690186,0.8677777820163304,0.9581428459712438,0.7597333399454753,0.8430555555555556,0.6750333436330159,1,1,1,0.9999999999999999,1,1,1,1,1,1,1,2017-04-05,2017-04-20,2017-05-08,2017-06-25,2017-07-18,2017-08-06,2017-08-07,2017-08-16,2017-08-23,2017-09-07,2017-09-16,2017-04-19,2017-05-07,2017-06-24,2017-07-17,2017-08-05,2017-08-06,2017-08-15,2017-08-22,2017-09-06,2017-09-15,2017-09-30,95,110,128,176,199,218,219,228,235,250,259,15,18,48,23,19,1,9,7,15,9,15,109,127,175,198,217,218,227,234,249,258,273
3,morris_mn,45.3552,-95.5436,2018-05-27,1,3,2018,early1,873.748293093629,11,2018-05-13,2018-05-27,107,2018-09-11,2018-09-18,2018-10-02,Harvested at Maturity.,1.0219999780257543,2.4566666980584464,5.606857141426631,5.793500117212534,1.9210526190306012,0,6.996666590372722,2.699999979564122,5.0149999516350885,0,2.028000005086263,1.0219999780257543,2.4566666980584464,5.606857141426631,5.793500117212534,1.9210526190306012,0,6.996666590372722,2.699999979564122,5.0149999516350885,0,2.028000005086263,22.771362749735513,15.147775650024412,18.201472895486013,20.139523315429688,20.159963105854235,19.64647674560547,17.11915906270345,15.84394223349435,14.675619568143572,15.330015046255928,11.444625759124756,27.326000086466472,30.206666946411133,26.91942858014788,28.500999927520752,27.316842129355983,32.11000061035156,27.244999567667644,25.667142868041992,24.03857135772705,29.47857121058873,16.876666641235353,19.4746666431427,24.09000015258789,21.430285712650843,22.77825000286102,20.991052727950247,25.539999961853027,21.729166348775227,20.180714266640802,18.53142855848585,23.177857194628036,11.861666675408681,11.623333199818928,17.97333335876465,15.941142845153808,17.055500078201295,14.66526332654451,18.969999313354492,16.213333129882813,14.694285665239606,13.024285759244647,16.877143178667342,6.846666709582011,9.10918415128231,12.714017642223835,8.036489165645992,9.75180790940897,10.100982917592956,14.54732131230831,11.741617056153219,10.433460165897436,9.176499337820921,12.74828079117196,2.7380526058930656,9.10918415128231,12.714017642223835,8.036489165645992,9.75180790940897,10.100982917592956,14.54732131230831,11.741617056153219,10.433460165897436,9.176499337820921,12.74828079117196,2.7380526058930656,0,0,281.2771207976097,476.3132789857891,668.2319544200553,682.7792757323637,753.228978069283,826.2631992305651,954.734189960058,1043.9721554982616,1043.9721554982616,0,0,0.9681428568703788,1,0.9358421074716669,1,1,0.9286428655896868,0.8133571437426976,0.99371429170881,0.04929999987284343,1,1,1,1,1,1,1,1,1,1,1,0.7936666631698609,1,0.9681428568703788,1,0.9358421074716669,1,1,0.9286428655896868,0.8133571437426976,0.99371429170881,0.27803333282470705,1,1,1,1,1,1,1,0.9999999999999998,1,1,1,2018-05-13,2018-05-28,2018-05-31,2018-07-05,2018-07-25,2018-08-13,2018-08-14,2018-08-20,2018-08-27,2018-09-10,2018-09-17,2018-05-27,2018-05-30,2018-07-04,2018-07-24,2018-08-12,2018-08-13,2018-08-19,2018-08-26,2018-09-09,2018-09-16,2018-10-01,133,148,151,186,206,225,226,232,239,253,260,15,3,35,20,19,1,6,7,14,7,15,147,150,185,205,224,225,231,238,252,259,274
4,pontiac_il,40.82216667,-88.62016667,2018-01,2,4,2018,early2,997.5725664034104,11,2018-04-02,2018-04-16,120,2018-08-14,2018-08-19,2018-09-02,Harvested at Maturity.,3.1673332611719767,0.24399999380111695,2.432857151542391,8.357407614036843,0,0,3.054285798754011,0.5466666486528184,0.24000000527926854,2.8239999771118165,4.8253334045410154,3.1673332611719767,0.24399999380111695,2.432857151542391,8.357407614036843,0,0,3.054285798754011,0.5466666486528184,0.24000000527926854,2.8239999771118165,4.8253334045410154,17.802417627970378,23.220112737019857,19.476473706109182,18.092381989514386,22.87460091534783,24.65483283996582,19.457760947091238,19.33075417412652,20.529423100607737,18.572002410888672,16.42479108174642,9.161333322525024,17.191333262125653,27.727500098092214,28.654073997780127,30.446470597211054,31.270000457763672,28.905714307512557,26.70666673448351,29.503571374075754,30.022000122070313,28.299333572387695,3.394666665792465,9.412666632731755,20.69232153892517,22.984444370976203,24.47323527055628,24.329999923706055,23.295714378356934,21.472222169240315,23.392857210976736,24.025000381469727,22.63933340708415,-2.371999990940094,1.63400000333786,13.657142979758126,17.314814744172274,18.49999994390151,17.389999389648438,17.68571444920131,16.237777603997124,17.28214304787772,18.02800064086914,16.979333241780598,0.9471213326363515,2.664013976168173,8.743219045611685,9.209494693899446,10.303781582419889,10.881209514086484,10.602307758198128,9.777493140415581,12.395726137654663,13.939127154524327,11.43937434111913,0.9471213326363515,2.664013976168173,8.743219045611685,9.209494693899446,10.303781582419889,10.881209514086484,10.602307758198128,9.777493140415581,12.395726137654663,13.939127154524327,11.43937434111913,0,0,244.8101332771271,493.466490012412,668.6307769135503,679.5119864276368,753.7281407350238,841.7255789987638,1015.2657449259287,1084.9613806985503,1084.9613806985503,0,0,0.9289642878941128,0.9932592568574128,0.9987647056579589,1,1,0.9790555477142334,1,1,0.06666666666666667,1,1,1,1,1,1,1,1,1,1,1,0.06133333365122478,0.14536666810512544,0.9289642878941128,0.9932592568574128,0.9987647056579589,1,1,0.9790555477142334,1,1,0.9796999994913737,1,1,1,1,1,1,0.9999999999999999,1,0.9999999999999999,0.9999999999999999,1,2018-04-02,2018-04-17,2018-05-02,2018-05-30,2018-06-26,2018-07-13,2018-07-14,2018-07-21,2018-07-30,2018-08-13,2018-08-18,2018-04-16,2018-05-01,2018-05-29,2018-06-25,2018-07-12,2018-07-13,2018-07-20,2018-07-29,2018-08-12,2018-08-17,2018-09-01,92,107,122,150,177,194,195,202,211,225,230,15,15,28,27,17,1,7,9,14,5,15,106,121,149,176,193,194,201,210,224,229,244
5,urbana_il,40.05325,-88.23485,2018,2,5,2018,early2,923.192585927324,11,2018-04-01,2018-04-15,116,2018-08-09,2018-08-15,2018-08-29,Harvested at Maturity.,4.044666639963786,0.3020000139872233,2.4838461004770718,7.526250158747037,5.508235258214614,0,4.047142761094229,3.4412499368190765,1.1974999755620956,0.14666666587193808,6.798666600386301,4.044666639963786,0.3020000139872233,2.4838461004770718,7.526250158747037,5.508235258214614,0,4.047142761094229,3.4412499368190765,1.1974999755620956,0.14666666587193808,6.798666600386301,17.880643971761067,22.459165000915526,20.314824177668644,18.891496419906616,18.164254412931555,25.884370803833008,23.53530352456229,18.472718596458435,20.38775098323822,21.368684768676758,15.960757954915364,10.994666783014933,16.199999872843424,27.907307624816895,30.170833349227905,29.375882429235123,26.440000534057617,30.188571112496515,28.193750143051147,27.645000219345093,29.96833324432373,28.381333541870116,5.2446667108684775,9.13466662565867,21.134038365804233,24.17479173342387,24.537941203397864,20.165000438690186,23.801428386143275,23.34375011920929,22.241875052452087,23.831666310628254,23.365000247955322,-0.5053333612779776,2.069333378473918,14.360769106791569,18.17875011761983,19.699999977560605,13.890000343322754,17.41428565979004,18.49375009536743,16.838749885559082,17.69499937693278,18.348666954040528,1.612174043667031,2.2745637508054575,9.66690618711855,10.158625449751314,10.433775386935382,7.805345232919224,10.653241322686851,10.95869520165789,11.015536212506905,13.677853331244162,12.258658092563152,1.612174043667031,2.2745637508054575,9.66690618711855,10.158625449751314,10.433775386935382,7.805345232919224,10.653241322686851,10.95869520165789,11.015536212506905,13.677853331244162,12.258658092563152,0,0,251.3395608650823,495.1465716591138,672.5207532370154,680.32609846993455,754.8987877287425,842.5683493420055,1018.816928742116,1100.8840487295809,1100.8840487295809,0,0,0.9617692259641795,0.9963750024636586,1,1,1,1,0.9862499982118607,1,0.06666666666666667,1,1,1,1,1,1,1,1,1,1,1,0.12840000311533611,0.11069999893506369,0.9617692259641795,0.9963750024636586,1,1,1,1,0.9862499982118607,1,0.9850333340962728,1,1,1,1,1,1,1,1,0.9999999999999999,0.9999999999999999,1,2018-04-01,2018-04-16,2018-05-01,2018-05-27,2018-06-20,2018-07-07,2018-07-08,2018-07-15,2018-07-23,2018-08-08,2018-08-14,2018-04-15,2018-04-30,2018-05-26,2018-06-19,2018-07-06,2018-07-07,2018-07-14,2018-07-22,2018-08-07,2018-08-13,2018-08-28,91,106,121,147,171,188,189,196,204,220,226,15,15,26,24,17,1,7,8,16,6,15,105,120,146,170,187,188,195,203,219,225,240
