ID,Site,Latitude,Longitude,Planting,Genetics,ID_Loc,Year,Mat,Yield_Sim,MaxStage,StartDate,PlantingDate_Sim,DTM_Sim,MatDate_Sim,HarvestDate_Sim,EndDate,Result,Rain_1,Rain_2,Rain_3,Rain_4,Rain_5,Rain_6,Rain_7,Rain_8,Rain_9,Rain_10,Rain_11,AccRain_1,AccRain_2,AccRain_3,AccRain_4,AccRain_5,AccRain_6,AccRain_7,AccRain_8,AccRain_9,AccRain_10,AccRain_11,Radn_1,Radn_2,Radn_3,Radn_4,Radn_5,Radn_6,Radn_7,Radn_8,Radn_9,Radn_10,Radn_11,MaxT_1,MaxT_2,MaxT_3,MaxT_4,MaxT_5,MaxT_6,MaxT_7,MaxT_8,MaxT_9,MaxT_10,MaxT_11,MeanT_1,MeanT_2,MeanT_3,MeanT_4,MeanT_5,MeanT_6,MeanT_7,MeanT_8,MeanT_9,MeanT_10,MeanT_11,MinT_1,MinT_2,MinT_3,MinT_4,MinT_5,MinT_6,MinT_7,MinT_8,MinT_9,MinT_10,MinT_11,ThermalTime_1,ThermalTime_2,ThermalTime_3,ThermalTime_4,ThermalTime_5,ThermalTime_6,ThermalTime_7,ThermalTime_8,ThermalTime_9,ThermalTime_10,ThermalTime_11,AccTT_1,AccTT_2,AccTT_3,AccTT_4,AccTT_5,AccTT_6,AccTT_7,AccTT_8,AccTT_9,AccTT_10,AccTT_11,AccEmTT_1,AccEmTT_2,AccEmTT_3,AccEmTT_4,AccEmTT_5,AccEmTT_6,AccEmTT_7,AccEmTT_8,AccEmTT_9,AccEmTT_10,AccEmTT_11,FracGrowthRate_1,FracGrowthRate_2,FracGrowthRate_3,FracGrowthRate_4,FracGrowthRate_5,FracGrowthRate_6,FracGrowthRate_7,FracGrowthRate_8,FracGrowthRate_9,FracGrowthRate_10,FracGrowthRate_11,NutrientStress_1,NutrientStress_2,NutrientStress_3,NutrientStress_4,NutrientStress_5,NutrientStress_6,NutrientStress_7,NutrientStress_8,NutrientStress_9,NutrientStress_10,NutrientStress_11,TempStress_1,TempStress_2,TempStress_3,TempStress_4,TempStress_5,TempStress_6,TempStress_7,TempStress_8,TempStress_9,TempStress_10,TempStress_11,WaterStress_1,WaterStress_2,WaterStress_3,WaterStress_4,WaterStress_5,WaterStress_6,WaterStress_7,WaterStress_8,WaterStress_9,WaterStress_10,WaterStress_11,Period_Start_Date_1,Period_Start_Date_2,Period_Start_Date_3,Period_Start_Date_4,Period_Start_Date_5,Period_Start_Date_6,Period_Start_Date_7,Period_Start_Date_8,Period_Start_Date_9,Period_Start_Date_10,Period_Start_Date_11,Period_End_Date_1,Period_End_Date_2,Period_End_Date_3,Period_End_Date_4,Period_End_Date_5,Period_End_Date_6,Period_End_Date_7,Period_End_Date_8,Period_End_Date_9,Period_End_Date_10,Period_End_Date_11,Period_Start_DOY_1,Period_Start_DOY_2,Period_Start_DOY_3,Period_Start_DOY_4,Period_Start_DOY_5,Period_Start_DOY_6,Period_Start_DOY_7,Period_Start_DOY_8,Period_Start_DOY_9,Period_Start_DOY_10,Period_Start_DOY_11,Duration_1,Duration_2,Duration_3,Duration_4,Duration_5,Duration_6,Duration_7,Duration_8,Duration_9,Duration_10,Duration_11,Period_End_DOY_1,Period_End_DOY_2,Period_End_DOY_3,Period_End_DOY_4,Period_End_DOY_5,Period_End_DOY_6,Period_End_DOY_7,Period_End_DOY_8,Period_End_DOY_9,Period_End_DOY_10,Period_End_DOY_11
1,lafayette_in,40.399,-86.8592,2017-05-28,1,1,2017,early1,839.1990990263132,11,2017-05-14,2017-05-28,96,2017-09-01,2017-09-12,2017-09-26,Harvested at Maturity.,4.43066657880942,0.18250000104308128,4.691290311875843,4.843750015948899,5.367647027268129,0,0.21875000302679837,0.7799999997019768,3.38833333303531,0.7572727191515944,1.6406666773060958,4.43066657880942,0.18250000104308128,4.691290311875843,4.843750015948899,5.367647027268129,0,0.21875000302679837,0.7799999997019768,3.38833333303531,0.7572727191515944,1.6406666773060958,19.26066665649414,28.429999828338623,24.796451476312452,22.314375042915344,21.57882359448601,22.940000534057617,21.733750104904175,21.045999908447268,20.998333136240642,19.087272557345305,16.121999994913736,24.19533322652181,24.1225004196167,26.845483841434604,28.039999961853027,27.50470599006204,24.520000457763672,25.167500257492065,28.995999908447267,26.28666655222575,23.809090874411844,29.167333348592123,18.38499992688497,17.96125018596649,21.432903228267545,23.214062362909317,22.715294136720544,18.175000190734863,19.636250138282776,23.257999897003174,20.429166674613953,17.255909117785368,22.58766663869222,12.574666627248128,11.799999952316284,16.02032261510049,18.388124763965607,17.92588228337905,11.829999923706056,14.105000019073486,17.51999988555908,14.571666797002155,10.70272736115889,16.00799992879232,8.414789896839856,7.961250185966492,9.409397351169304,11.345767438894356,11.91113180040639,8.175000190734862,9.794710204483568,13.257999897003174,10.664138548853497,8.413061230760812,11.720271333100797,8.414789896839856,7.961250185966492,9.409397351169304,11.345767438894356,11.91113180040639,8.175000190734862,9.794710204483568,13.257999897003174,10.664138548853497,8.413061230760812,11.720271333100797,0,0,291.69131788624844,473.2235969085582,675.7128375154666,683.8878377062015,762.2455193420701,828.535518827086,956.505181413328,1049.0488549516967,1049.0488549516967,0,0,0.9315645202513664,1,0.970176472383387,0.8175000190734864,0.920437502861023,1,0.9257500052452088,0.6974999969655817,0.035933335622151695,1,1,1,1,1,1,1,1,1,1,1,0.7829333257675171,0.7961250185966492,0.9315645202513664,1,0.970176472383387,0.8175000190734864,0.920437502861023,1,0.9257500052452088,0.6974999969655817,0.9466000080108643,1,1,1,0.9999999999999999,0.9999999999999999,1,1,1,0.9999999999999999,1,1,2017-05-14,2017-05-29,2017-06-02,2017-07-03,2017-07-19,2017-08-05,2017-08-06,2017-08-14,2017-08-19,2017-08-31,2017-09-11,2017-05-28,2017-06-01,2017-07-02,2017-07-18,2017-08-04,2017-08-05,2017-08-13,2017-08-18,2017-08-30,2017-09-10,2017-09-25,134,149,153,184,200,217,218,226,231,243,254,15,4,31,16,17,1,8,5,12,11,15,148,152,183,199,216,217,225,230,242,253,268
2,rosemount_mn,44.707,-93.101,2017,1,2,2017,early1,967.2912963048334,11,2017-05-02,2017-05-16,129,2017-09-22,2017-10-01,2017-10-15,Harvested at Maturity.,2.2366666726768014,8.49636369977485,2.947906972450572,4.635000082291663,4.406666584312916,1.5700000524520874,3.7433333394842014,0.4389999909326434,2.349166656844318,1.6744444583439164,7.583333178857962,2.2366666726768014,8.49636369977485,2.947906972450572,4.635000082291663,4.406666584312916,1.5700000524520874,3.7433333394842014,0.4389999909326434,2.349166656844318,1.6744444583439164,7.583333178857962,23.562666829427084,15.500909111716531,23.86441872840704,21.846000003814698,18.034285613468715,20.290000915527344,16.618888960944282,18.786999702453613,15.291666746139526,13.903333293067085,8.703333361943562,20.704666646321613,17.27454523606734,24.690930299980696,27.083999919891358,24.693809418451217,28.540000915527344,22.93666670057509,22.772000122070313,25.932499885559082,24.234444512261284,17.060666783650717,14.199000004927317,12.27272711016915,19.109651182973106,21.68474986553192,19.303571405864897,22.09500026702881,17.796666675143772,16.386500096321107,19.538749933242798,18.6850000222524,11.960333371162415,7.69333336353302,7.270908984270963,13.52837206596552,16.285499811172485,13.913333393278576,15.649999618530272,12.656666649712458,10.0010000705719,13.144999980926514,13.135555532243517,6.859999958674113,5.061076818465044,3.33302848495394,6.724936022807928,9.557533502948528,8.939173110979553,12.09500026702881,8.314244946927495,7.900691379036009,10.139640071752668,9.90173118337492,2.8083896338261165,5.061076818465044,3.33302848495394,6.724936022807928,9.557533502948528,8.939173110979553,12.09500026702881,8.314244946927495,7.900691379036009,10.139640071752668,9.90173118337492,2.8083896338261165,0,0,289.1722489807409,480.3229190397115,668.0455543702822,680.140554637311,754.9687591596585,833.9756729500185,955.6513538110504,1044.7669344614249,1044.7669344614249,0,0,0.8211511628572331,0.9648000025749207,0.8915238085247222,1,0.7744999991522895,0.634900004863739,0.8389583309491475,0.6862222380108304,0.024333335558573407,1,1,1,1,1,1,1,1,1,1,1,0.42323333501815796,0.2756363500248302,0.8211511628572331,0.9648000025749207,0.8915238085247222,1,0.7744999991522895,0.634900004863739,0.8389583309491475,0.6862222380108304,0.2590000041325887,1,1,1,0.9999999999999999,0.9999999999999999,1,1,0.9999999999999999,0.9999999999999999,0.9999999999999999,1,2017-05-02,2017-05-17,2017-05-28,2017-07-10,2017-07-30,2017-08-20,2017-08-21,2017-08-30,2017-09-09,2017-09-21,2017-09-30,2017-05-16,2017-05-27,2017-07-09,2017-07-29,2017-08-19,2017-08-20,2017-08-29,2017-09-08,2017-09-20,2017-09-29,2017-10-14,122,137,148,191,211,232,233,242,252,264,273,15,11,43,20,21,1,9,10,12,9,15,136,147,190,210,231,232,241,251,263,272,287
3,morris_mn,45.3552,-95.5436,2018-05-27,1,3,2018,early1,940.913702965344,11,2018-05-13,2018-05-27,107,2018-09-11,2018-09-18,2018-10-02,Harvested at Maturity.,1.1686666872352363,3.0049999952316284,5.146666664216253,4.787499998882413,1.8163158073041,NA,0.6916666682809591,5.112500082468614,2.7514285248305117,0.10428571647831372,3.2299999761084717,1.1686666872352363,3.0049999952316284,5.146666664216253,4.787499998882413,1.8163158073041,NA,0.6916666682809591,5.112500082468614,2.7514285248305117,0.10428571647831372,3.2299999761084717,21.339333216349285,24.100000381469727,19.148611095216538,24.28499984741211,20.832105184856214,NA,19.635000387827557,14.27999997138977,15.719285794666835,15.429999896458218,9.58933334350586,26.62799975077311,33.02000045776367,26.860555436876083,28.020999908447266,27.12105269181101,NA,29.218333562215168,25.454999923706055,23.77214309147426,29.27428572518485,15.995333353678385,19.577666568756104,26.00250005722046,21.52124990357293,22.398749947547913,21.140789533916273,NA,23.203333616256714,20.178124964237213,18.112142954553878,23.11928571973528,11.06366666952769,12.527333386739095,18.984999656677246,16.181944370269775,16.77649998664856,15.160526376021535,NA,17.18833367029826,14.901250004768372,12.452142817633494,16.964285714285715,6.131999985376994,9.386573455736636,14.234848901575802,8.186860211370906,9.51485311718847,10.208939003409983,NA,12.954246087431908,10.354690950062126,8.855261527896353,12.884165780886581,2.1817163883760076,9.386573455736636,14.234848901575802,8.186860211370906,9.51485311718847,10.208939003409983,NA,12.954246087431908,10.354690950062126,8.855261527896353,12.884165780886581,2.1817163883760076,0,0,294.7269676093526,485.0240299531219,678.9938710179114,NA,756.7193475425029,839.556875143,963.5305365335488,1053.719696999755,1053.719696999755,0,0,0.9617638892597622,0.9980999994277954,0.9362105294277794,NA,1,0.9465000033378601,0.774821436405182,0.9887857096535819,0.043333333333333335,1,1,1,1,1,NA,1,1,1,1,1,0.7956666692097982,1,0.9617638892597622,0.9980999994277954,0.9362105294277794,NA,1,0.9465000033378601,0.774821436405182,0.9887857096535819,0.20896666526794436,1,1,1,1,0.9999999999999999,NA,0.9999999999999999,0.9999999999999999,0.9999999999999999,0.9999999999999999,1,2018-05-13,2018-05-28,2018-05-30,2018-07-05,2018-07-25,NA,2018-08-13,2018-08-19,2018-08-27,2018-09-10,2018-09-17,2018-05-27,2018-05-29,2018-07-04,2018-07-24,2018-08-12,NA,2018-08-18,2018-08-26,2018-09-09,2018-09-16,2018-10-01,133,148,150,186,206,NA,225,231,239,253,260,15,2,36,20,19,0,6,8,14,7,15,147,149,185,205,224,NA,230,238,252,259,274
4,pontiac_il,40.82216667,-88.62016667,2018-01,2,4,2018,early2,1119.440209118507,11,2018-04-01,2018-04-15,121,2018-08-14,2018-08-19,2018-09-02,Harvested at Maturity.,2.7413333521534997,0.21625000005587935,2.5272413374021134,5.835000014664339,1.6312499674968421,18.15999984741211,1.983750008046627,0.5674999924376607,1.2153846107136745,3.949999904632568,5.040666679417094,2.7413333521534997,0.21625000005587935,2.5272413374021134,5.835000014664339,1.6312499674968421,18.15999984741211,1.983750008046627,0.5674999924376607,1.2153846107136745,3.949999904632568,5.040666679417094,13.600000063578287,21.453125178813934,21.24379322446626,21.657500079699926,26.71875011920929,13.600000381469728,21.116249799728394,21.54750007390976,21.979230660658615,17.561999702453612,16.84000015258789,9.5159999926884975,15.321249932050705,26.201379447147765,27.9442857333592,29.75499999523163,28.34000015258789,27.773749828338623,27.541250228881836,31.70999996478741,30.44799919128418,28.858666865030926,4.163666673501333,8.480312465224415,20.16310349826155,22.657500011580332,24.1934375166893,24.51500034332275,23.009999811649323,21.746250092983246,25.256538464472843,25.359999465942384,23.514666716257732,-1.1886666456858317,1.6393749983981252,14.124827549375336,17.370714289801462,18.631875038146973,20.690000534057617,18.246249794960022,15.951249957084656,18.80307696415828,20.271999740600585,18.17066656748454,1.3380913963740568,2.1839685752165097,8.456809157441594,9.088552513457685,10.411723951839026,11.356230405809717,10.493841213221083,10.121157273457623,13.170028542634284,14.815142473306656,12.020828793124357,1.3380913963740568,2.1839685752165097,8.456809157441594,9.088552513457685,10.411723951839026,11.356230405809717,10.493841213221083,10.121157273457623,13.170028542634284,14.815142473306656,12.020828793124357,0,0,245.24746556580615,499.72693594262137,666.314519172046,677.6707495778556,761.6214792836244,842.5907374712854,1013.801108525531,1087.8768208920644,1087.8768208920644,0,0,0.8799482789532892,0.9862321427890233,0.9943750023841857,1,1,1,1,1,0.06666666666666667,1,1,1,1,1,1,1,1,1,1,1,0.10110000073909761,0.11696874834597111,0.8799482789532892,0.9862321427890233,0.9943750023841857,1,1,1,1,1,0.9949333318074545,1,1,1,1,1,0.9999999999999998,1,0.9999999999999999,0.9999999999999999,1,1,2018-04-01,2018-04-16,2018-05-02,2018-05-31,2018-06-28,2018-07-14,2018-07-15,2018-07-23,2018-07-31,2018-08-13,2018-08-18,2018-04-15,2018-05-01,2018-05-30,2018-06-27,2018-07-13,2018-07-14,2018-07-22,2018-07-30,2018-08-12,2018-08-17,2018-09-01,91,106,122,151,179,195,196,204,212,225,230,15,16,29,28,16,1,8,8,13,5,15,105,121,150,178,194,195,203,211,224,229,244
5,urbana_il,40.05325,-88.23485,2018,2,5,2018,early2,913.2922873146778,11,2018-05-16,2018-05-30,93,2018-08-31,2018-09-05,2018-09-19,Harvested at Maturity.,2.783333331470688,2.240000009536743,6.137307769618928,2.490454551933164,3.5387499865610152,NA,1.9833332871397336,1.4600000074133277,4.973076979271494,0.3039999935775995,3.9466666338344414,2.783333331470688,2.240000009536743,6.137307769618928,2.490454551933164,3.5387499865610152,NA,1.9833332871397336,1.4600000074133277,4.973076979271494,0.3039999935775995,3.9466666338344414,22.122000185648602,25.625,21.352307778138382,25.64227277582342,20.68499991297722,NA,20.929999828338623,19.928333282470703,16.814615616431603,17.457999801635744,16.809333101908365,27.70133336385091,30.225000381469727,28.369999885559082,29.644545381719418,27.733749866485596,NA,30.375,30.191666920979817,28.55538456256573,30.440000152587892,28.380666478474936,22.56133337020874,24.299999952316284,23.401153784531814,24.38181816447865,22.68093740940094,NA,25.334166526794434,24.62250010172526,23.791923009432278,24.798000144958497,22.569666639963785,17.42133337656657,18.374999523162842,18.432307683504543,19.119090947237883,17.628124952316284,NA,20.293333053588867,19.053333282470703,19.028461456298828,19.1560001373291,16.758666801452637,12.379078846321107,14.23798420392573,9.826127356455029,11.024460681366213,11.159549399666755,NA,14.543965142032174,14.360532037846248,13.480875862437944,14.153799943008423,10.83708402614514,12.379078846321107,14.23798420392573,9.826127356455029,11.024460681366213,11.159549399666755,NA,14.543965142032174,14.360532037846248,13.480875862437944,14.153799943008423,10.83708402614514,0,0,255.4793112678308,498.01744625788746,676.5702366525555,NA,763.8340275047485,849.997219731826,1025.2486059435191,1096.017605658561,1096.017605658561,0,0,0.9928653845420251,0.9987500017339533,1,NA,1,1,0.9891153812408447,1,0.06666666666666667,1,1,1,1,1,NA,1,1,1,1,1,0.9973666667938232,1,0.9928653845420251,0.9987500017339533,1,NA,1,1,0.9891153812408447,1,0.9465333302815755,1,1,1,0.9999999999999999,0.9999999999999999,NA,1,1,1,1,1,2018-05-16,2018-05-31,2018-06-02,2018-06-28,2018-07-20,NA,2018-08-05,2018-08-11,2018-08-17,2018-08-30,2018-09-04,2018-05-30,2018-06-01,2018-06-27,2018-07-19,2018-08-04,NA,2018-08-10,2018-08-16,2018-08-29,2018-09-03,2018-09-18,136,151,153,179,201,NA,217,223,229,242,247,15,2,26,22,16,0,6,6,13,5,15,150,152,178,200,216,NA,222,228,241,246,261
