ID,...1,Site,Latitude,Longitude,Genetics,Planting,ID_Loc,Year,Mat,Yield_Sim,MaxStage,StartDate,PlantingDate_Sim,DTM_Sim,MatDate_Sim,HarvestDate_Sim,EndDate,Result,Rain_1,Rain_2,Rain_3,Rain_4,Rain_5,Rain_6,Rain_7,Rain_8,Rain_9,Rain_10,Rain_11,AccRain_1,AccRain_2,AccRain_3,AccRain_4,AccRain_5,AccRain_6,AccRain_7,AccRain_8,AccRain_9,AccRain_10,AccRain_11,Radn_1,Radn_2,Radn_3,Radn_4,Radn_5,Radn_6,Radn_7,Radn_8,Radn_9,Radn_10,Radn_11,MaxT_1,MaxT_2,MaxT_3,MaxT_4,MaxT_5,MaxT_6,MaxT_7,MaxT_8,MaxT_9,MaxT_10,MaxT_11,MeanT_1,MeanT_2,MeanT_3,MeanT_4,MeanT_5,MeanT_6,MeanT_7,MeanT_8,MeanT_9,MeanT_10,MeanT_11,MinT_1,MinT_2,MinT_3,MinT_4,MinT_5,MinT_6,MinT_7,MinT_8,MinT_9,MinT_10,MinT_11,ThermalTime_1,ThermalTime_2,ThermalTime_3,ThermalTime_4,ThermalTime_5,ThermalTime_6,ThermalTime_7,ThermalTime_8,ThermalTime_9,ThermalTime_10,ThermalTime_11,AccTT_1,AccTT_2,AccTT_3,AccTT_4,AccTT_5,AccTT_6,AccTT_7,AccTT_8,AccTT_9,AccTT_10,AccTT_11,AccEmTT_1,AccEmTT_2,AccEmTT_3,AccEmTT_4,AccEmTT_5,AccEmTT_6,AccEmTT_7,AccEmTT_8,AccEmTT_9,AccEmTT_10,AccEmTT_11,FracGrowthRate_1,FracGrowthRate_2,FracGrowthRate_3,FracGrowthRate_4,FracGrowthRate_5,FracGrowthRate_6,FracGrowthRate_7,FracGrowthRate_8,FracGrowthRate_9,FracGrowthRate_10,FracGrowthRate_11,NutrientStress_1,NutrientStress_2,NutrientStress_3,NutrientStress_4,NutrientStress_5,NutrientStress_6,NutrientStress_7,NutrientStress_8,NutrientStress_9,NutrientStress_10,NutrientStress_11,TempStress_1,TempStress_2,TempStress_3,TempStress_4,TempStress_5,TempStress_6,TempStress_7,TempStress_8,TempStress_9,TempStress_10,TempStress_11,WaterStress_1,WaterStress_2,WaterStress_3,WaterStress_4,WaterStress_5,WaterStress_6,WaterStress_7,WaterStress_8,WaterStress_9,WaterStress_10,WaterStress_11,Period_Start_Date_1,Period_Start_Date_2,Period_Start_Date_3,Period_Start_Date_4,Period_Start_Date_5,Period_Start_Date_6,Period_Start_Date_7,Period_Start_Date_8,Period_Start_Date_9,Period_Start_Date_10,Period_Start_Date_11,Period_End_Date_1,Period_End_Date_2,Period_End_Date_3,Period_End_Date_4,Period_End_Date_5,Period_End_Date_6,Period_End_Date_7,Period_End_Date_8,Period_End_Date_9,Period_End_Date_10,Period_End_Date_11,Period_Start_DOY_1,Period_Start_DOY_2,Period_Start_DOY_3,Period_Start_DOY_4,Period_Start_DOY_5,Period_Start_DOY_6,Period_Start_DOY_7,Period_Start_DOY_8,Period_Start_DOY_9,Period_Start_DOY_10,Period_Start_DOY_11,Duration_1,Duration_2,Duration_3,Duration_4,Duration_5,Duration_6,Duration_7,Duration_8,Duration_9,Duration_10,Duration_11,Period_End_DOY_1,Period_End_DOY_2,Period_End_DOY_3,Period_End_DOY_4,Period_End_DOY_5,Period_End_DOY_6,Period_End_DOY_7,Period_End_DOY_8,Period_End_DOY_9,Period_End_DOY_10,Period_End_DOY_11
1,1,crookston_mn,47.805,-96.61426667,-0.5,2019-05-17,1,2019,mid00,702.410592092141,11,2019-05-03,2019-05-17,117,2019-09-11,2019-09-20,2019-10-04,Harvested at Maturity.,0.4726666609446208,2.955000082651774,1.6861290547155565,3.336086905520895,3.160000058737668,0,2.1483333905537925,4.797500088810921,3.897499938805898,2.1422222985161676,8.382000080744426,0.4726666609446208,2.955000082651774,1.6861290547155565,3.336086905520895,3.160000058737668,0,2.1483333905537925,4.797500088810921,3.897499938805898,2.1422222985161676,8.382000080744426,26.324767748514812,20.970722238222756,21.625505847315633,20.421379503996477,18.59460473060608,18.50330352783203,17.59408473968506,14.555909931659698,14.775675694147745,11.910594648785061,9.598525969187419,16.31266663869222,18.446666717529297,25.47612879353185,28.040434795877207,26.626363580877133,24.13999938964844,25.388333320617676,22.335000038146973,19.78583327929179,22.313333405388725,16.702000172932944,9.152999983231227,12.162083367506662,18.548387012174054,21.67826088615086,20.237272696061567,18.3149995803833,18.701666673024494,17.077499985694885,14.152916709582012,17.22999996609158,12.183666753768922,1.9933333277702332,5.877500017484029,11.620645230816256,15.316086976424508,13.848181811246006,12.489999771118164,12.015000025431315,11.819999933242798,8.520000139872234,12.146666526794434,7.665333334604899,2.1949111841086797,3.2280758982149265,6.771762941898275,9.676615010215288,9.775854578913314,8.3149995803833,9.267776828065514,7.934736785773933,6.460154636929929,8.665098889438312,3.0718017366255324,2.1949111841086797,3.2280758982149265,6.771762941898275,9.676615010215288,9.775854578913314,8.3149995803833,9.267776828065514,7.934736785773933,6.460154636929929,8.665098889438312,3.0718017366255324,0,0,209.92465119884648,432.48679643379813,647.5555971698913,655.8705967502746,711.4772577186677,774.9551520048592,852.4770076480185,930.4628976529634,930.4628976529634,0,0,0.7789032236222299,0.9724130464636761,0.8938409090042114,0.8314999580383301,0.8701666673024496,0.7077499985694886,0.41529167095820113,0.6191666709052192,0.06300000190734864,1,1,1,1,1,1,1,1,1,1,1,0.12836666345596315,0.23533334036668144,0.7789032236222299,0.9724130464636761,0.8938409090042114,0.8314999580383301,0.8701666673024496,0.7077499985694886,0.41529167095820113,0.6191666709052192,0.3247333351771037,1,1,1,1,1,1,1,0.9999999999999999,0.9999999999999999,0.9999999999999999,1,2019-05-03,2019-05-18,2019-05-30,2019-06-30,2019-07-23,2019-08-14,2019-08-15,2019-08-21,2019-08-29,2019-09-10,2019-09-19,2019-05-17,2019-05-29,2019-06-29,2019-07-22,2019-08-13,2019-08-14,2019-08-20,2019-08-28,2019-09-09,2019-09-18,2019-10-03,123,138,150,181,204,226,227,233,241,253,262,15,12,31,23,22,1,6,8,12,9,15,137,149,180,203,225,226,232,240,252,261,276
2,2,roseau_mn,48.1623,-96.0419,-0.5,2019-05-18,2,2019,mid00,556.6378256242822,11,2019-05-04,2019-05-18,128,2019-09-23,2019-10-09,2019-10-23,Harvested at Maturity.,0.09866666793823242,3.300000017339533,2.2528571810041154,3.9240000534057615,2.0585185289382935,NA,3.8800000667572023,6.539000138640404,11.328750111162663,5.772499950602651,4.048000033696493,0.09866666793823242,3.300000017339533,2.2528571810041154,3.9240000534057615,2.0585185289382935,NA,3.8800000667572023,6.539000138640404,11.328750111162663,5.772499950602651,4.048000033696493,26.214838155110677,21.053423274647106,22.42746456691197,20.756875610351564,18.668133311801487,NA,13.77578206062317,11.146217632293702,12.696051061153412,9.000692158937454,6.375733852386475,15.431999937693277,17.83090912212025,24.94885722569057,26.95759979248047,24.755925849631982,NA,19.571999931335448,16.660000038146972,25.319999933242798,13.386874973773956,8.832666540145874,8.44666663557291,11.521363681012934,17.732857164314815,20.382799911499024,18.05259252477575,NA,14.33899998664856,12.216500008106232,19.30312491953373,9.00406251102686,5.227999943308532,1.4613333334525427,5.211818239905617,10.51685710293906,13.808000030517578,11.349259199919524,NA,9.10600004196167,7.77299997806549,13.286249905824661,4.621250048279762,1.6233333464711905,1.8383134695106809,2.832224561120434,6.2702672872273055,8.833048124474198,7.977257189292947,NA,6.432746020586193,5.523710806999952,10.032680442695506,5.4268672700259835,0.3095017523843951,1.8383134695106809,2.832224561120434,6.2702672872273055,8.833048124474198,7.977257189292947,NA,6.432746020586193,5.523710806999952,10.032680442695506,5.4268672700259835,0.3095017523843951,0,0,219.4593550529557,440.2855581648108,655.6715022757203,NA,719.9989624815823,775.236070551582,855.497514093146,942.3273904135616,942.3273904135616,0,0,0.7266142850262779,0.9383799934387207,0.7579814769603588,NA,0.433899998664856,0.22165000081062317,0.8430624976754189,0.09393749982118607,0.018866664568583172,1,1,1,1,1,NA,1,1,1,1,1,0.09826666951179505,0.164727276021784,0.7266142850262779,0.9383799934387207,0.7579814769603588,NA,0.433899998664856,0.22165000081062317,0.8430624976754189,0.09393749982118607,0.020566663742065432,1,1,1,1,0.9999999999999999,NA,0.9999999999999999,1,0.9999999999999999,0.9999999999999999,1,2019-05-04,2019-05-19,2019-05-30,2019-07-04,2019-07-29,NA,2019-08-25,2019-09-04,2019-09-14,2019-09-22,2019-10-08,2019-05-18,2019-05-29,2019-07-03,2019-07-28,2019-08-24,NA,2019-09-03,2019-09-13,2019-09-21,2019-10-07,2019-10-22,124,139,150,185,210,NA,237,247,257,265,281,15,11,35,25,27,0,10,10,8,16,15,138,149,184,209,236,NA,246,256,264,280,295
3,3,thiefriverfalls_mn,48.1283,-96.2427,-0.5,2019-05-18,3,2019,mid00,602.5486100505935,11,2019-05-04,2019-05-18,126,2019-09-21,2019-10-06,2019-10-20,Harvested at Maturity.,0.12529412437887752,3.533999967575073,2.0017646971870873,3.408333296577136,2.514615407356849,0,4.082222143809001,6.1672728711908515,0.11714285878198487,10.384666442871094,4.528666698932648,0.12529412437887752,3.533999967575073,2.0017646971870873,3.408333296577136,2.514615407356849,0,4.082222143809001,6.1672728711908515,0.11714285878198487,10.384666442871094,4.528666698932648,25.81160780962776,21.302504968643188,22.148095944348505,20.913414001464844,18.249829805814304,19.56462287902832,14.040149211883545,11.684366659684615,14.450606209891184,8.773014291127522,7.4587629000345865,15.786470553454231,19.539000225067138,24.948823480045093,27.18458302815755,24.943846189058743,23.610000610351563,20.83444446987576,16.931817921725187,24.890000207083567,14.6866668065389,9.768666632970174,8.742352929623689,12.922500133514404,17.863970540902194,20.566874881585438,18.340769226734455,16.385000228881836,15.656111081441244,12.373181765729731,18.407857179641724,10.458333381017049,5.861999975641568,1.6982353057931452,6.30600004196167,10.779117601759294,13.949166735013327,11.737692264410166,9.15999984741211,10.477777693006727,7.814545609734275,11.92571415219988,6.229999955495199,1.9553333183129629,1.9437040688821223,3.828349247442186,6.340279407571153,8.963853654915479,8.20616996881019,6.404293680930137,7.068411151870754,5.57436587488421,9.718398166818703,5.997963722112178,0.7508026528126498,1.9437040688821223,3.828349247442186,6.340279407571153,8.963853654915479,8.20616996881019,6.404293680930137,7.068411151870754,5.57436587488421,9.718398166818703,5.997963722112178,0.7508026528126498,0,0,215.56949985741915,430.7019875753906,644.0624067644557,650.4667004453858,714.0824008122224,775.4004254359487,843.4292126036796,933.3986684353624,933.3986684353624,0,0,0.7323382344316034,0.9448124945163727,0.778942307142111,0.6385000228881836,0.5656111081441244,0.2373181765729731,0.7420714480536325,0.22300000349680582,0,1,1,1,1,1,1,1,1,1,1,1,0.09802941083908082,0.2927500081062317,0.7323382344316034,0.9448124945163727,0.778942307142111,0.6385000228881836,0.5656111081441244,0.2373181765729731,0.7420714480536325,0.22300000349680582,0.018133331934611002,1,1,0.99160735423146,1,1,1,1,1,0.9999999999999999,0.9999999999999999,1,2019-05-04,2019-05-21,2019-05-31,2019-07-04,2019-07-28,2019-08-23,2019-08-24,2019-09-02,2019-09-13,2019-09-20,2019-10-05,2019-05-20,2019-05-30,2019-07-03,2019-07-27,2019-08-22,2019-08-23,2019-09-01,2019-09-12,2019-09-19,2019-10-04,2019-10-19,124,141,151,185,209,235,236,245,256,263,278,17,10,34,24,26,1,9,11,7,15,15,140,150,184,208,234,235,244,255,262,277,292
4,4,casselton_nd,46.8866,-97.2386,-0.5,2019-05-17,4,2019,mid00,695.321712177701,11,2019-05-03,2019-05-17,107,2019-09-01,2019-09-14,2019-09-28,Harvested at Maturity.,2.1140000224113464,3.7958333492279053,2.083793101639583,7.3004763296672275,2.3370000064373015,0,4.837142876216343,0.7933333317438761,1.4855555693308513,5.156153862292951,2.6339999794960023,2.1140000224113464,3.7958333492279053,2.083793101639583,7.3004763296672275,2.3370000064373015,0,4.837142876216343,0.7933333317438761,1.4855555693308513,5.156153862292951,2.6339999794960023,24.34081439971924,19.74317153294881,20.970811251936286,19.79208737327939,19.99180703163147,22.39287757873535,15.389512607029506,18.45193115870158,16.268752945794,12.416108204768255,13.755680465698243,17.13466682434082,18.048333247502644,25.857931202855603,28.68809545607794,27.798499870300294,24.200000762939453,23.198571068899973,26.19000021616618,23.062222162882488,19.94153851729173,23.942666625976564,9.8360000928243,11.996666607757408,19.04810357093811,22.759285767873127,21.38449990749359,17.115000247955322,18.41357135772705,19.180000066757202,17.30333336194356,15.37346153992873,17.603666687011717,2.53733336130778,5.944999968012174,12.238275939020617,16.83047607966832,14.970499944686889,10.029999732971191,13.62857164655413,12.169999917348225,11.544444561004639,10.805384562565731,11.264666748046874,2.433817438937798,3.1411646297131974,7.249096334438767,10.65218956539548,10.731376560295805,7.115000247955322,8.683542100223473,9.707442355366547,8.200886889646451,6.736620802274118,7.555322036060691,2.433817438937798,3.1411646297131974,7.249096334438767,10.65218956539548,10.731376560295805,7.115000247955322,8.683542100223473,9.707442355366547,8.200886889646451,6.736620802274118,7.555322036060691,0,0,210.22379369872425,433.9197745720293,648.5473057779456,655.6623060259009,716.4471007274652,774.6917548596645,848.4997368664824,936.075807296046,936.075807296046,0,0,0.8139482769472846,0.9930952367328462,0.9591000008583069,0.7115000247955323,0.832285703931536,0.8898333311080933,0.7302222278383044,0.537346153992873,0.021933333079020182,1,1,1,1,1,1,1,1,1,1,1,0.13720000743865968,0.23883333206176757,0.8139482769472846,0.9930952367328462,0.9591000008583069,0.7115000247955323,0.832285703931536,0.8898333311080933,0.7302222278383044,0.537346153992873,0.6832000017166138,1,1,1,1,1,1,0.9999999999999999,0.9999999999999999,0.9999999999999999,0.9999999999999999,1,2019-05-03,2019-05-18,2019-05-30,2019-06-28,2019-07-19,2019-08-08,2019-08-09,2019-08-16,2019-08-22,2019-08-31,2019-09-13,2019-05-17,2019-05-29,2019-06-27,2019-07-18,2019-08-07,2019-08-08,2019-08-15,2019-08-21,2019-08-30,2019-09-12,2019-09-27,123,138,150,179,200,220,221,228,234,243,256,15,12,29,21,20,1,7,6,9,13,15,137,149,178,199,219,220,227,233,242,255,270
5,5,ottawa_ont,45.3712,-75.72575,-0.5,2019-05-22,5,2019,mid00,617.8276835235043,11,2019-05-08,2019-05-22,105,2019-09-04,2019-09-16,2019-09-30,Harvested at Maturity.,4.200666618347168,2.3589999675750732,3.670967757701874,1.783809502919515,1.7124999940395356,NA,1.3116666873296101,1.1500000208616257,2.787777794731988,2.6308332979679108,1.9940000216166178,4.200666618347168,2.3589999675750732,3.670967757701874,1.783809502919515,1.7124999940395356,NA,1.3116666873296101,1.1500000208616257,2.787777794731988,2.6308332979679108,1.9940000216166178,20.715237363179526,20.506581020355224,21.30673691534227,20.619383494059246,19.582320165634155,NA,16.891022523244224,16.876575152079266,15.643545892503527,14.143661499023438,12.755932807922363,15.888666725158691,18.744000148773193,24.16806464041433,28.816667011805944,27.98249979019165,NA,25.421666145324707,26.393333435058594,24.247777514987522,20.63083330790202,21.638666725158693,10.738333378235499,13.628000092506408,17.76758070914976,22.35595260347639,21.038999915122986,NA,19.34416643778483,20.174166758855183,17.913333257039387,14.737916737794876,15.196000019709269,5.588000031312307,8.512000036239623,11.367096777885191,15.895238195146833,14.095500040054322,NA,13.266666730244955,13.955000082651773,11.578888999091255,8.845000167687735,8.753333314259848,2.156526087797508,3.9880112873551252,6.698900010327742,10.696557125190411,10.74814381614097,NA,9.797594130802155,10.496999393110475,8.829425170058013,6.8750614365633576,5.4558938199132685,2.156526087797508,3.9880112873551252,6.698900010327742,10.696557125190411,10.74814381614097,NA,9.797594130802155,10.496999393110475,8.829425170058013,6.8750614365633576,5.4558938199132685,0,0,207.6659003201601,432.2935999491588,647.2564762719783,NA,706.0420410567912,769.0240374154539,848.488863945976,930.9896011847364,930.9896011847364,0,0,0.7354516152412661,0.9759761946541923,0.9505749988555908,NA,0.9059166590372721,0.9184166669845581,0.7860555436876085,0.4737916737794876,0.01910000165303548,1,1,1,1,1,NA,1,1,1,1,1,0.13680000305175782,0.3628000092506409,0.7354516152412661,0.9759761946541923,0.9505749988555908,NA,0.9059166590372721,0.9184166669845581,0.7860555436876085,0.4737916737794876,0.511800004641215,1,1,1,1,1,NA,1,0.9999999999999999,1,1,1,2019-05-08,2019-05-23,2019-06-02,2019-07-03,2019-07-24,NA,2019-08-13,2019-08-19,2019-08-25,2019-09-03,2019-09-15,2019-05-22,2019-06-01,2019-07-02,2019-07-23,2019-08-12,NA,2019-08-18,2019-08-24,2019-09-02,2019-09-14,2019-09-29,128,143,153,184,205,NA,225,231,237,246,258,15,10,31,21,20,0,6,6,9,12,15,142,152,183,204,224,NA,230,236,245,257,272
6,6,lapocatiere_que,47.357,-70.023,-0.5,2019-06-06,6,2019,mid00,297.56448470549935,11,2019-05-23,2019-06-06,167,2019-11-20,2019-12-06,2019-12-20,Harvested at Maturity.,2.448666652664542,1.9975000023841856,1.9533333254582954,2.3527999448776247,2.4805454384196888,0.7649999856948853,1.4941666647791862,9.106666505336761,2.0518750064074993,0.8350000083446503,2.6693333059549333,2.448666652664542,1.9975000023841856,1.9533333254582954,2.3527999448776247,2.4805454384196888,0.7649999856948853,1.4941666647791862,9.106666505336761,2.0518750064074993,0.8350000083446503,2.6693333059549333,23.21658395131429,24.1252418756485,20.98813311258952,19.262201805114746,13.371979054537686,9.994944214820862,9.020724852879843,5.094627658526103,5.256498336791992,4.0674130618572235,3.5894144058227537,17.20199998219808,21.084999561309814,23.69969703211929,25.216799926757812,18.166363646767355,14.434999942779541,12.380000114440918,9.172499934832254,0.5231250002980232,-0.05875003652181475,-1.989333301782608,11.77266663312912,14.370624721050262,17.73348484617291,19.35159996032715,13.129272717237473,9.392499953508377,7.448333380122979,5.939166640629992,-3.2212500404566526,-3.0653125342796557,-5.604000034928322,6.343333284060161,7.6562498807907104,11.767272660226533,13.486399993896484,8.09218178770759,4.349999964237213,2.516666645805041,2.705833346427729,-6.9656250812113285,-6.071875032037497,-9.218666768074035,2.7566857626209655,4.8232393269747496,6.366212680013154,8.787132582793186,3.9984115203047343,1.4429744855899365,5,5,5,5,0,2.7566857626209655,4.8232393269747496,6.366212680013154,8.787132582793186,3.9984115203047343,1.4429744855899365,5,5,5,5,0,0,0,210.08501844043408,429.7633330102638,649.6759666270239,655.4478645693837,715.4478645693837,775.4478645693837,855.4478645693837,935.4478645693836,935.4478645693836,0,0,0.750696966864846,0.8590799922943115,0.3666090891577981,0.06549999713897704,5.833327770233149e-4,0,0,0,0,1,1,1,1,1,1,1,1,1,1,1,0.19159999688466392,0.4370624721050263,0.750696966864846,0.8590799922943115,0.3666090891577981,0.06549999713897704,5.833327770233149e-4,0,0,0,0,1,1,1,1,0.9999999999999999,1,0.9999999999999999,1,1,0.9999999999999999,1,2019-05-23,2019-06-07,2019-06-15,2019-07-18,2019-08-12,2019-10-06,2019-10-10,2019-10-22,2019-11-03,2019-11-19,2019-12-05,2019-06-06,2019-06-14,2019-07-17,2019-08-11,2019-10-05,2019-10-09,2019-10-21,2019-11-02,2019-11-18,2019-12-04,2019-12-19,143,158,166,199,224,279,283,295,307,323,339,15,8,33,25,55,4,12,12,16,16,15,157,165,198,223,278,282,294,306,322,338,353
7,7,stmathieudebeloeil_que,45.5834,-73.2422,-0.5,2019-06-07,7,2019,mid00,582.6705233690968,11,2019-05-24,2019-06-07,93,2019-09-08,2019-09-21,2019-10-05,Harvested at Maturity.,0.9699999968210856,3.384999990463257,2.9476000022888185,1.8961904730115617,1.8531579092929238,3.5999999046325684,4.047999858856201,0,8.426999950408936,1.4307691959234385,4.316000094016393,0.9699999968210856,3.384999990463257,2.9476000022888185,1.8961904730115617,1.8531579092929238,3.5999999046325684,4.047999858856201,0,8.426999950408936,1.4307691959234385,4.316000094016393,22.910591570536297,22.621684074401855,20.676341972351075,20.883003416515532,17.78452491760254,13.69003677368164,14.618070793151855,18.957820892333984,12.839613103866578,14.490069462702825,10.118132527669271,19.35733331044515,25.892499923706055,26.254400024414064,28.125714256649925,27.061052623548004,25.100000381469727,27.227999877929687,25.035000483194988,22.5129997253418,20.16307684091421,18.319333203633626,13.775999975204467,18.914999961853027,20.292200059890746,21.911428565070743,21.13947363903648,19.50500011444092,21.739999866485597,18.37250026067098,17.346999835968017,14.292307615280151,13.603333282470702,8.194666639963785,11.9375,14.330000095367431,15.69714287349156,15.217894654524954,13.90999984741211,16.251999855041504,11.710000038146973,12.180999946594238,8.42153838964609,8.88733336130778,4.235078379637996,8.944163125474752,8.573276315019337,10.58523235763708,10.948245702190688,9.505000114440918,11.816654773211479,9.249192193349204,8.190292088813782,6.5860916722579645,3.9608328170271716,4.235078379637996,8.944163125474752,8.573276315019337,10.58523235763708,10.948245702190688,9.505000114440918,11.816654773211479,9.249192193349204,8.190292088813782,6.5860916722579645,3.9608328170271716,0,0,214.33190787548335,436.6217873858621,644.638455727485,654.143455841926,713.2267297079834,768.7218828680785,850.6248037562164,936.2439954955698,936.2439954955698,0,0,0.8861999979019165,0.9694761889321464,0.9349473626990067,0.9505000114440918,0.985299997329712,0.8040833473205566,0.7284499835968018,0.42923076152801515,0.04893333117167155,1,1,1,1,1,1,1,1,1,1,1,0.37966666221618656,0.8146250128746033,0.8861999979019165,0.9694761889321464,0.9349473626990067,0.9505000114440918,0.985299997329712,0.8040833473205566,0.7284499835968018,0.42923076152801515,0.41013332684834797,1,1,1,0.9999999999999999,1,1,0.9999999999999999,0.9999999999999999,0.9999999999999999,1,1,2019-05-24,2019-06-08,2019-06-12,2019-07-07,2019-07-28,2019-08-16,2019-08-17,2019-08-22,2019-08-28,2019-09-07,2019-09-20,2019-06-07,2019-06-11,2019-07-06,2019-07-27,2019-08-15,2019-08-16,2019-08-21,2019-08-27,2019-09-06,2019-09-19,2019-10-04,144,159,163,188,209,228,229,234,240,250,263,15,4,25,21,19,1,5,6,10,13,15,158,162,187,208,227,228,233,239,249,262,277
8,8,casselton_nd,46.8866,-97.2386,0.5,2019-05-17,4,2019,mid0,862.1870915719069,11,2019-05-03,2019-05-17,123,2019-09-17,2019-09-25,2019-10-09,Harvested at Maturity.,2.1140000224113464,3.7958333492279053,2.9133333456821933,6.458823666853063,3.2236363779414785,0,0.5949999988079071,2.7444444497426352,4.284615406623254,4.754999957978725,3.813333304723104,2.1140000224113464,3.7958333492279053,2.9133333456821933,6.458823666853063,3.2236363779414785,0,0.5949999988079071,2.7444444497426352,4.284615406623254,4.754999957978725,3.813333304723104,24.34081439971924,19.74317153294881,20.925348330766727,19.980886795941522,18.08996850794012,21.89078140258789,18.504153609275818,14.612766371832954,12.7274840428279,13.669726252555847,9.361935186386109,17.13466682434082,18.048333247502644,26.426666846642128,28.62117655137006,26.25863621451638,28.010000228881836,25.582499980926514,22.192222383287216,20.05384613917424,27.238749742507935,14.31000010172526,9.8360000928243,11.996666607757408,19.788846266575348,22.60264705209171,20.36499992283908,20.230000019073486,18.666249990463257,16.95111123720805,15.123846127436712,20.571249902248383,9.967000063260397,2.53733336130778,5.944999968012174,13.15102568650857,16.58411755281336,14.471363631161777,12.449999809265137,11.75,11.71000009112888,10.19384611569918,13.90375006198883,5.624000024795532,2.433817438937798,3.1411646297131974,7.156462395084662,10.01510883964655,9.662405143998125,10.230000019073486,9.346880456873775,7.814428624063068,6.730120539163626,10.9839373842746,1.37794432700485,2.433817438937798,3.1411646297131974,7.156462395084662,10.01510883964655,9.662405143998125,10.230000019073486,9.346880456873775,7.814428624063068,6.730120539163626,10.9839373842746,1.37794432700485,0,0,279.10203340830185,449.3588836822932,661.9317968502519,672.1617968693254,746.9368405243156,817.266698140883,904.7582651500104,992.629764224207,992.629764224207,0,0,0.857935897509257,0.9865294119890998,0.906749998439442,1,0.8482499957084656,0.6951111237208049,0.5123846127436712,0.9074999928474426,0.04276666959126791,1,1,1,1,1,1,1,1,1,1,1,0.13720000743865968,0.23883333206176757,0.857935897509257,0.9865294119890998,0.906749998439442,1,0.8482499957084656,0.6951111237208049,0.5123846127436712,0.9074999928474426,0.12356667280197144,1,1,1,1,0.9999999999999999,0.9999999999999998,1,0.9999999999999999,1,1,1,2019-05-03,2019-05-18,2019-05-30,2019-07-08,2019-07-25,2019-08-16,2019-08-17,2019-08-25,2019-09-03,2019-09-16,2019-09-24,2019-05-17,2019-05-29,2019-07-07,2019-07-24,2019-08-15,2019-08-16,2019-08-24,2019-09-02,2019-09-15,2019-09-23,2019-10-08,123,138,150,189,206,228,229,237,246,259,267,15,12,39,17,22,1,8,9,13,8,15,137,149,188,205,227,228,236,245,258,266,281
9,9,ottawa_ont,45.3712,-75.72575,0.5,2019-05-22,5,2019,mid0,777.4981814885714,11,2019-05-08,2019-05-22,120,2019-09-19,2019-09-30,2019-10-14,Harvested at Maturity.,4.200666618347168,2.3589999675750732,3.516750009357929,0.6229411573971019,2.005714285941351,0.4000000059604645,0.9285714456013271,3.764444457160102,1.7523076625970693,2.7190909385681152,1.3813333551088969,4.200666618347168,2.3589999675750732,3.516750009357929,0.6229411573971019,2.005714285941351,0.4000000059604645,0.9285714456013271,3.764444457160102,1.7523076625970693,2.7190909385681152,1.3813333551088969,20.715237363179526,20.506581020355224,21.523195719718935,20.381783597609576,18.051918393089657,18.436019897460938,17.877697808401926,14.100273132324219,14.50446657034067,12.054750875993209,10.617665513356526,15.888666725158691,18.744000148773193,25.438500142097475,28.54058849110323,26.848094940185547,29.6200008392334,25.90428570338658,23.208888583713108,20.357692425067608,22.67999995838512,15.832000223795573,10.738333378235499,13.628000092506408,18.870375084877015,22.151470745311062,20.272618929545086,23.045000076293945,19.07785722187587,17.497777726915146,14.203461656203638,16.24181812459772,9.634666756788889,5.588000031312307,8.512000036239623,12.302250027656555,15.7623529995189,13.697142918904623,16.469999313354492,12.251428740365165,11.786666870117188,8.049230887339666,9.803636290810326,3.4373332897822064,2.156526087797508,3.9880112873551252,6.9559952412293615,10.201062264026175,9.957258458638911,13.045000076293944,9.752253273474318,8.406361485985252,6.6890903263845125,7.884374923042547,1.812175811021949,2.156526087797508,3.9880112873551252,6.9559952412293615,10.201062264026175,9.957258458638911,13.045000076293944,9.752253273474318,8.406361485985252,6.6890903263845125,7.884374923042547,1.812175811021949,0,0,278.2398096491745,451.6578681376194,660.7602957690366,673.8052958453305,742.0710687596508,817.7283221335181,904.6864963765169,991.4146205299847,991.4146205299847,0,0,0.7887875020503998,0.9761176530052634,0.9331428527832032,1,0.8664285727909633,0.7444999906751845,0.4203461656203637,0.6106818155808882,0,1,1,1,1,1,1,1,1,1,1,1,0.13680000305175782,0.3628000092506409,0.7887875020503998,0.9761176530052634,0.9331428527832032,1,0.8664285727909633,0.7444999906751845,0.4203461656203637,0.6106818155808882,0.06820000350475311,1,1,1,1,0.9999999999999999,1,1,0.9999999999999999,1,1,1,2019-05-08,2019-05-23,2019-06-02,2019-07-12,2019-07-29,2019-08-19,2019-08-20,2019-08-27,2019-09-05,2019-09-18,2019-09-29,2019-05-22,2019-06-01,2019-07-11,2019-07-28,2019-08-18,2019-08-19,2019-08-26,2019-09-04,2019-09-17,2019-09-28,2019-10-13,128,143,153,193,210,231,232,239,248,261,272,15,10,40,17,21,1,7,9,13,11,15,142,152,192,209,230,231,238,247,260,271,286
10,10,woodstock_ont,43.14542,-80.78348,0.5,2019-06-14,8,2019,mid0,621.9389104543179,11,2019-05-31,2019-06-14,103,2019-09-25,2019-10-09,2019-10-23,Harvested at Maturity.,3.6359999815622968,1.3699999749660492,3.5172413751996796,1.6405882028972403,3.5371428784869967,3.700000047683716,2.041111124886407,5.218889044390784,0.41100000143051146,3.8557142359869823,2.5633333841959636,3.6359999815622968,1.3699999749660492,3.5172413751996796,1.6405882028972403,3.5371428784869967,3.700000047683716,2.041111124886407,5.218889044390784,0.41100000143051146,3.8557142359869823,2.5633333841959636,21.527679379781087,18.67399616241455,21.276144586760424,19.919877444996555,17.70946725209554,13.450255393981934,15.009306324852837,14.962435245513916,14.959592199325561,10.764605488095965,10.03858749071757,22.13999989827474,22.39800033569336,27.446551421592975,27.572353026446173,25.817142759050643,23.690000534057617,22.397777981228298,22.107777701483833,24.339999961853028,19.3407142502921,15.469999821980794,16.014666589101154,17.37400016784668,21.269310211313183,21.54058832280776,19.943333285195486,18.110000133514404,17.298333512412178,16.224999984105427,18.281999921798707,14.084285684994288,9.53199991385142,9.889333279927571,12.35,15.092069001033389,15.508823619169348,14.069523811340332,12.529999732971191,12.198889043596056,10.342222266727024,12.223999881744385,8.827857119696482,3.594000005722046,6.2757619920434555,7.374000167846679,9.3909431756057,10.70227409525132,9.943521563598898,8.110000133514406,8.060456060028738,7.676709683979221,9.019629014162422,6.657048467771922,1.6793237216193477,6.2757619920434555,7.374000167846679,9.3909431756057,10.70227409525132,9.943521563598898,8.110000133514406,8.060456060028738,7.676709683979221,9.019629014162422,6.657048467771922,1.6793237216193477,0,0,272.3373520925653,454.27601171183784,663.0899645474146,671.199964680929,743.7440692211877,812.8344563770007,903.0307465186248,996.2294250674316,996.2294250674316,0,0,0.9471724082683695,0.972764705209171,0.8957380975995745,0.8110000133514405,0.7298333512412177,0.5995555586285062,0.785199990272522,0.4217142820358276,0.009699997901916503,1,1,1,1,1,1,1,1,1,1,1,0.602833325068156,0.737400016784668,0.9471724082683695,0.972764705209171,0.8957380975995745,0.8110000133514405,0.7298333512412177,0.5995555586285062,0.785199990272522,0.4217142820358276,0.10079999367396036,1,1,1,1,0.9999999999999999,1,1,1,0.9999999999999999,1,1,2019-05-31,2019-06-15,2019-06-20,2019-07-19,2019-08-05,2019-08-26,2019-08-27,2019-09-05,2019-09-14,2019-09-24,2019-10-08,2019-06-14,2019-06-19,2019-07-18,2019-08-04,2019-08-25,2019-08-26,2019-09-04,2019-09-13,2019-09-23,2019-10-07,2019-10-22,151,166,171,200,217,238,239,248,257,267,281,15,5,29,17,21,1,9,9,10,14,15,165,170,199,216,237,238,247,256,266,280,295
11,11,stmathieudebeloeil_que,45.5834,-73.2422,0.5,2019-06-07,7,2019,mid0,702.2405465670385,11,2019-05-24,2019-06-07,107,2019-09-22,2019-10-06,2019-10-20,Harvested at Maturity.,0.9699999968210856,3.384999990463257,3.2314705848693848,0.7593750208616257,2.106499969959259,8.40999984741211,2.3162500262260437,8.492222097184923,0.6084615358939538,4.624285815017564,4.695333313941956,0.9699999968210856,3.384999990463257,3.2314705848693848,0.7593750208616257,2.106499969959259,8.40999984741211,2.3162500262260437,8.492222097184923,0.6084615358939538,4.624285815017564,4.695333313941956,22.910591570536297,22.621684074401855,20.748693438137277,19.83742606639862,17.296553087234496,11.352529525756836,16.478770077228546,13.3094146516588,14.982745464031513,9.706811700548444,9.659510294596354,19.35733331044515,25.892499923706055,26.613235305337344,28.982499957084656,26.5,23.829999923706055,24.795000314712524,21.86666636996799,20.546153728778545,17.856428486960276,15.157999992370605,13.775999975204467,18.914999961853027,20.589411798645468,23.008437484502792,20.492999958992005,19.264999866485596,18.857500195503235,16.522777557373047,14.406153770593496,13.336428540093557,9.658666641513507,8.194666639963785,11.9375,14.565588291953592,17.03437501192093,14.485999917984008,14.699999809265137,12.920000076293945,11.178888744778103,8.266153812408447,8.816428593226842,4.1593332906564076,4.235078379637996,8.944163125474752,8.180871744316136,11.168302589903938,10.309044761144236,9.264999866485594,9.515019145011902,7.549473131604989,6.734060412709759,6.530888148234146,1.729267844343856,4.235078379637996,8.944163125474752,8.180871744316136,11.168302589903938,10.309044761144236,9.264999866485594,9.515019145011902,7.549473131604989,6.734060412709759,6.530888148234146,1.729267844343856,0,0,278.14963930674855,456.84248074521145,663.0233759680962,672.2883758345818,748.4085289946769,816.3537871791218,903.8965725443486,995.3290066196266,995.3290066196266,0,0,0.9101029389044818,0.9731562495231628,0.935724995136261,0.9264999866485596,0.8530625104904175,0.6522777557373047,0.44061537705934967,0.3869999953678676,0,1,1,1,1,1,1,1,1,1,1,1,0.37966666221618656,0.8146250128746033,0.9101029389044818,0.9731562495231628,0.935724995136261,0.9264999866485596,0.8530625104904175,0.6522777557373047,0.44061537705934967,0.3869999953678676,0.07746666431427002,1,1,1,1,0.9999999999999999,1,1,0.9999999999999999,0.9999999999999999,0.9999999999999999,1,2019-05-24,2019-06-08,2019-06-12,2019-07-16,2019-08-01,2019-08-21,2019-08-22,2019-08-30,2019-09-08,2019-09-21,2019-10-05,2019-06-07,2019-06-11,2019-07-15,2019-07-31,2019-08-20,2019-08-21,2019-08-29,2019-09-07,2019-09-20,2019-10-04,2019-10-19,144,159,163,197,213,233,234,242,251,264,278,15,4,34,16,20,1,8,9,13,14,15,158,162,196,212,232,233,241,250,263,277,292
12,12,rosemount_mn,44.707,-93.101,1.5,2019-05-26,9,2019,mid1,942.2812460608872,11,2019-05-12,2019-05-26,118,2019-09-21,2019-10-02,2019-10-16,Harvested at Maturity.,5.853333489100138,8.282000064849854,4.537368372866982,3.739090843634172,2.3105882195865406,21.56999969482422,2.259999990463257,3.7933332655164933,7.289999827742577,2.2809090614318848,5.311333374182383,5.853333489100138,8.282000064849854,4.537368372866982,3.739090843634172,2.3105882195865406,21.56999969482422,2.259999990463257,3.7933332655164933,7.289999827742577,2.2809090614318848,5.311333374182383,18.450389766693114,23.13955955505371,19.969882262380498,19.55857922814109,18.869385831496295,15.414019584655762,17.34196972846985,14.954168107774523,12.41715931892395,11.77324576811357,7.483884398142497,18.35399996439616,22.772000312805176,25.74289477498908,27.867727279663086,26.945293987498562,27.600000381469727,24.25125026702881,22.664444393581814,23.338124811649323,22.726363788951527,12.379333273569744,12.931666620572408,16.370000171661378,20.4455263740138,22.74340909177607,21.480588155634262,21.414999961853027,18.97062510251999,17.95388889312744,18.52937486767769,17.2118183482777,8.971666666368643,7.509333276748658,9.968000030517578,15.148157973038522,17.61909090388905,16.01588232376996,15.229999542236328,13.68999993801117,13.243333392673069,13.720624923706055,11.697272907603871,5.564000059167544,3.854222445297639,6.475237877500057,7.3108495582717055,9.845851340795614,10.806646835591762,11.414999961853027,9.190920742169768,8.3843401703563,8.997250363751501,8.420674235922098,1.340128061113755,3.854222445297639,6.475237877500057,7.3108495582717055,9.845851340795614,10.806646835591762,11.414999961853027,9.190920742169768,8.3843401703563,8.997250363751501,8.420674235922098,1.340128061113755,0,0,277.8122832143249,494.4210127118282,678.1340089168884,689.5490088787415,763.0763748160996,838.5354363493063,982.4914421693304,1075.118858764473,1075.118858764473,0,0,0.902434209773415,0.9927272709933195,0.9781764703638414,1,0.893500006198883,0.790777768029107,0.7771562486886978,0.6674545504830101,0.02349999745686849,1,1,1,1,1,1,1,1,1,1,1,0.3290999952952067,0.5966000175476075,0.902434209773415,0.9927272709933195,0.9781764703638414,1,0.893500006198883,0.790777768029107,0.7771562486886978,0.6674545504830101,0.13603333314259847,1,1,1,0.9999999999999999,0.9999999999999999,1,0.9999999999999999,1,1,0.9999999999999999,1,2019-05-12,2019-05-27,2019-06-01,2019-07-09,2019-07-31,2019-08-17,2019-08-18,2019-08-26,2019-09-04,2019-09-20,2019-10-01,2019-05-26,2019-05-31,2019-07-08,2019-07-30,2019-08-16,2019-08-17,2019-08-25,2019-09-03,2019-09-19,2019-09-30,2019-10-15,132,147,152,190,212,229,230,238,247,263,274,15,5,38,22,17,1,8,9,16,11,15,146,151,189,211,228,229,237,246,262,273,288
13,13,mead_ne,41.15785,-96.42075,1.5,2019-05-16,10,2019,mid1,804.8811624475724,11,2019-05-02,2019-05-16,99,2019-08-23,2019-08-31,2019-09-14,Harvested at Maturity.,3.309333403905233,8.071428724697657,5.992727265213475,0.8961111373371549,3.6374999582767487,1.2899999618530271,0,0.6519999980926514,4.606363708322698,3.1487500816583633,1.5773333231608073,3.309333403905233,8.071428724697657,5.992727265213475,0.8961111373371549,3.6374999582767487,1.2899999618530271,0,0.6519999980926514,4.606363708322698,3.1487500816583633,1.5773333231608073,19.720319493611655,14.991769245692662,20.47784695480809,20.603823926713734,19.180858433246613,20.63359832763672,18.64332151412964,18.857676124572755,16.377321936867453,17.343571543693542,16.205997212727866,20.458666547139487,18.801428658621653,26.48696974552039,31.756110827128094,30.67437493801117,26.040000915527344,28.630000114440918,30.55399971008301,28.21454551003196,26.142499923706055,27.593999989827473,13.88799991607666,14.502857208251953,20.627575744282115,25.95222208234999,25.21874988079071,20.850000381469727,23.78499984741211,24.989999771118164,23.31772734902122,20.84062486886978,21.92366663614909,7.317333285013834,10.204285757882253,14.768181743043842,20.148333337571884,19.76312482357025,15.65999984741211,18.9399995803833,19.42599983215332,18.420909188010476,15.538749814033508,16.253333282470702,4.619900275942484,5.065187503134778,8.362417730223559,11.660969291814212,11.834369989584841,10.072554142612605,13.084654426135044,14.717540851695203,13.054325175111943,10.938146835101396,11.121848595282238,4.619900275942484,5.065187503134778,8.362417730223559,11.660969291814212,11.834369989584841,10.072554142612605,13.084654426135044,14.717540851695203,13.054325175111943,10.938146835101396,11.121848595282238,0,0,275.95978509737745,485.8572323500332,675.2071521833905,685.2797063260031,763.7876328828132,837.3753371412892,980.9729140675204,1068.4780887483316,1068.4780887483316,0,0,0.9243484829411363,1,0.9918437540531159,1,1,1,0.9904545437205922,0.9778125047683716,0.06666666666666667,1,1,1,1,1,1,1,1,1,1,1,0.3684999990463257,0.42000000476837157,0.9243484829411363,1,0.9918437540531159,1,1,1,0.9904545437205922,0.9778125047683716,0.9875000031789144,1,1,1,0.9999999999999999,1,0.9999999999999998,1,1,0.9999999999999999,1,1,2019-05-02,2019-05-17,2019-05-24,2019-06-26,2019-07-14,2019-07-30,2019-07-31,2019-08-06,2019-08-11,2019-08-22,2019-08-30,2019-05-16,2019-05-23,2019-06-25,2019-07-13,2019-07-29,2019-07-30,2019-08-05,2019-08-10,2019-08-21,2019-08-29,2019-09-13,122,137,144,177,195,211,212,218,223,234,242,15,7,33,18,16,1,6,5,11,8,15,136,143,176,194,210,211,217,222,233,241,256
14,14,phillips_ne,40.8473,-98.177,1.5,2019-05-18,11,2019,mid1,763.3662228935351,11,2019-05-04,2019-05-18,103,2019-08-29,2019-09-06,2019-09-20,Harvested at Maturity.,3.579333265622457,14.327500253915787,4.2561765067717605,5.238888872994317,4.731250107288361,0,8.932000350952148,10.515000025431315,12.89153869335468,1.6074999421834946,1.1766666412353515,3.579333265622457,14.327500253915787,4.2561765067717605,5.238888872994317,4.731250107288361,0,8.932000350952148,10.515000025431315,12.89153869335468,1.6074999421834946,1.1766666412353515,19.41968043645223,17.319653868675232,20.683713604422177,19.447699705759685,19.254780650138855,17.335664749145508,18.184761619567873,15.904070536295574,14.919380371387188,18.690678477287292,15.711172358194986,21.13133322397868,17.975000023841858,26.62529406828039,30.754444546169704,29.14187490940094,28.600000381469727,29.87400016784668,29.043333689371746,25.900769307063175,27.132499933242798,28.84466667175293,14.485333254933357,13.02624997496605,20.55367643692914,25.01055571768019,23.664999902248383,24.204999923706055,24.20699996948242,23.83333357175191,21.250769248375526,20.95312488079071,22.84500001271566,7.839333285888036,8.07749992609024,14.482058805577894,19.266666889190674,18.188124895095825,19.809999465942383,18.539999771118165,18.62333345413208,16.600769189687874,14.773749828338623,16.845333353678384,5.437710851317334,3.8920330662917344,8.099742850476126,11.702621893237408,11.760021464425908,13.670219652404898,13.962078111234614,13.76495701396068,11.202723266239351,11.00020577836409,11.67686662708044,5.437710851317334,3.8920330662917344,8.099742850476126,11.702621893237408,11.760021464425908,13.670219652404898,13.962078111234614,13.76495701396068,11.202723266239351,11.00020577836409,11.67686662708044,0,0,275.39125691618824,486.0384509944616,674.1987944252762,687.8690140776811,757.6794046338541,840.2691467176182,985.9045491787298,1073.9061954056426,1073.9061954056426,0,0,0.88741175847895,1,0.9943749994039536,1,1,0.9959166765213012,0.9682692344372089,0.9453124880790711,0.06666666666666667,1,1,1,1,1,1,1,1,1,1,1,0.4413666645685832,0.35381249487400057,0.88741175847895,1,0.9943749994039536,1,1,0.9959166765213012,0.9682692344372089,0.9453124880790711,0.9819333330790202,1,1,1,1,1,1,0.9999999999999999,1,0.9999999999999999,1,1,2019-05-04,2019-05-19,2019-05-27,2019-06-30,2019-07-18,2019-08-03,2019-08-04,2019-08-09,2019-08-15,2019-08-28,2019-09-05,2019-05-18,2019-05-26,2019-06-29,2019-07-17,2019-08-02,2019-08-03,2019-08-08,2019-08-14,2019-08-27,2019-09-04,2019-09-19,124,139,147,181,199,215,216,221,227,240,248,15,8,34,18,16,1,5,6,13,8,15,138,146,180,198,214,215,220,226,239,247,262
15,15,palmyra_ont,42.4581,-81.7291,1.5,2019-06-19,12,2019,mid1,713.7220860210432,11,2019-06-05,2019-06-19,102,2019-09-29,2019-10-12,2019-10-26,Harvested at Maturity.,3.030666716893514,2.690000057220459,2.720370398627387,5.627500066161156,2.1376470607869766,5.269999980926514,0.5422222084469266,1.6237499564886093,1.0471428632736204,2.0838461839235745,1.8540000200271607,3.030666716893514,2.690000057220459,2.720370398627387,5.627500066161156,2.1376470607869766,5.269999980926514,0.5422222084469266,1.6237499564886093,1.0471428632736204,2.0838461839235745,1.8540000200271607,18.613012949625652,22.839772701263428,20.76005670759413,19.170775604248046,16.76913065068862,8.575263023376465,16.628915786743164,14.590221762657166,13.815484319414411,11.081644278306227,9.700538889567058,21.66133346557617,22.3725004196167,28.137037065294052,26.94699983596802,25.69764720692354,24.149999618530273,23.098889032999676,23.424999952316284,24.214285578046525,19.86769221379207,15.2720001856486,17.407333405812583,17.15500032901764,23.14296293258667,21.880249977111816,21.044411855585434,21.36999988555908,18.470000108083088,18.9099999666214,19.58785711015974,15.631538409453173,10.626666776339214,13.15333334604899,11.937500238418579,18.148888799879288,16.813500118255615,16.39117650424733,18.59000015258789,13.841111183166504,14.394999980926514,14.96142864227295,11.395384605114277,5.981333367029826,7.407333405812581,7.155000329017639,10.207240272531289,10.838362397883639,11.041917001790736,11.369999885559082,8.775137737080787,9.326668443521857,9.824936537563376,7.04494786633918,1.660104808245202,7.407333405812581,7.155000329017639,10.207240272531289,10.838362397883639,11.041917001790736,11.369999885559082,8.775137737080787,9.326668443521857,9.824936537563376,7.04494786633918,1.660104808245202,0,0,275.5954873583448,492.3627353160176,680.0753243464601,691.4453242320192,770.4215638657463,845.0349114139212,982.5840229398084,1074.1683452022182,1074.1683452022182,0,0,0.9978703728428593,0.9941499948501586,0.9458823568680708,1,0.8417777909172907,0.8098124921321869,0.8929285730634418,0.5356923048312847,0.04026666959126791,1,1,1,1,1,1,1,1,1,1,1,0.7407333405812582,0.715500032901764,0.9978703728428593,0.9941499948501586,0.9458823568680708,1,0.8417777909172907,0.8098124921321869,0.8929285730634418,0.5356923048312847,0.14663334051767984,1,1,1,1,1,1,1,1,0.9999999999999999,0.9999999999999999,1,2019-06-05,2019-06-20,2019-06-24,2019-07-21,2019-08-10,2019-08-27,2019-08-28,2019-09-06,2019-09-14,2019-09-28,2019-10-11,2019-06-19,2019-06-23,2019-07-20,2019-08-09,2019-08-26,2019-08-27,2019-09-05,2019-09-13,2019-09-27,2019-10-10,2019-10-25,156,171,175,202,222,239,240,249,257,271,284,15,4,27,20,17,1,9,8,14,13,15,170,174,201,221,238,239,248,256,270,283,298
16,16,stpauls_ont,43.32515,-81.1402,1.5,2019-06-09,13,2019,mid1,751.1178236867808,11,2019-05-26,2019-06-09,128,2019-10-15,2019-11-01,2019-11-15,Harvested at Maturity.,1.897333288192749,3.9414285251072476,2.4396970091444072,1.359999972841014,3.2223809843971614,0,4.344000029563904,1.7611111005147297,3.349090912125327,4.48764705657959,3.8153333187103273,1.897333288192749,3.9414285251072476,2.4396970091444072,1.359999972841014,3.2223809843971614,0,4.344000029563904,1.7611111005147297,3.349090912125327,4.48764705657959,3.8153333187103273,21.056341552734374,19.03757313319615,20.95742925008138,19.999697975490406,16.147830963134766,17.0788516998291,15.344907379150392,14.917302343580458,11.014935450120406,8.036961232914644,5.505924129486084,20.965999921162922,20.142857142857142,26.79363626422304,26.610434822414234,24.306190399896533,23.510000228881836,21.39099998474121,23.658888710869682,19.087272774089467,12.907646992627313,2.4553332686424256,15.330000019073486,15.155714205333165,20.81969688877915,20.613043432650358,19.06476184300014,18.285000324249268,15.879000043869018,17.731110943688286,13.87022733146494,8.009999960660934,-0.6486666989202301,9.69400011698405,10.168571267809186,14.845757513335256,14.615652042886484,13.823333286103749,13.0600004196167,10.367000102996826,11.80333317650689,8.653181888840415,3.112352928694557,-3.752666666482886,5.63377508857131,5.248891469576529,8.11335813899739,9.471762121168839,9.08130294000989,8.285000324249268,7.364833092281223,8.458167501565484,6.745080204973235,5.101186567046011,0,5.63377508857131,5.248891469576529,8.11335813899739,9.471762121168839,9.08130294000989,8.285000324249268,7.364833092281223,8.458167501565484,6.745080204973235,5.101186567046011,0,0,0,267.74081858691386,485.5913473737971,676.2987091140049,684.5837094382541,758.2320403610661,834.3555478751553,982.7473123845664,1069.4674840243486,1069.4674840243486,0,0,0.9163030248699766,0.9382826120957084,0.8312142894381569,0.8285000324249268,0.5697500038146973,0.7568888770209419,0.3929545500061729,0.02894118112676284,0,1,1,1,1,1,1,1,1,1,1,1,0.5371666685740153,0.5155714205333165,0.9163030248699766,0.9382826120957084,0.8312142894381569,0.8285000324249268,0.5697500038146973,0.7568888770209419,0.3929545500061729,0.02894118112676284,0,1,1,1,1,0.9999999999999999,0.9999999999999998,0.9999999999999999,1,1,0.9999999999999999,1,2019-05-26,2019-06-10,2019-06-17,2019-07-20,2019-08-12,2019-09-02,2019-09-03,2019-09-13,2019-09-22,2019-10-14,2019-10-31,2019-06-09,2019-06-16,2019-07-19,2019-08-11,2019-09-01,2019-09-02,2019-09-12,2019-09-21,2019-10-13,2019-10-30,2019-11-14,146,161,168,201,224,245,246,256,265,287,304,15,7,33,23,21,1,10,9,22,17,15,160,167,200,223,244,245,255,264,286,303,318
17,17,woodstock_ont,43.14542,-80.78348,1.5,2019-06-12,8,2019,mid1,719.46706671621655,11,2019-05-29,2019-06-12,123,2019-10-13,2019-10-30,2019-11-13,Harvested at Maturity.,3.418666660785675,1.298333282272021,3.807812485843897,1.026818180626089,3.9100000262260437,3.25,3.866000121831894,1.3244444529215496,3.0761904546192715,3.783529407837812,5.0920000076293945,3.418666660785675,1.298333282272021,3.807812485843897,1.026818180626089,3.9100000262260437,3.25,3.866000121831894,1.3244444529215496,3.0761904546192715,3.783529407837812,5.0920000076293945,21.430107434590656,18.49243752161662,20.70337077975273,20.428696025501598,16.366711926460265,9.086359024047852,16.207565116882325,14.763442940182156,11.299589429582868,8.959038972854614,5.313668155670166,21.91266657511393,20.983333269755047,27.657187283039093,26.68227265097878,24.948500061035155,19.040000915527344,22.40699996948242,22.965555402967667,20.382380939665296,13.764117577496696,4.992666622002919,15.93166659673055,16.30416663487752,21.539999932050705,20.46272726492448,19.412000024318694,15.610000610351564,16.347500014305115,17.0583332379659,14.764999957311721,8.285588211872998,1.6133333003148436,9.950666618347167,11.625,15.422812581062317,14.243181878870184,13.875499987602234,12.18000030517578,10.288000059127809,11.151111072964138,9.147618974958148,2.8070588462493,-1.766000021373232,6.190466868702769,6.309904462302724,8.726577872117188,9.475060888556163,9.428620801788568,5.6100006103515625,7.791007890182733,7.9800154444045495,7.187800533125798,5.133014418216444,0.0072415375253558345,6.190466868702769,6.309904462302724,8.726577872117188,9.475060888556163,9.428620801788568,5.6100006103515625,7.791007890182733,7.9800154444045495,7.187800533125798,5.133014418216444,0.0072415375253558345,0,0,279.25049190775,487.7018314559855,676.2742474917568,681.8842481021084,759.7943270039357,831.6144660035766,982.5582771992182,1069.8195223088978,1069.8195223088978,0,0,0.9499218717217446,0.9489999987862326,0.8564500081539155,0.5610000610351563,0.6141000056266785,0.7058333237965903,0.46488094670431956,0.03335293811910293,0,1,1,1,1,1,1,1,1,1,1,1,0.5945333258310954,0.6304166634877524,0.9499218717217446,0.9489999987862326,0.8564500081539155,0.5610000610351563,0.6141000056266785,0.7058333237965903,0.46488094670431956,0.03335293811910293,0,1,1,1,0.9999999999999999,1,1,0.9999999999999999,1,0.9999999999999999,0.9999999999999999,1,2019-05-29,2019-06-13,2019-06-19,2019-07-21,2019-08-12,2019-09-01,2019-09-02,2019-09-12,2019-09-21,2019-10-12,2019-10-29,2019-06-12,2019-06-18,2019-07-20,2019-08-11,2019-08-31,2019-09-01,2019-09-11,2019-09-20,2019-10-11,2019-10-28,2019-11-12,149,164,170,202,224,244,245,255,264,285,302,15,6,32,22,20,1,10,9,21,17,15,163,169,201,223,243,244,254,263,284,301,316
18,18,sthyacinthe_que,45.5932,-72.9316,1.5,2019-06-01,14,2019,mid1,752.227141597205,11,2019-05-18,2019-06-01,137,2019-10-16,2019-11-02,2019-11-16,Harvested at Maturity.,2.6726666589577994,0.8842857224600655,2.9569230935512447,2.409090909090909,2.4585000216960906,3.3399999141693115,6.534545421600342,0.7254545580257069,2.6612500262757144,9.517058789730072,2.8033333659172057,2.6726666589577994,0.8842857224600655,2.9569230935512447,2.409090909090909,2.4585000216960906,3.3399999141693115,6.534545421600342,0.7254545580257069,2.6612500262757144,9.517058789730072,2.8033333659172057,20.981819597880044,23.157242093767437,20.687132590856308,19.90010356903076,16.495663690567017,10.472522735595703,13.517447384920988,15.140125708146527,10.32962824900945,6.9656431254218605,5.7518407821655275,18.689333343505858,20.488571303231375,26.443333161182892,28.07272720336914,25.02899980545044,24.6299991607666,20.96636356006969,20.69272734902122,17.34166673819224,13.47705877528471,3.0806666533152263,13.314666684468587,14.502142838069371,20.42256409693987,21.760681824250653,19.238749861717224,20.174999713897705,15.71454533663663,14.188636378808456,12.0029167085886,8.942647035507594,-0.8333333820104599,7.940000025431315,8.515714372907366,14.401795032696846,15.448636445132168,13.448499917984009,15.720000267028809,10.462727113203568,7.684545408595692,6.66416667898496,4.408235295730479,-4.747333417336146,3.8391864196042222,4.852604508382507,7.158137247269558,9.750076470520636,9.155164610241442,10.174999713897703,7.085857461807403,6.750174425924231,6.01817177804946,5.104488791606356,0,3.8391864196042222,4.852604508382507,7.158137247269558,9.750076470520636,9.155164610241442,10.174999713897703,7.085857461807403,6.750174425924231,6.01817177804946,5.104488791606356,0,0,0,279.1673526435128,493.6690349949668,676.7723271997958,686.9473269136935,764.8917589935747,839.1436776787413,983.5798003519284,1070.3561098092364,1070.3561098092364,0,0,0.9031666663976816,0.9458636392246593,0.8596999907493592,1,0.5714545336636631,0.4188636378808455,0.26639583508173625,0.07211764419780059,0,1,1,1,1,1,1,1,1,1,1,1,0.33493333498636885,0.4502142838069371,0.9031666663976816,0.9458636392246593,0.8596999907493592,1,0.5714545336636631,0.4188636378808455,0.26639583508173625,0.07211764419780059,0,1,1,1,1,0.9999999999999999,0.9999999999999998,1,0.9999999999999999,1,1,1,2019-05-18,2019-06-02,2019-06-09,2019-07-18,2019-08-09,2019-08-29,2019-08-30,2019-09-10,2019-09-21,2019-10-15,2019-11-01,2019-06-01,2019-06-08,2019-07-17,2019-08-08,2019-08-28,2019-08-29,2019-09-09,2019-09-20,2019-10-14,2019-10-31,2019-11-15,138,153,160,199,221,241,242,253,264,288,305,15,7,39,22,20,1,11,11,24,17,15,152,159,198,220,240,241,252,263,287,304,319
19,19,ames_ia,42.0215,-93.7745,1.5,2019-05-23,15,2019,mid1,831.1821698916237,11,2019-05-09,2019-05-23,105,2019-09-05,2019-09-13,2019-09-27,Harvested at Maturity.,9.572666708628336,8.09249997138977,3.841714290210179,6.981111142370436,1.1172222163942125,NA,1.6285714592252458,5.041666666666667,0.7319999972979228,8.316250026226044,4.5099998950958256,9.572666708628336,8.09249997138977,3.841714290210179,6.981111142370436,1.1172222163942125,NA,1.6285714592252458,5.041666666666667,0.7319999972979228,8.316250026226044,4.5099998950958256,17.16061102549235,19.661508560180664,20.5658481325422,19.668037096659344,20.425808747609455,NA,18.69613402230399,16.99087381362915,16.65458844502767,14.110239505767822,12.449980862935384,18.79733327229818,25.764999866485596,26.473142896379745,30.297222243414986,27.855000072055393,NA,28.54428563799177,26.519999504089355,25.074666595458986,26.297499895095825,26.499333318074545,12.993999989827474,19.338749885559082,20.630142906733923,24.668333344989353,21.996388991673786,NA,22.587857178279332,20.817499717076622,19.530000019073487,20.490625023841858,20.991333325703938,7.190666707356771,12.912499904632568,14.787142917088099,19.03944444656372,16.137777911292183,NA,16.631428718566895,15.114999930063883,13.985333442687988,14.68375015258789,15.483333333333333,4.077446321916779,9.338749885559082,7.971776913160038,11.326652399698169,10.799418026500417,NA,12.534882341047421,10.840803817192715,9.79612861693422,10.720439778490364,10.046544996108214,4.077446321916779,9.338749885559082,7.971776913160038,11.326652399698169,10.799418026500417,NA,12.534882341047421,10.840803817192715,9.79612861693422,10.720439778490364,10.046544996108214,0,0,279.0121919606013,482.8919351551683,677.281459632176,NA,765.0256360195079,830.0704589226642,977.0123881766776,1062.7759064046006,1062.7759064046006,0,0,0.896928574698312,1,0.9839999993642171,NA,1,0.9854999860127767,0.896133337020874,0.9303124964237213,0.06666666666666667,1,1,1,1,1,NA,1,1,1,1,1,0.32803333044052124,0.9338749885559083,0.896928574698312,1,0.9839999993642171,NA,1,0.9854999860127767,0.896133337020874,0.9303124964237213,0.8958000024159749,1,1,1,0.9999999999999999,0.9999999999999999,NA,1,0.9999999999999999,1,1,1,2019-05-09,2019-05-24,2019-05-28,2019-07-02,2019-07-20,NA,2019-08-07,2019-08-14,2019-08-20,2019-09-04,2019-09-12,2019-05-23,2019-05-27,2019-07-01,2019-07-19,2019-08-06,NA,2019-08-13,2019-08-19,2019-09-03,2019-09-11,2019-09-26,129,144,148,183,201,NA,219,226,232,247,255,15,4,35,18,18,0,7,6,15,8,15,143,147,182,200,218,NA,225,231,246,254,269
20,20,eastlansing_mi,42.6296,-84.4375,1.5,2019-05-29,16,2019,mid1,846.5635425791106,11,2019-05-15,2019-05-29,111,2019-09-17,2019-09-26,2019-10-10,Harvested at Maturity.,3.3859999656677244,7.0366664330164594,4.799714265550886,2.663499987125397,0.37352940615485697,1.600000023841858,1.3200000127156575,2.041249990463257,4.115000024437904,1.3588888910081651,5.193999906380972,3.3859999656677244,7.0366664330164594,4.799714265550886,2.663499987125397,0.37352940615485697,1.600000023841858,1.3200000127156575,2.041249990463257,4.115000024437904,1.3588888910081651,5.193999906380972,20.34337018330892,20.852556705474854,19.993202672685896,19.837656927108764,20.836899420794317,21.30967903137207,15.830461343129477,17.5160915851593,13.578290969133377,13.850198957655165,11.226975917816162,21.585999933878583,22.28666655222575,26.002856963021415,29.305999851226808,27.869999829460593,27.549999237060547,28.39833354949951,24.49375009536743,23.794999957084656,26.216666751437717,20.08933334350586,15.466333317756654,16.068333228429157,20.359571388789586,23.31674988269806,21.472058716942282,20.6899995803833,22.904166618982952,18.260000109672546,18.493437439203262,20.29777791765001,14.894666639963786,9.346666701634724,9.849999904632568,14.716285814557757,17.327499914169312,15.074117604423972,13.829999923706056,17.40999968846639,12.026250123977661,13.191874921321869,14.378889083862305,9.699999936421712,5.829788742447694,6.324620557439327,7.721573917830598,10.771877767716129,11.050891580364379,10.6899995803833,12.904166618982952,8.971137589751184,9.022975243254379,10.49028203622434,4.744694609401822,5.829788742447694,6.324620557439327,7.721573917830598,10.771877767716129,11.050891580364379,10.6899995803833,12.904166618982952,8.971137589751184,9.022975243254379,10.49028203622434,4.744694609401822,0,0,270.25508712407094,485.6926424783935,673.5577993445879,684.2477989249712,761.6727986388689,833.4418993568784,977.8095032489484,1072.2220415749673,1072.2220415749673,0,0,0.8713285650525775,0.9854499983787537,0.98408823854783,1,0.9964166720708212,0.8085625052452088,0.7932187497615815,0.9397777769300673,0.056599998474121095,1,1,1,1,1,1,1,1,1,1,1,0.5500333293279013,0.6068333228429159,0.8713285650525775,0.9854499983787537,0.98408823854783,1,0.9964166720708212,0.8085625052452088,0.7932187497615815,0.9397777769300673,0.4772999986012777,1,1,1,1,1,1,1,0.9999999999999999,1,1,1,2019-05-15,2019-05-30,2019-06-05,2019-07-10,2019-07-30,2019-08-16,2019-08-17,2019-08-23,2019-08-31,2019-09-16,2019-09-25,2019-05-29,2019-06-04,2019-07-09,2019-07-29,2019-08-15,2019-08-16,2019-08-22,2019-08-30,2019-09-15,2019-09-24,2019-10-09,135,150,156,191,211,228,229,235,243,259,268,15,6,35,20,17,1,6,8,16,9,15,149,155,190,210,227,228,234,242,258,267,282
21,21,woodstock_ont,43.14542,-80.78348,1.5,2019-06-14,8,2019,mid1,746.0255691549387,11,2019-05-31,2019-06-14,122,2019-10-14,2019-11-01,2019-11-15,Harvested at Maturity.,3.6359999815622968,1.3699999749660492,3.8254838566626272,1.026818180626089,3.878571453548613,0,4.0870001256465915,1.0788888931274414,3.0761904546192715,4.986666692627801,3.451333304246267,3.6359999815622968,1.3699999749660492,3.8254838566626272,1.026818180626089,3.878571453548613,0,4.0870001256465915,1.0788888931274414,3.0761904546192715,4.986666692627801,3.451333304246267,21.527679379781087,18.67399616241455,20.736789734132827,20.428696025501598,16.02002845491682,16.673511505126953,15.261593008041382,15.786753124660915,10.950836181640625,8.640007469389174,5.465368382136027,22.13999989827474,22.39800033569336,27.698709426387662,26.68227265097878,24.66714295886812,23.690000534057617,21.907999992370605,24.066666497124565,19.602380888802664,13.647777716318766,3.198666654030482,16.014666589101154,17.37400016784668,21.612419266854562,20.46272726492448,19.230952433177404,18.460000038146973,16.083500027656555,17.630555470784504,14.156904697418213,8.243611087401709,-0.1486666932081183,9.889333279927571,12.35,15.526129107321463,14.243181878870184,13.794761907486688,13.229999542236328,10.259000062942505,11.194444444444445,8.71142850603376,2.8394444584846497,-3.4960000404467184,6.2757619920434555,7.374000167846679,8.790931851434841,9.475060888556163,9.2467817450534735,8.460000038146973,7.552443679254651,8.511845777529478,6.896339901025239,5.128929296996983,0.0072415375253558345,6.2757619920434555,7.374000167846679,8.790931851434841,9.475060888556163,9.2467817450534735,8.460000038146973,7.552443679254651,8.511845777529478,6.896339901025239,5.128929296996983,0.0072415375253558345,0,0,272.5188873944801,480.9702269427156,675.1526435888385,683.6126436269855,759.137080419532,835.7436924172972,980.5668303388272,1072.887557684773,1072.887557684773,0,0,0.9505806399929908,0.9489999987862326,0.8423809630530221,0.8460000038146973,0.5877000069618226,0.752277766333686,0.41726189908527195,0.0314999971124861,0,1,1,1,1,1,1,1,1,1,1,1,0.602833325068156,0.737400016784668,0.9505806399929908,0.9489999987862326,0.8423809630530221,0.8460000038146973,0.5877000069618226,0.752277766333686,0.41726189908527195,0.0314999971124861,0,1,1,1,1,0.9999999999999999,1,1,1,0.9999999999999999,0.9999999999999999,1,2019-05-31,2019-06-15,2019-06-20,2019-07-21,2019-08-12,2019-09-02,2019-09-03,2019-09-13,2019-09-22,2019-10-13,2019-10-31,2019-06-14,2019-06-19,2019-07-20,2019-08-11,2019-09-01,2019-09-02,2019-09-12,2019-09-21,2019-10-12,2019-10-30,2019-11-14,151,166,171,202,224,245,246,256,265,286,304,15,5,31,22,21,1,10,9,21,18,15,165,170,201,223,244,245,255,264,285,303,318
22,22,ames_ia,42.0215,-93.7745,2.5,2019-05-23,15,2019,mid2,1004.555125308196,11,2019-05-09,2019-05-23,117,2019-09-17,2019-09-22,2019-10-06,Harvested at Maturity.,9.572666708628336,8.09249997138977,3.9547058869810665,5.409600019454956,1.0164705935646505,NA,4.362500011920929,0.6388889087571038,5.04166665342119,4.1499998569488525,7.5606668074925745,9.572666708628336,8.09249997138977,3.9547058869810665,5.409600019454956,1.0164705935646505,NA,4.362500011920929,0.6388889087571038,5.04166665342119,4.1499998569488525,7.5606668074925745,17.16061102549235,19.661508560180664,20.60445485395544,19.500109939575196,20.93900972254136,NA,16.2868390083313,16.450138727823894,14.971246083577475,12.491063785552978,10.559023412068685,18.79733327229818,25.764999866485596,26.30088233947754,29.542000198364256,28.477646883796243,NA,26.916249752044678,24.774444368150498,25.958888795640732,29.857999801635742,21.86200008392334,12.993999989827474,19.338749885559082,20.43367648124695,24.008000125885008,22.224411740022546,NA,21.534999907016754,19.55111116833157,20.109999974568684,24.492000007629397,16.54533338546753,7.190666707356771,12.912499904632568,14.566470623016357,18.474000053405764,15.971176596248851,NA,16.15375006198883,14.327777968512642,14.261111153496635,19.126000213623048,11.228666687011719,4.077446321916779,9.338749885559082,6.837448619275178,9.76653945514915,10.682215560551137,NA,11.408928758238648,9.764765696058008,10.38139611875448,14.347939689304829,5.990489803348184,4.077446321916779,9.338749885559082,6.837448619275178,9.76653945514915,10.682215560551137,NA,11.408928758238648,9.764765696058008,10.38139611875448,14.347939689304829,5.990489803348184,0,0,232.47325305535605,476.63673943408486,658.2344039634542,NA,749.5058340293633,837.3887252938855,1024.2538554314665,1095.9935538779905,1095.9935538779905,0,0,0.8938970621894388,0.9983400020599366,0.9854999962974997,NA,0.9891249895095825,0.9066666762034099,0.9035277764002483,1,0.06666666666666667,1,1,1,1,1,NA,1,1,1,1,1,0.32803333044052124,0.9338749885559083,0.8938970621894388,0.9983400020599366,0.9854999962974997,NA,0.9891249895095825,0.9066666762034099,0.9035277764002483,1,0.6181000026067098,1,1,1,1,1,NA,0.9999999999999999,1,0.9999999999999999,1,1,2019-05-09,2019-05-24,2019-05-28,2019-07-01,2019-07-26,NA,2019-08-12,2019-08-20,2019-08-29,2019-09-16,2019-09-21,2019-05-23,2019-05-27,2019-06-30,2019-07-25,2019-08-11,NA,2019-08-19,2019-08-28,2019-09-15,2019-09-20,2019-10-05,129,144,148,182,207,NA,224,232,241,259,264,15,4,34,25,17,0,8,9,18,5,15,143,147,181,206,223,NA,231,240,258,263,278
23,23,urbana_il,40.05325,-88.23485,2.5,2019-06-05,17,2019,mid2,856.8940072704081,11,2019-05-22,2019-06-05,101,2019-09-14,2019-09-20,2019-10-04,Harvested at Maturity.,2.882666622598966,0,4.6960714267832895,1.597727277062156,1.0833333293596903,4.579999923706055,3.081666628519694,2.9099999591708183,1.2805882552090813,0.5833333333333334,3.3133333484331766,2.882666622598966,0,4.6960714267832895,1.597727277062156,1.0833333293596903,4.579999923706055,3.081666628519694,2.9099999591708183,1.2805882552090813,0.5833333333333334,3.3133333484331766,21.496617444356282,22.63340950012207,19.683685745511735,20.58989004655318,20.669364229838052,11.370476722717283,15.836286067962646,16.50541377067566,16.75215384539436,16.589887142181396,13.065637715657552,27.522000122070313,30.059999465942383,27.878214291163854,30.350908973000266,29.059999847412108,28.229999542236328,28.366666793823242,27.263750314712524,26.942352968103744,28.990000406901043,28.23066635131836,21.648000113169353,24.227499961853027,22.472321442195348,24.55386356873946,22.698999945322672,24.039999961853027,23.40000009536743,22.035000205039978,21.270294133354636,22.173333485921226,22.085999806722004,15.774000104268392,18.395000457763672,17.066428593226842,18.75681816447865,16.338000043233237,19.850000381469727,18.43333339691162,16.80625009536743,15.598235298605527,15.356666564941406,15.941333262125651,11.618555978256861,14.16286386499405,8.597990096342047,10.943984830603075,11.620625542111586,13.905636790868211,13.399509185847066,12.090549783858657,11.262034423795518,12.263121055650712,11.100144981443089,11.618555978256861,14.16286386499405,8.597990096342047,10.943984830603075,11.620625542111586,13.905636790868211,13.399509185847066,12.090549783858657,11.262034423795518,12.263121055650712,11.100144981443089,0,0,240.74372269757728,481.51138897084496,655.820772102519,669.7264088933872,750.1234640084696,846.8478622793388,1038.3024474838626,1111.881173817767,1111.881173817767,0,0,0.9554464272090367,1,1,1,1,0.9806875109672546,0.9667647025164436,1,0.06666666666666667,1,1,1,1,1,1,1,1,1,1,1,0.9745333290100098,1,0.9554464272090367,1,1,1,1,0.9806875109672546,0.9667647025164436,1,0.9619666576385498,1,1,1,1,0.9999999999999999,1,0.9999999999999999,1,0.9999999999999999,1,1,2019-05-22,2019-06-06,2019-06-08,2019-07-06,2019-07-28,2019-08-12,2019-08-13,2019-08-19,2019-08-27,2019-09-13,2019-09-19,2019-06-05,2019-06-07,2019-07-05,2019-07-27,2019-08-11,2019-08-12,2019-08-18,2019-08-26,2019-09-12,2019-09-18,2019-10-03,142,157,159,187,209,224,225,231,239,256,262,15,2,28,22,15,1,6,8,17,6,15,156,158,186,208,223,224,230,238,255,261,276
24,24,eastlansing_mi,42.6296,-84.4375,2.5,2019-05-29,16,2019,mid2,967.5953036798126,11,2019-05-15,2019-05-29,124,2019-09-30,2019-10-10,2019-10-24,Harvested at Maturity.,3.3859999656677244,7.0366664330164594,4.799714265550886,2.048846143942613,0.8826666593551635,2.630000114440918,1.8144444359673395,1.715454556725242,4.349473664635106,5.4469999253749855,2.346000023682912,3.3859999656677244,7.0366664330164594,4.799714265550886,2.048846143942613,0.8826666593551635,2.630000114440918,1.8144444359673395,1.715454556725242,4.349473664635106,5.4469999253749855,2.346000023682912,20.34337018330892,20.852556705474854,19.993202672685896,20.47749845798199,19.21260013580322,12.969687461853027,17.486849466959637,14.891659129749645,12.73733021083631,10.649099493026734,10.057606347401936,21.585999933878583,22.28666655222575,26.002856963021415,28.974230619577263,28.061333211263022,29.739999771118164,25.14666684468587,22.523636211048473,25.158947492900648,19.542000007629394,15.342000007629395,15.466333317756654,16.068333228429157,20.359571388789586,22.771922936806313,21.987333265940347,24.199999809265137,19.037222332424587,17.24727266485041,19.600000055212725,14.553499984741212,9.852333319435516,9.346666701634724,9.849999904632568,14.716285814557757,16.569615254035362,15.913333320617676,18.65999984741211,12.927777820163303,11.970909118652344,14.0410526175248,9.564999961853028,4.362666631241639,5.829788742447694,6.324620557439327,6.686602528518933,9.576269874369872,11.396175980488941,14.199999809265138,9.628716618842548,8.029379353547638,9.913684737409103,6.922716207076907,1.5737903722891118,5.829788742447694,6.324620557439327,6.686602528518933,9.576269874369872,11.396175980488941,14.199999809265138,9.628716618842548,8.029379353547638,9.913684737409103,6.922716207076907,1.5737903722891118,0,0,234.03108849816263,483.0141052317794,653.9567449391135,668.1567447483786,754.8151943179615,843.1383672069854,1031.4983772177584,1100.7255392885277,1100.7255392885277,0,0,0.8713285650525775,0.9827884600712703,0.9924000040690104,1,0.8481111208597819,0.7159999977458608,0.8751578958410966,0.43710000038146973,0.016533330281575522,1,1,1,1,1,1,1,1,1,1,1,0.5500333293279013,0.6068333228429159,0.8713285650525775,0.9827884600712703,0.9924000040690104,1,0.8481111208597819,0.7159999977458608,0.8751578958410966,0.43710000038146973,0.10616666316986084,1,1,1,0.9999999999999999,0.9999999999999999,1,1,1,1,0.9999999999999999,1,2019-05-15,2019-05-30,2019-06-05,2019-07-10,2019-08-05,2019-08-20,2019-08-21,2019-08-30,2019-09-10,2019-09-29,2019-10-09,2019-05-29,2019-06-04,2019-07-09,2019-08-04,2019-08-19,2019-08-20,2019-08-29,2019-09-09,2019-09-28,2019-10-08,2019-10-23,135,150,156,191,217,232,233,242,253,272,282,15,6,35,26,15,1,9,11,19,10,15,149,155,190,216,231,232,241,252,271,281,296
25,25,mead_ne,41.15785,-96.42075,2.5,2019-05-16,10,2019,mid2,971.1032920673453,11,2019-05-02,2019-05-16,111,2019-09-04,2019-09-11,2019-09-25,Harvested at Maturity.,3.309333403905233,8.071428724697657,5.992727265213475,1.0643478476482888,3.1962499544024467,0,0.5433333317438761,5.9328572409493585,2.237500049173832,2.4385714190346857,5.991333262125651,3.309333403905233,8.071428724697657,5.992727265213475,1.0643478476482888,3.1962499544024467,0,0.5433333317438761,5.9328572409493585,2.237500049173832,2.4385714190346857,5.991333262125651,19.720319493611655,14.991769245692662,20.47784695480809,20.47096683668054,18.64798206090927,21.00933074951172,19.055865446726482,17.459095409938268,16.63450175523758,16.3044399533953,13.952760887145995,20.458666547139487,18.801428658621653,26.48696974552039,32.24478240635084,28.540624976158142,30.84000015258789,30.644999821980793,28.01428576878139,26.785624980926514,27.574285779680526,29.759999974568686,13.88799991607666,14.502857208251953,20.627575744282115,26.430217286814816,23.486562371253967,24.98499965667725,25.080833117167156,23.05428573063442,21.59906244277954,21.718571526663645,23.630999946594237,7.317333285013834,10.204285757882253,14.768181743043842,20.61565216727879,18.432499766349792,19.1299991607666,19.516666412353516,18.094285692487443,16.41249990463257,15.862857273646764,17.50199991861979,4.619900275942484,5.065187503134778,7.36624877984507,10.534298675468703,10.634055094023502,13.321706749162573,13.871809986695228,12.861060152172843,11.464822315430268,11.640337431131092,12.222161802615325,4.619900275942484,5.065187503134778,7.36624877984507,10.534298675468703,10.634055094023502,13.321706749162573,13.871809986695228,12.861060152172843,11.464822315430268,11.640337431131092,12.222161802615325,0,0,243.08620973488735,485.3750792706676,655.5199607750435,668.8416675242061,752.0725274443776,842.0999485095874,1025.5371055564715,1107.0194675743894,1107.0194675743894,0,0,0.9243484829411363,0.9992391296055005,0.9929375052452087,1,1,0.9849999972752163,0.9851250022649765,0.9818571499415807,0.06666666666666667,1,1,1,1,1,1,1,1,1,1,1,0.3684999990463257,0.42000000476837157,0.9243484829411363,0.9992391296055005,0.9929375052452087,1,1,0.9849999972752163,0.9851250022649765,0.9818571499415807,0.9938333320617676,1,1,1,0.9999999999999999,1,1,0.9999999999999999,0.9999999999999999,0.9999999999999999,0.9999999999999999,1,2019-05-02,2019-05-17,2019-05-24,2019-06-26,2019-07-19,2019-08-04,2019-08-05,2019-08-11,2019-08-18,2019-09-03,2019-09-10,2019-05-16,2019-05-23,2019-06-25,2019-07-18,2019-08-03,2019-08-04,2019-08-10,2019-08-17,2019-09-02,2019-09-09,2019-09-24,122,137,144,177,200,216,217,223,230,246,253,15,7,33,23,16,1,6,7,16,7,15,136,143,176,199,215,216,222,229,245,252,267
26,26,phillips_ne,40.8473,-98.177,2.5,2019-05-18,11,2019,mid2,904.3619600060604,11,2019-05-04,2019-05-18,115,2019-09-10,2019-09-15,2019-09-29,Harvested at Maturity.,3.579333265622457,14.327500253915787,4.2561765067717605,5.884782646013343,4.782000160217285,7.579999923706055,9.012857164655413,10.520000049046107,6.079444560739729,3.005999946594238,0.984666649500529,3.579333265622457,14.327500253915787,4.2561765067717605,5.884782646013343,4.782000160217285,7.579999923706055,9.012857164655413,10.520000049046107,6.079444560739729,3.005999946594238,0.984666649500529,19.41968043645223,17.319653868675232,20.683713604422177,18.979138249936312,19.666130447387694,16.5998477935791,16.24385670253209,17.07816709790911,15.797440820270115,15.113643264770507,15.431582959493001,21.13133322397868,17.975000023841858,26.62529406828039,30.696086966473125,28.843333435058593,29.989999771118164,29.06142888750349,27.959999901907786,25.73166667090522,28.322000122070314,27.6853333791097,14.485333254933357,13.02624997496605,20.55367643692914,25.105217456817627,23.254666646321613,23.539999961853027,23.898571627480642,22.47571427481515,20.593055486679077,22.51900005340576,21.222666676839193,7.839333285888036,8.07749992609024,14.482058805577894,19.51434794716213,17.665999857584634,17.09000015258789,18.7357143674578,16.99142864772252,15.454444302452936,16.71599998474121,14.759999974568684,5.437710851317334,3.8920330662917344,7.139478831446316,10.464677635708954,11.429030989997193,12.622974872311474,13.401860232957679,12.303412807813713,10.566145031788283,12.602099853687285,10.223164354245663,5.437710851317334,3.8920330662917344,7.139478831446316,10.464677635708954,11.429030989997193,12.622974872311474,13.401860232957679,12.303412807813713,10.566145031788283,12.602099853687285,10.223164354245663,0,0,242.74228026917476,483.4298658904806,654.8653307404384,667.4883056127499,761.3013272434537,847.4252168981496,1037.615827470339,1100.6263267387756,1100.6263267387756,0,0,0.88741175847895,0.9997608682383662,0.994366668065389,1,0.9965000084468296,0.9890000002724784,0.9491388850741916,0.9743000030517578,0.06666666666666667,1,1,1,1,1,1,1,1,1,1,1,0.4413666645685832,0.35381249487400057,0.88741175847895,0.9997608682383662,0.994366668065389,1,0.9965000084468296,0.9890000002724784,0.9491388850741916,0.9743000030517578,0.8837666702270508,1,1,1,1,1,0.9999999999999998,1,0.9999999999999999,1,1,1,2019-05-04,2019-05-19,2019-05-27,2019-06-30,2019-07-23,2019-08-07,2019-08-08,2019-08-15,2019-08-22,2019-09-09,2019-09-14,2019-05-18,2019-05-26,2019-06-29,2019-07-22,2019-08-06,2019-08-07,2019-08-14,2019-08-21,2019-09-08,2019-09-13,2019-09-28,124,139,147,181,204,219,220,227,234,252,257,15,8,34,23,15,1,7,7,18,5,15,138,146,180,203,218,219,226,233,251,256,271
27,27,chatham_ont,42.38,-82.2524,2.5,2019-06-24,18,2019,mid2,766.9017215746733,11,2019-06-10,2019-06-24,110,2019-10-12,2019-10-26,2019-11-09,Harvested at Maturity.,3.102000045776367,0,2.5432000255584715,4.104782630567965,3.1226667165756226,0,1.0345454216003418,2.8962498754262924,2.0481818264180967,1.572857107434954,4.191333362460137,3.102000045776367,0,2.5432000255584715,4.104782630567965,3.1226667165756226,0,1.0345454216003418,2.8962498754262924,2.0481818264180967,1.572857107434954,4.191333362460137,19.140031178792317,22.602495193481445,20.333076629638672,18.785135517949644,15.764401499430338,18.014816284179688,15.509834549643777,12.607593059539795,12.105087627064098,9.887072222573417,7.475493144989014,21.911999893188476,28.1233336130778,28.760800170898438,27.546086933301844,25.773333485921224,24.860000610351563,22.889090971513227,24.367500066757202,22.22909095070579,15.65785734994071,10.380666716893513,17.454999923706055,23.203333536783852,23.576400108337403,22.368260922639266,21.310333410898846,19.820000171661377,18.276818188753996,20.242500066757202,17.724772745912723,10.967142922537668,6.429666705926259,12.997999954223632,18.28333346048991,18.392000045776367,17.19043491197669,16.847333335876463,14.779999732971191,13.664545405994762,16.117500066757202,13.220454541119663,6.276428495134626,2.4786666949590046,7.454999923706055,13.203333536783854,9.363281093051448,10.783948670857548,11.299068158353785,9.820000171661375,8.606908420891653,10.242500066757202,8.58973869954212,5.395640290418586,0.559357183503906,7.454999923706055,13.203333536783854,9.363281093051448,10.783948670857548,11.299068158353785,9.820000171661375,8.606908420891653,10.242500066757202,8.58973869954212,5.395640290418586,0.559357183503906,0,0,234.0820273262862,482.1128467560098,651.5988691313165,661.4188693029779,756.0948619327861,838.0348624668437,1027.0091138567705,1102.548077922631,1102.548077922631,0,0,1,0.9966739115507707,0.9557000001271566,0.9820000171661376,0.8052272709933195,0.9403125047683716,0.7029318235137246,0.15867857847894942,0,1,1,1,1,1,1,1,1,1,1,1,0.7335666592915854,1,1,0.9966739115507707,0.9557000001271566,0.9820000171661376,0.8052272709933195,0.9403125047683716,0.7029318235137246,0.15867857847894942,0.02546666940053304,1,1,1,1,1,1,0.9999999999999999,1,1,0.9999999999999999,1,2019-06-10,2019-06-25,2019-06-28,2019-07-23,2019-08-15,2019-08-30,2019-08-31,2019-09-11,2019-09-19,2019-10-11,2019-10-25,2019-06-24,2019-06-27,2019-07-22,2019-08-14,2019-08-29,2019-08-30,2019-09-10,2019-09-18,2019-10-10,2019-10-24,2019-11-08,161,176,179,204,227,242,243,254,262,284,298,15,3,25,23,15,1,11,8,22,14,15,175,178,203,226,241,242,253,261,283,297,312
28,28,ames_ia,42.0215,-93.7745,3.5,2019-05-23,15,2019,mid3,1271.5067735757282,11,2019-05-09,2019-05-23,137,2019-10-07,2019-10-17,2019-10-31,Harvested at Maturity.,9.572666708628336,8.09249997138977,5.491951247540916,2.0865217188130254,2.4360000073909758,0,0.87083333233992255,6.999999978325584,6.226521808168163,4.177000045776367,3.9413333733876543,9.572666708628336,8.09249997138977,5.491951247540916,2.0865217188130254,2.4360000073909758,0,0.87083333233992255,6.999999978325584,6.226521808168163,4.177000045776367,3.9413333733876543,17.16061102549235,19.661508560180664,20.290973198123094,19.876229161801547,19.26144595146179,20.081192016601563,16.273488521575928,14.333993564952504,11.53640715972237,12.227098226547241,8.508537260691325,18.79733327229818,25.764999866485596,27.000000093041397,29.11304349484651,27.781499767303465,29.65999984741211,24.265833218892414,26.745454441417348,24.017391329226285,15.549000072479249,11.630666494369507,12.993999989827474,19.338749885559082,21.21963420728358,23.50021743774414,21.726499938964846,23.05500030517578,18.863333304723103,21.019999980926514,18.606304396753725,9.078500056266785,5.976666570206484,7.190666707356771,12.912499904632568,15.43926832152576,17.88739138064177,15.671500110626221,16.450000762939453,13.460833390553793,15.29454552043568,13.195217464281164,2.6080000400543213,0.32266664604345957,4.077446321916779,9.338749885559082,6.080874130287557,8.58344987409369,10.098670708626443,12.834043153424869,9.190195997590811,11.188631097448415,9.63707825534616,5.573365152344108,0.8838148542215862,4.077446321916779,9.338749885559082,6.080874130287557,8.58344987409369,10.098670708626443,12.834043153424869,9.190195997590811,11.188631097448415,9.63707825534616,5.573365152344108,0.8838148542215862,0,0,249.31583934178985,446.7351864459447,648.7086006184736,661.5426437718985,771.8249957429883,894.8999378149209,1116.5527376878824,1172.2863892113237,1172.2863892113237,0,0,0.9120121979131931,0.9942173916360606,0.9878999948501587,1,0.8701666712760926,0.9493181792172519,0.7308913075405619,0.14065000057220461,0,1,1,1,1,1,1,1,1,1,1,1,0.32803333044052124,0.9338749885559083,0.9120121979131931,0.9942173916360606,0.9878999948501587,1,0.8701666712760926,0.9493181792172519,0.7308913075405619,0.14065000057220461,0.029833327134450277,1,1,1,0.9999999999999999,0.9999999999999999,1,1,1,1,0.9999999999999999,1,2019-05-09,2019-05-24,2019-05-28,2019-07-08,2019-07-31,2019-08-20,2019-08-21,2019-09-02,2019-09-13,2019-10-06,2019-10-16,2019-05-23,2019-05-27,2019-07-07,2019-07-30,2019-08-19,2019-08-20,2019-09-01,2019-09-12,2019-10-05,2019-10-15,2019-10-30,129,144,148,189,212,232,233,245,256,279,289,15,4,41,23,20,1,12,11,23,10,15,143,147,188,211,231,232,244,255,278,288,303
29,29,arthur_il,39.70646667,-88.47023333,3.5,2019-06-04,19,2019,mid3,1102.3313937415996,11,2019-05-21,2019-06-04,111,2019-09-23,2019-09-28,2019-10-12,Harvested at Maturity.,6.216666793823242,0,6.541562438011169,0.4499999940395355,3.111764767590691,0,5.616666661368477,3.8945453817194156,0.20176470279693604,2.4379999160766603,3.027333386739095,6.216666793823242,0,6.541562438011169,0.4499999940395355,3.111764767590691,0,5.616666661368477,3.8945453817194156,0.20176470279693604,2.4379999160766603,3.027333386739095,20.266973114013673,23.52549171447754,19.36368241906166,21.371324348449708,19.811897109536563,19.185510635375977,15.627144177754719,15.831752256913619,17.15569092245663,13.488740539550781,12.394146347045899,27.23400001525879,31.300000190734863,28.431250274181366,30.75999984741211,29.40176492578843,27.649999618530273,28.15777799818251,26.756363955411043,29.098823210772345,25.965999603271484,25.86200014750163,21.41566670735677,24.960000038146973,23.190781459212303,25.054250025749205,23.44882359224207,22.13000011444092,23.20833338631524,21.483636465939608,22.752941019394818,20.41399974822998,19.25166680018107,15.597333399454753,18.619999885559082,17.95031264424324,19.348500204086303,17.495882258695715,16.610000610351563,18.25888877444797,16.210908976468172,16.40705882801729,14.861999893188477,12.641333452860515,11.435820533212821,14.489062264430526,7.837792606798599,10.038178549750317,11.615370535036995,11.62661810497897,13.051852842622665,11.497783393392238,12.56872639993359,10.622079682780505,8.44316859191656,11.435820533212821,14.489062264430526,7.837792606798599,10.038178549750317,11.615370535036995,11.62661810497897,13.051852842622665,11.497783393392238,12.56872639993359,10.622079682780505,8.44316859191656,0,0,250.80936341755523,451.57293441256144,649.0342335081903,660.6608516131693,778.1275271967734,904.603144524088,1118.2714933229588,1171.3818917368617,1171.3818917368617,0,0,0.9709843799471856,1,1,1,0.9908888922797309,0.9980000062422318,0.9757941189934226,0.9383999824523926,0.06666666666666667,1,1,1,1,1,1,1,1,1,1,1,0.9338666693369547,1,0.9709843799471856,1,1,1,0.9908888922797309,0.9980000062422318,0.9757941189934226,0.9383999824523926,0.7386333274841309,1,1,1,1,1,1,1,1,0.9999999999999999,0.9999999999999999,1,2019-05-21,2019-06-05,2019-06-07,2019-07-09,2019-07-29,2019-08-15,2019-08-16,2019-08-25,2019-09-05,2019-09-22,2019-09-27,2019-06-04,2019-06-06,2019-07-08,2019-07-28,2019-08-14,2019-08-15,2019-08-24,2019-09-04,2019-09-21,2019-09-26,2019-10-11,141,156,158,190,210,227,228,237,248,265,270,15,2,32,20,17,1,9,11,17,5,15,155,157,189,209,226,227,236,247,264,269,284
30,30,urbana_il,40.05325,-88.23485,3.5,2019-06-05,17,2019,mid3,1054.366744653243,11,2019-05-22,2019-06-05,115,2019-09-28,2019-10-02,2019-10-16,Harvested at Maturity.,2.882666622598966,0,4.466666674975193,1.257142838977632,1.1476470687810112,12.649999618530272,2.3279999673366545,1.8718182173642244,1.101666642559899,8.407500147819519,1.6633333166440327,2.882666622598966,0,4.466666674975193,1.257142838977632,1.1476470687810112,12.649999618530272,2.3279999673366545,1.8718182173642244,1.101666642559899,8.407500147819519,1.6633333166440327,21.496617444356282,22.63340950012207,19.736197847308535,20.371626354399183,19.356746729682474,12.386061668395996,16.852508544921875,16.402494083751332,15.703558921813965,11.401674509048462,13.011273447672526,27.522000122070313,30.059999465942383,28.310606060606062,29.89047604515439,28.858235190896426,30.100000381469727,27.10200023651123,25.60363630814986,28.732777807447647,29.589999675750732,21.926666514078775,21.648000113169353,24.227499961853027,22.86106063380386,24.17547607421875,22.768529415130615,25.170000076293945,21.80450019836426,20.059999986128375,22.386666589313084,22.862499833106995,14.994666584332784,15.774000104268392,18.395000457763672,17.411515207001656,18.46047610328311,16.678823639364804,20.239999771118164,16.507000160217284,14.516363664106889,16.04055537117852,16.134999990463257,8.062666654586792,11.618555978256861,14.16286386499405,7.564012885918042,9.789943669566059,11.351855594611736,14.96659831441675,11.867979282413405,10.206948062369499,12.378219170631303,12.94446560164839,4.914321709656915,11.618555978256861,14.16286386499405,7.564012885918042,9.789943669566059,11.351855594611736,14.96659831441675,11.867979282413405,10.206948062369499,12.378219170631303,12.94446560164839,4.914321709656915,0,0,249.61242523529535,455.2012422961826,648.1827874045822,663.1493857189989,781.8291785431329,894.1056072291974,1116.9135523005607,1168.6914147071543,1168.6914147071543,0,0,0.9621969685410009,1,1,1,0.977750005722046,0.9548181793906472,0.977055549621582,0.9979999899864197,0.06666666666666667,1,1,1,1,1,1,1,1,1,1,1,0.9745333290100098,1,0.9621969685410009,1,1,1,0.977750005722046,0.9548181793906472,0.977055549621582,0.9979999899864197,0.4514999914169312,1,1,1,1,1,1,1,1,0.9999999999999999,0.9999999999999999,1,2019-05-22,2019-06-06,2019-06-08,2019-07-11,2019-08-01,2019-08-18,2019-08-19,2019-08-29,2019-09-09,2019-09-27,2019-10-01,2019-06-05,2019-06-07,2019-07-10,2019-07-31,2019-08-17,2019-08-18,2019-08-28,2019-09-08,2019-09-26,2019-09-30,2019-10-15,142,157,159,192,213,230,231,241,252,270,274,15,2,33,21,17,1,10,11,18,4,15,156,158,191,212,229,230,240,251,269,273,288
31,31,wanatah_in,41.4444,-86.9437,3.5,2019-06-03,20,2019,mid3,1147.5217445418696,11,2019-05-20,2019-06-03,128,2019-10-09,2019-10-19,2019-11-02,Harvested at Maturity.,5.7186667144298555,1.940000057220459,2.9849999515633834,2.241904792331514,2.5044444799423218,0,1.806666652361552,2.6763636524027046,7.0622726191173895,2.2239999771118164,5.4859998742739355,5.7186667144298555,1.940000057220459,2.9849999515633834,2.241904792331514,2.5044444799423218,0,1.806666652361552,2.6763636524027046,7.0622726191173895,2.2239999771118164,5.4859998742739355,19.1100923538208,22.464080174763996,20.077710327349212,19.632175990513392,17.317743672264946,18.364063262939453,16.838913997014362,15.029783508994363,11.983620015057651,11.998963832855225,8.03762607574463,23.32133344014486,27.206666310628254,27.404473806682386,28.763809567406064,28.158333248562283,24.030000686645508,25.388333638509113,26.347272699529473,24.60454559326172,16.820000076293944,12.616000175476074,17.5896666208903,20.52499993642171,21.961842185572575,23.236666679382324,22.664166529973347,18.74500036239624,19.75041675567627,20.571363622492008,19.454772775823418,10.482000038027763,8.021666732802986,11.857999801635742,13.84333356221517,16.519210564462764,17.709523791358585,17.169999811384415,13.460000038146973,14.112499872843424,14.795454545454545,14.304999958385121,4.143999999761581,3.4273332901299,7.71563572853764,10.524999936421711,6.701456742227491,9.161249290091128,11.5744373234296,8.74500036239624,9.943407543867826,10.616947790446607,9.976531265239553,5.896048454430104,1.1000143286538124,7.71563572853764,10.524999936421711,6.701456742227491,9.161249290091128,11.5744373234296,8.74500036239624,9.943407543867826,10.616947790446607,9.976531265239553,5.896048454430104,1.1000143286538124,0,0,254.65535620464473,447.04159129655847,655.3814631182913,664.1264634806876,783.4473540071015,900.2337797020141,1119.7174675372844,1178.677952081585,1178.677952081585,0,0,0.922618421755339,0.9878095240820022,1,0.874500036239624,0.9242500106493632,0.8975454503839666,0.8214090910824863,0.18640000104904175,0,1,1,1,1,1,1,1,1,1,1,1,0.7304999923706055,0.9801666577657064,0.922618421755339,0.9878095240820022,1,0.874500036239624,0.9242500106493632,0.8975454503839666,0.8214090910824863,0.18640000104904175,0.04910000483194987,1,1,1,0.9999999999999999,0.9999999999999999,1,0.9994101389306584,0.939097879307543,0.9999999999999999,1,1,2019-05-20,2019-06-04,2019-06-07,2019-07-15,2019-08-05,2019-08-23,2019-08-24,2019-09-05,2019-09-16,2019-10-08,2019-10-18,2019-06-03,2019-06-06,2019-07-14,2019-08-04,2019-08-22,2019-08-23,2019-09-04,2019-09-15,2019-10-07,2019-10-17,2019-11-01,140,155,158,196,217,235,236,248,259,281,291,15,3,38,21,18,1,12,11,22,10,15,154,157,195,216,234,235,247,258,280,290,305
32,32,ottawa_ks,38.5404,-95.2477,3.5,2019-06-03,21,2019,mid3,966.9220392478146,11,2019-05-20,2019-06-03,104,2019-09-15,2019-09-19,2019-10-03,Harvested at Maturity.,15.816000477472942,8.055000305175781,7.8553333679835005,0.7157894937615644,13.53941176218145,0,12.608749985694885,6.138888888888889,5.429999977350235,0,9.80000017484029,15.816000477472942,8.055000305175781,7.8553333679835005,0.7157894937615644,13.53941176218145,0,12.608749985694885,6.138888888888889,5.429999977350235,0,9.80000017484029,19.0988561630249,20.264453887939453,19.455058828989664,20.696337499116595,18.9388991243699,16.26616668701172,17.779754400253296,13.341784636179607,16.203185975551605,17.901082515716553,12.21803986231486,25.38933340708415,30.885000228881836,28.8923334757487,31.34684181213379,30.05470590030446,30.1299991607666,31.15874981880188,27.538888931274414,29.52250051498413,32.360000133514404,28.640666580200197,19.83000005086263,24.96999979019165,23.36216672261556,25.943420886993408,24.543529398301068,25.829999923706055,25.410624742507935,23.533333354526096,24.00218775868416,25.270000100135803,23.459666633605956,14.270666694641113,19.054999351501465,17.83199996948242,20.539999961853027,19.03235289629768,21.530000686645508,19.66249966621399,19.52777777777778,18.481875002384186,18.180000066757202,18.278666687011718,9.84255379541119,14.599000571298598,8.353704015839753,10.430086155210986,12.07236645986402,14.795800181231012,14.1421556734851,13.192848266495599,13.627952267036587,14.067576088772713,12.1585446905152,9.84255379541119,14.599000571298598,8.353704015839753,10.430086155210986,12.07236645986402,14.795800181231012,14.1421556734851,13.192848266495599,13.627952267036587,14.067576088772713,12.1585446905152,0,0,250.6111204751926,448.78275742420146,654.0129872418897,668.8087874231207,781.9460328110016,900.681667209462,1118.7289034820471,1174.999207837138,1174.999207837138,0,0,0.9821333312988282,0.9970000016061883,1,1,1,1,1,1,0.06666666666666667,1,1,1,1,1,1,1,1,1,1,1,0.8711333338419597,1,0.9821333312988282,0.9970000016061883,1,1,1,1,1,1,0.9953999964396159,1,1,1,0.9999999999999999,1,1,0.9999999999999999,1,0.9999999999999999,0.9999999999999999,1,2019-05-20,2019-06-04,2019-06-06,2019-07-06,2019-07-25,2019-08-11,2019-08-12,2019-08-20,2019-08-29,2019-09-14,2019-09-18,2019-06-03,2019-06-05,2019-07-05,2019-07-24,2019-08-10,2019-08-11,2019-08-19,2019-08-28,2019-09-13,2019-09-17,2019-10-02,140,155,157,187,206,223,224,232,241,257,261,15,2,30,19,17,1,8,9,16,4,15,154,156,186,205,222,223,231,240,256,260,275
33,33,albany_mo,40.2384,-94.3433,3.5,2019-06-07,22,2019,mid3,1019.968171026531,11,2019-05-24,2019-06-07,111,2019-09-26,2019-10-01,2019-10-15,Harvested at Maturity.,11.787333377202351,0,4.972903193966035,3.8690475963410877,5.383750021457672,0,4.807999897003174,5.325999987125397,3.7211763718548942,26.719999694824217,2.946666685740153,11.787333377202351,0,4.972903193966035,3.8690475963410877,5.383750021457672,0,4.807999897003174,5.325999987125397,3.7211763718548942,26.719999694824217,2.946666685740153,20.696697425842284,22.812314987182617,19.74277663999988,20.216872215270996,17.962348759174347,19.945934295654297,14.63874979019165,17.787986850738527,13.776041549794813,11.806630706787109,11.614533869425456,26.9,26.833333333333332,29.216774171398534,30.669047673543293,29.480000138282776,30.270000457763672,26.567000007629396,27.739000129699708,29.194117377786075,24.50799980163574,19.80666666030884,21.004666646321613,20.885000069936115,23.75629026659073,24.850952398209344,24.137812584638596,24.40999984741211,22.104999828338624,21.505000019073485,23.71499978794771,18.663999938964842,13.820999991893768,15.10933329264323,14.9366668065389,18.295806361782937,19.032857122875395,18.795625030994415,18.549999237060547,17.64299964904785,15.270999908447266,18.235882198109348,12.820000076293946,7.835333323478698,10.888407894104322,10.885000069936117,7.954016021419726,9.76742747018538,12.449956533076605,14.180233441897562,11.937132064532742,11.364549022023082,13.2409954178172,9.036794845198392,4.101952194416821,10.888407894104322,10.885000069936117,7.954016021419726,9.76742747018538,12.449956533076605,14.180233441897562,11.937132064532742,11.364549022023082,13.2409954178172,9.036794845198392,4.101952194416821,0,0,246.57449666401152,451.6904735379045,650.8897780671301,665.0700115090277,784.4413321543551,898.086822374586,1123.1837444774785,1168.3677187034702,1168.3677187034702,0,0,0.9744838699217766,0.9910714331127348,0.9997500002384185,1,0.9792500019073487,0.9813499927520752,0.9936764717102051,0.8410999965667725,0.06666666666666667,1,1,1,1,1,1,1,1,1,1,1,0.942199993133545,0.9676666577657064,0.9744838699217766,0.9910714331127348,0.9997500002384185,1,0.9792500019073487,0.9813499927520752,0.9936764717102051,0.8410999965667725,0.36556666731834414,1,1,1,0.9999999999999999,0.9999999999999999,1,1,0.9999999999999999,0.9999999999999999,0.9999999999999999,1,2019-05-24,2019-06-08,2019-06-11,2019-07-12,2019-08-02,2019-08-18,2019-08-19,2019-08-29,2019-09-08,2019-09-25,2019-09-30,2019-06-07,2019-06-10,2019-07-11,2019-08-01,2019-08-17,2019-08-18,2019-08-28,2019-09-07,2019-09-24,2019-09-29,2019-10-14,144,159,162,193,214,230,231,241,251,268,273,15,3,31,21,16,1,10,10,17,5,15,158,161,192,213,229,230,240,250,267,272,287
34,34,columbia_mo,38.8894,-92.2081,3.5,2019-06-04,23,2019,mid3,987.6928229303138,11,2019-05-21,2019-06-04,105,2019-09-17,2019-09-21,2019-10-05,Harvested at Maturity.,2.6193333844343822,16.125,4.7820000092188515,1.3800000071525573,4.129375010728836,0,0.46000000834465027,9.3944442007276745,4.985294117647059,0,3.042666679620743,2.6193333844343822,16.125,4.7820000092188515,1.3800000071525573,4.129375010728836,0,0.46000000834465027,9.3944442007276745,4.985294117647059,0,3.042666679620743,20.010273106892903,19.85502052307129,19.570088322957357,20.790391588211058,19.810126900672913,20.049257278442383,18.08851957321167,13.72561412387424,15.928214493919821,16.447622299194336,12.141488059361775,27.26933339436849,30.619998931884766,28.40900001525879,30.950000190734862,30.36312484741211,34.77000045776367,30.738749980926514,27.49555566575792,28.60294106427361,33.44999980926514,27.453333536783855,21.62666670481364,24.609999656677246,23.40733329455058,25.60450005531311,24.604374885559082,28.53499984741211,25.515625,22.824444558885364,23.221764592563407,27.02749991416931,22.365666739145915,15.98400001525879,18.600000381469727,18.405666573842367,20.25899991989136,18.845624923706055,22.299999237060547,20.292500019073486,18.153333452012802,17.8405881208532,20.605000019073486,17.277999941507975,11.625674906561375,13.92049397431612,8.26244250651796,10.427838431635653,12.240585314100008,13.890540383007025,14.542655834834875,12.73188768643803,12.845940866237177,14.81409307025373,11.098894366607269,11.625674906561375,13.92049397431612,8.26244250651796,10.427838431635653,12.240585314100008,13.890540383007025,14.542655834834875,12.73188768643803,12.845940866237177,14.81409307025373,11.098894366607269,0,0,247.87327519553887,456.4300438282519,652.2794088538518,666.1699492368589,782.511195915538,897.0981850934803,1115.4791798195124,1174.7355521005272,1174.7355521005272,0,0,0.9756500005722046,1,1,1,1,1,0.9922352959127987,1,0.06666666666666667,1,1,1,1,1,1,1,1,1,1,1,0.9577000013987224,1,0.9756500005722046,1,1,1,1,1,0.9922352959127987,1,0.9313666661580404,1,1,1,1,1,1,1,0.9999999999999999,0.9999999999999999,0.9999999999999998,1,2019-05-21,2019-06-05,2019-06-07,2019-07-07,2019-07-27,2019-08-12,2019-08-13,2019-08-21,2019-08-30,2019-09-16,2019-09-20,2019-06-04,2019-06-06,2019-07-06,2019-07-26,2019-08-11,2019-08-12,2019-08-20,2019-08-29,2019-09-15,2019-09-19,2019-10-04,141,156,158,188,208,224,225,233,242,259,263,15,2,30,20,16,1,8,9,17,4,15,155,157,187,207,223,224,232,241,258,262,277
35,35,phillips_ne,40.8473,-98.177,3.5,2019-05-18,11,2019,mid3,1135.4662732090364,11,2019-05-04,2019-05-18,129,2019-09-24,2019-09-30,2019-10-14,Harvested at Maturity.,3.579333265622457,14.327500253915787,4.376666710926936,4.755217407060706,8.099411908318014,4.710000038146973,12.669000148773193,4.887272823940624,1.7461110750834148,0.16500000158945718,2.263333296775818,3.579333265622457,14.327500253915787,4.376666710926936,4.755217407060706,8.099411908318014,4.710000038146973,12.669000148773193,4.887272823940624,1.7461110750834148,0.16500000158945718,2.263333296775818,19.41968043645223,17.319653868675232,20.401183103903747,19.94854159977125,17.406973053427304,14.684103965759276,14.785085725784302,17.784228671680797,15.26335499021742,15.454217116038006,12.07460387547811,21.13133322397868,17.975000023841858,27.311794818975986,30.02521738798722,29.219411962172565,24.8700008392334,26.56200008392334,26.19545451077548,28.653888914320206,24.37333329518636,18.33199996948242,14.485333254933357,13.02624997496605,21.30525637895633,24.258913081625234,23.957647127263687,19.755000591278076,21.782500076293946,20.550908955660734,22.764722214804756,17.548333326975506,11.93766667842865,7.839333285888036,8.07749992609024,15.298717938936674,18.492608775263246,18.69588229235481,14.640000343322754,17.00300006866455,14.906363400545988,16.875555515289307,10.723333358764648,5.543333387374878,5.437710851317334,3.8920330662917344,6.37905346375421,8.983642026323734,11.65414134574182,9.07383389268062,11.456547751398658,10.638014381281355,12.58343017705712,8.648077949541808,3.118906058054467,5.437710851317334,3.8920330662917344,6.37905346375421,8.983642026323734,11.65414134574182,9.07383389268062,11.456547751398658,10.638014381281355,12.58343017705712,8.648077949541808,3.118906058054467,0,0,248.78308508641425,455.4068516918601,653.5272545694709,662.6010884621514,777.1665659761379,894.1847241702329,1120.686467357261,1172.5749350545125,1172.5749350545125,0,0,0.9018461484175462,0.9960869561070982,1,0.9755000591278076,0.9886500024795533,0.9330454479564321,0.9745000018013849,0.740750002861023,0.06666666666666667,1,1,1,1,1,1,1,1,1,1,1,0.4413666645685832,0.35381249487400057,0.9018461484175462,0.9960869561070982,1,0.9755000591278076,0.9886500024795533,0.9330454479564321,0.9745000018013849,0.740750002861023,0.2820666678746541,1,1,0.9999999999999999,1,1,1,1,1,1,0.9999999999999999,1,2019-05-04,2019-05-19,2019-05-27,2019-07-05,2019-07-28,2019-08-14,2019-08-15,2019-08-25,2019-09-05,2019-09-23,2019-09-29,2019-05-18,2019-05-26,2019-07-04,2019-07-27,2019-08-13,2019-08-14,2019-08-24,2019-09-04,2019-09-22,2019-09-28,2019-10-13,124,139,147,186,209,226,227,237,248,266,272,15,8,39,23,17,1,10,11,18,6,15,138,146,185,208,225,226,236,247,265,271,286
36,36,wymore_ne,40.1222,-96.6625,3.5,2019-06-05,24,2019,mid3,993.9733784624348,11,2019-05-22,2019-06-05,110,2019-09-23,2019-09-28,2019-10-12,Harvested at Maturity.,7.763333384195963,0,4.9639393922054404,1.4359999537467956,8.548823524923886,NA,6.014000129699707,1.4659999847412108,4.9849998280406,2.013999938964844,5.389333343505859,7.763333384195963,0,4.9639393922054404,1.4359999537467956,8.548823524923886,NA,6.014000129699707,1.4659999847412108,4.9849998280406,2.013999938964844,5.389333343505859,21.414645131429037,23.329633712768555,19.535109491059274,21.428947830200194,16.376184800091913,NA,14.953899002075197,18.714856815338134,14.7416090965271,15.210069465637208,11.653586133321127,25.90533358256022,30.895000457763672,29.423636291966293,31.498000049591063,29.521176618688248,NA,27.782999992370605,28.427999877929686,30.37374997138977,26.679999923706056,21.0646666208903,19.529000012079877,24.297500133514404,23.277878790190726,25.321750020980836,24.25852949479047,NA,23.1625,21.887999963760375,24.553124964237213,19.66899995803833,15.22566659251849,13.152666441599528,17.699999809265137,17.132121288415156,19.145499992370606,18.995882370892694,NA,18.542000007629394,15.348000049591064,18.732499957084656,12.657999992370605,9.386666564146678,9.509272937128346,14.110071312886477,7.6583004985644205,9.704289579505053,12.344693485668389,NA,12.700451297980791,11.601502786893844,14.019844307315722,10.158159392457009,5.3059306620937585,9.509272937128346,14.110071312886477,7.6583004985644205,9.704289579505053,12.344693485668389,NA,12.700451297980791,11.601502786893844,14.019844307315722,10.158159392457009,5.3059306620937585,0,0,252.7239164526259,446.8097080427268,656.6694972990894,NA,783.6740102788972,899.6890381478355,1124.0065470648872,1174.7973440271724,1174.7973440271724,0,0,0.9698636372884115,0.9847499895095825,0.9986470615162569,NA,1,0.9894500017166138,1,0.9272000026702881,0.05843333244323731,1,1,1,1,1,NA,1,1,1,1,1,0.8522666724522908,1,0.9698636372884115,0.9847499895095825,0.9986470615162569,NA,1,0.9894500017166138,1,0.9272000026702881,0.4818666664759318,1,1,1,1,0.9999999999999999,NA,1,1,0.9999999999999999,0.9999999999999999,1,2019-05-22,2019-06-06,2019-06-08,2019-07-11,2019-07-31,NA,2019-08-17,2019-08-27,2019-09-06,2019-09-22,2019-09-27,2019-06-05,2019-06-07,2019-07-10,2019-07-30,2019-08-16,NA,2019-08-26,2019-09-05,2019-09-21,2019-09-26,2019-10-11,142,157,159,192,212,NA,229,239,249,265,270,15,2,33,20,17,0,10,10,16,5,15,156,158,191,211,228,NA,238,248,264,269,284
37,37,flora_il,38.702763,-88.518259,4.5,2019-06-10,25,2019,mid4,1404.7626621566403,11,2019-05-27,2019-06-10,127,2019-10-15,2019-10-22,2019-11-05,Harvested at Maturity.,3.01933340827624,1.275000050663948,7.7788235924261455,0.2673913136772487,3.47949994802475,0,0.4610000133514404,0,4.6495651991471,0,7.55133318901062,3.01933340827624,1.275000050663948,7.7788235924261455,0.2673913136772487,3.47949994802475,0,0.4610000133514404,0,4.6495651991471,0,7.55133318901062,20.296154340108234,23.294201374053955,18.57173397961785,21.175349567247473,16.780211877822875,15.25945281982422,17.86226177215576,17.474472999572754,13.002905617589535,12.7527482850211,7.632443634668986,28.688666661580402,24.949999809265137,30.748529265908633,30.53782612344493,29.330000114440917,27.59000015258789,29.032999992370605,32.109000015258786,26.64391277147376,18.80428559439523,13.60066655476888,22.980333264668783,18.107499957084656,25.34073523914113,24.52413038585497,23.832500076293947,22.98499965667725,22.596499967575074,24.648000049591065,19.84043464712475,11.202142792088646,8.763999917109807,17.271999867757163,11.265000104904175,19.93294121237362,18.510434648265008,18.335000038146973,18.3799991607666,16.159999942779542,17.18700008392334,13.036956522775732,3.5999999897820607,3.9273332794507345,12.90224690889438,8.119108929760753,7.879598855372813,10.158628151546187,12.810468157123465,12.984999656677248,12.317592000960708,13.608199701499343,10.509916551507168,5.976508019249567,1.1150195913278313,12.90224690889438,8.119108929760753,7.879598855372813,10.158628151546187,12.810468157123465,12.984999656677248,12.317592000960708,13.608199701499343,10.509916551507168,5.976508019249567,1.1150195913278313,0,0,267.90636108267563,501.55480856823806,757.7641717107072,770.7491713673844,893.9250913769914,1030.007088391985,1271.7351690766498,1313.5707252113968,1313.5707252113968,0,0,1,1,1,1,0.9947500038146972,1,0.7819130389586739,0.14421427845954896,0.03076666831970215,1,1,1,1,1,1,1,1,1,1,1,0.9945000012715658,0.8107499957084656,1,1,1,1,0.9947500038146972,1,0.7819130389586739,0.14421427845954896,0.09156666199366252,1,1,1,1,1,0.9999999999999998,0.9999999999999999,0.9999999999999999,1,0.9999999999999999,1,2019-05-27,2019-06-11,2019-06-15,2019-07-19,2019-08-11,2019-08-31,2019-09-01,2019-09-11,2019-09-21,2019-10-14,2019-10-21,2019-06-10,2019-06-14,2019-07-18,2019-08-10,2019-08-30,2019-08-31,2019-09-10,2019-09-20,2019-10-13,2019-10-20,2019-11-04,147,162,166,200,223,243,244,254,264,287,294,15,4,34,23,20,1,10,10,23,7,15,161,165,199,222,242,243,253,263,286,293,308
38,38,ivesdale_il,39.9481,-88.44975,4.5,2019-06-01,26,2019,mid4,1522.4575120323311,11,2019-05-18,2019-06-01,148,2019-10-27,2019-11-04,2019-11-18,Harvested at Maturity.,5.887333313624064,0,4.440243851847765,1.584814813401964,4.769090869209983,0,0.7954545346173373,2.0100000381469725,2.5025806427001953,13.652499854564667,0.44866665204366046,5.887333313624064,0,4.440243851847765,1.584814813401964,4.769090869209983,0,0.7954545346173373,2.0100000381469725,2.5025806427001953,13.652499854564667,0.44866665204366046,18.68757553100586,24.659493764241535,20.164966071524272,20.41477217497649,15.248018438165838,19.401927947998047,16.72414510900324,14.380896472930909,11.839144306798135,6.779398202896118,9.417312749226888,26.209333419799805,26.466666539510094,28.893658475178043,29.626666952062536,27.259545499628242,29.209999084472656,27.66272700916637,28.71099987030029,21.379354938384026,9.82000008225441,5.945333305994669,20.808333349227905,20.015000025431316,23.391097464212557,23.64351869512487,22.255681796507403,22.664999961853027,21.726817998019133,22.504999923706055,14.991774233058095,5.771875023841858,0.23899997162322204,15.407333278656006,13.563333511352539,17.88853645324707,17.66037043818721,17.251818093386564,16.1200008392334,15.790908986871893,16.298999977111816,8.604193527732164,1.723749965429306,-5.467333362748225,10.844286263868213,10.015000025431316,6.483189975035836,9.079306702594106,11.506829852928648,12.664999961853027,11.661722621986,12.513675956561565,7.869808726009054,5.038822618447989,0.08207612771024773,10.844286263868213,10.015000025431316,6.483189975035836,9.079306702594106,11.506829852928648,12.664999961853027,11.661722621986,12.513675956561565,7.869808726009054,5.038822618447989,0.08207612771024773,0,0,265.81078897646927,510.9520699465101,764.1023267109404,776.7673266727934,905.0462755146394,1030.1830350802552,1274.147105586536,1314.4576865341198,1314.4576865341198,0,0,0.9725609732837212,1,0.9911818200891668,1,0.9609090891751376,0.9805499935150147,0.4471290311505718,0.014812502264976503,0,1,1,1,1,1,1,1,1,1,1,1,0.8948333374659221,0.9369999885559082,0.9725609732837212,1,0.9911818200891668,1,0.9609090891751376,0.9805499935150147,0.4471290311505718,0.014812502264976503,0,1,1,1,0.9999999999999999,1,0.9999999999999996,1,0.9999999999999999,1,1,1,2019-05-18,2019-06-02,2019-06-05,2019-07-16,2019-08-12,2019-09-03,2019-09-04,2019-09-15,2019-09-25,2019-10-26,2019-11-03,2019-06-01,2019-06-04,2019-07-15,2019-08-11,2019-09-02,2019-09-03,2019-09-14,2019-09-24,2019-10-25,2019-11-02,2019-11-17,138,153,156,197,224,246,247,258,268,299,307,15,3,41,27,22,1,11,10,31,8,15,152,155,196,223,245,246,257,267,298,306,321
39,39,urbana_il,40.05325,-88.23485,4.5,2019-06-05,17,2019,mid4,1513.265480484541,11,2019-05-22,2019-06-05,152,2019-11-04,2019-11-12,2019-11-26,Harvested at Maturity.,2.882666622598966,0,4.026341465915122,0.8611538387261904,2.499130422654359,2.440000057220459,0.46799999475479126,2.1229999542236326,4.65111110607783,0,1.5373333136240641,2.882666622598966,0,4.026341465915122,0.8611538387261904,2.499130422654359,2.440000057220459,0.46799999475479126,2.1229999542236326,4.65111110607783,0,1.5373333136240641,21.496617444356282,22.63340950012207,19.693487469742937,20.480154807750996,16.576400176338527,16.49770975112915,16.562201881408694,14.546921157836914,10.4884153008461,9.336562812328339,8.25310624440511,27.522000122070313,30.059999465942383,28.795121914002955,29.242692140432503,26.953043647434402,25.329999923706055,29.16100025177002,27.85399971008301,18.401388870345222,9.261249959468842,5.524666698773702,21.648000113169353,24.227499961853027,23.31524389546092,23.174230685600868,21.617391441179358,19.067500114440918,22.89350004196167,21.319499731063843,12.502777768505945,3.333124975208193,0.38600001856684685,15.774000104268392,18.395000457763672,17.835365876918885,17.10576923076923,16.281739234924316,12.805000305175781,16.62599983215332,14.784999752044678,6.604166666666667,-2.5950000090524554,-4.752666661640008,11.618555978256861,14.16286386499405,6.511730556742248,9.16292651007423,11.10542066970441,9.06750011444092,12.749352747540474,11.527285124922395,7.0186254623446205,5,0.09701154552763018,11.618555978256861,14.16286386499405,6.511730556742248,9.16292651007423,11.10542066970441,9.06750011444092,12.749352747540474,11.527285124922395,7.0186254623446205,5,0.09701154552763018,0,0,266.98095282643214,505.2170420883622,760.6417174915637,778.7767177204455,906.2702451958502,1021.543096445074,1274.2136130894808,1314.2136130894808,1314.2136130894808,0,0,0.9695731698012934,1,0.980086958926657,0.9067500114440918,0.9924999952316285,0.9578999853134156,0.30768055386013454,0,0,1,1,1,1,1,1,1,1,1,1,1,0.9745333290100098,1,0.9695731698012934,1,0.980086958926657,0.9067500114440918,0.9924999952316285,0.9578999853134156,0.30768055386013454,0,0,1,1,1,1,0.9999999999999999,0.9999999999999999,1,0.9999999999999999,1,0.9999999999999999,1,2019-05-22,2019-06-06,2019-06-08,2019-07-19,2019-08-14,2019-09-06,2019-09-08,2019-09-18,2019-09-28,2019-11-03,2019-11-11,2019-06-05,2019-06-07,2019-07-18,2019-08-13,2019-09-05,2019-09-07,2019-09-17,2019-09-27,2019-11-02,2019-11-10,2019-11-25,142,157,159,200,226,249,251,261,271,307,315,15,2,41,26,23,2,10,10,36,8,15,156,158,199,225,248,250,260,270,306,314,329
40,40,manhattan_ks,38.1326,-96.62,4.5,2019-06-05,27,2019,mid4,1353.62219349061,11,2019-05-22,2019-06-05,126,2019-10-09,2019-10-16,2019-10-30,Harvested at Maturity.,9.228000036875407,2.4066665967305503,5.40555563237932,5.352400054931641,4.353157865373712,0,2.2800000667572022,2.3544445037841797,4.2914286113920665,1.9428571973528181,0.4839999993642171,9.228000036875407,2.4066665967305503,5.40555563237932,5.352400054931641,4.353157865373712,0,2.2800000667572022,2.3544445037841797,4.2914286113920665,1.9428571973528181,0.4839999993642171,20.790289688110352,20.37527084350586,20.066054397159153,20.091984367370607,16.51056628478201,22.929790496826172,17.3668381690979,15.633519755469429,12.657014960334415,14.433734621320452,10.849364805221558,26.59733339945475,28.406666437784832,29.360833379957413,31.705600051879884,30.04842105664705,29.030000686645508,29.849999809265135,30.787778006659615,26.64238080524263,19.767142840794154,15.764666493733724,20.806333398818968,22.8116668065389,23.500138878822327,25.45760005950928,24.744473758496735,21.03000020980835,23.705999755859374,25.02777772479587,21.083333310626802,11.455000031739473,9.28533323208491,15.015333398183186,17.21666717529297,17.63944437768724,19.209600067138673,19.440526460346423,13.029999732971191,17.561999702453612,19.26777744293213,15.524285816010975,3.142857222684792,2.8059999704360963,10.759402241599163,12.8116668065389,7.209645545782819,9.921264397827622,12.97427453019971,11.030000209808351,13.150650072947741,14.261251613069904,11.439908247658186,6.442374245929366,2.1980046528199813,10.759402241599163,12.8116668065389,7.209645545782819,9.921264397827622,12.97427453019971,11.030000209808351,13.150650072947741,14.261251613069904,11.439908247658186,6.442374245929366,2.1980046528199813,0,0,259.5472396481815,507.57884959387206,754.0900656676665,765.1200658774749,896.6265666069523,1024.9778311245814,1265.2159043254037,1310.312524046909,1310.312524046909,0,0,0.9732361144489712,1,1,1,0.9992500019073487,1,0.8573333286103748,0.23671428939061506,0.014900000890096028,1,1,1,1,1,1,1,1,1,1,1,0.9210666735967,1,0.9732361144489712,1,1,1,0.9992500019073487,1,0.8573333286103748,0.23671428939061506,0.14093332290649416,1,1,1,0.9999999999999999,0.9999999999999999,1,1,1,0.9999999999999999,1,1,2019-05-22,2019-06-06,2019-06-09,2019-07-15,2019-08-09,2019-08-28,2019-08-29,2019-09-08,2019-09-17,2019-10-08,2019-10-15,2019-06-05,2019-06-08,2019-07-14,2019-08-08,2019-08-27,2019-08-28,2019-09-07,2019-09-16,2019-10-07,2019-10-14,2019-10-29,142,157,160,196,221,240,241,251,260,281,288,15,3,36,25,19,1,10,9,21,7,15,156,159,195,220,239,240,250,259,280,287,302
41,41,ottawa_ks,38.5404,-95.2477,4.5,2019-06-03,21,2019,mid4,1379.9963403438185,11,2019-05-20,2019-06-03,125,2019-10-06,2019-10-12,2019-10-26,Harvested at Maturity.,15.816000477472942,8.055000305175781,6.427837867994566,8.597599997520447,8.814210515273246,7.65500020980835,6.962222205268012,2.6911110877990723,7.350000131130218,4.536666651566823,0.8726666768391927,15.816000477472942,8.055000305175781,6.427837867994566,8.597599997520447,8.814210515273246,7.65500020980835,6.962222205268012,2.6911110877990723,7.350000131130218,4.536666651566823,0.8726666768391927,19.0988561630249,20.264453887939453,19.501313776583284,20.78282043457031,14.994582226401882,14.418515205383303,18.53117487165663,14.97013028462728,12.563912868499756,13.554361820220947,11.929128901163738,25.38933340708415,30.885000228881836,29.252432539656354,31.063199768066408,29.509999927721527,25.8100004196167,29.1755559709337,29.988889270358616,27.99650001525879,20.619999885559082,17.298666826883952,19.83000005086263,24.96999979019165,23.82216218999914,25.30579988479614,24.869473607916582,21.732500076293945,23.09833351771037,24.556111282772488,22.82275002002716,14.40083332856496,10.832000058144331,14.270666694641113,19.054999351501465,18.39189184034193,19.54840000152588,20.228947288111637,17.65499973297119,17.021111064487034,19.12333329518636,17.649000024795534,8.18166677157084,4.3653332894047105,9.84255379541119,14.599000571298598,7.227982499138678,9.726523398967172,12.936949955482937,11.732500076293947,12.703816320761044,14.271163252696065,12.597059682948887,6.680118799622357,2.6397404582766444,9.84255379541119,14.599000571298598,7.227982499138678,9.726523398967172,12.936949955482937,11.732500076293947,12.703816320761044,14.271163252696065,12.597059682948887,6.680118799622357,2.6397404582766444,0,0,267.43535246813104,510.5984374423104,756.4004865964863,779.8654867490742,894.1998336359236,1022.640302910188,1274.581496569166,1314.6622093669002,1314.6622093669002,0,0,0.9855135118639147,0.9977200012207031,1,1,1,1,0.9287499976158142,0.4400833328564962,0,1,1,1,1,1,1,1,1,1,1,1,0.8711333338419597,1,0.9855135118639147,0.9977200012207031,1,1,1,1,0.9287499976158142,0.4400833328564962,0.1500666689872742,1,1,1,1,0.9999999999999999,0.9999999999999998,1,0.9999999999999999,1,1,1,2019-05-20,2019-06-04,2019-06-06,2019-07-13,2019-08-07,2019-08-26,2019-08-28,2019-09-06,2019-09-15,2019-10-05,2019-10-11,2019-06-03,2019-06-05,2019-07-12,2019-08-06,2019-08-25,2019-08-27,2019-09-05,2019-09-14,2019-10-04,2019-10-10,2019-10-25,140,155,157,194,219,238,240,249,258,278,284,15,2,37,25,19,2,9,9,20,6,15,154,156,193,218,237,239,248,257,277,283,298
42,42,riley_ks,39.310966,-96.837075,4.5,2019-06-04,28,2019,mid4,1410.0990246633248,11,2019-05-21,2019-06-04,134,2019-10-16,2019-10-23,2019-11-06,Harvested at Maturity.,4.249999984105428,14.574999809265137,6.02649997882545,4.075833370288213,8.295999985933303,0.03999999910593033,1.705555597941081,0.2433333330684238,5.703846147427192,1.501428587096078,0.09333333174387613,4.249999984105428,14.574999809265137,6.02649997882545,4.075833370288213,8.295999985933303,0.03999999910593033,1.705555597941081,0.2433333330684238,5.703846147427192,1.501428587096078,0.09333333174387613,21.277655855814615,19.331567764282227,20.164364433288576,18.865074614683788,15.69771318435669,14.332193374633789,17.864287588331436,16.023852772182888,12.436273070482107,11.767443861280169,9.81589584350586,25.32466646830241,30.295000076293945,29.737500047683717,31.2137504418691,29.174499988555908,24.625,30.642222086588543,31.597777472601997,23.8242307809683,18.9857143674578,10.722666639089585,19.32066658337911,24.494999885559082,23.65624996423721,25.43375019232432,23.931749939918518,20.93499994277954,24.427777926127117,25.37277756796943,17.538461507656255,12.051428590502058,4.489999975760778,13.31666669845581,18.69499969482422,17.57499988079071,19.65374994277954,18.688999891281128,17.244999885559082,18.21333376566569,19.14777766333686,11.252692234344208,5.117142813546317,-1.7426666875680288,9.383594108466903,14.275515529537202,6.812047427698487,9.75329638790338,12.441953368437222,10.934999942779541,13.85470986568133,14.28872166568968,9.341221614296895,6.164450269230774,0.54525526885019,9.383594108466903,14.275515529537202,6.812047427698487,9.75329638790338,12.441953368437222,10.934999942779541,13.85470986568133,14.28872166568968,9.341221614296895,6.164450269230774,0.54525526885019,0,0,272.48189710793946,506.5610104176205,755.4000777863649,777.270077671924,901.962466463056,1030.5609614542632,1273.4327234259822,1316.5838753105977,1316.5838753105977,0,0,0.9756374979019165,0.9886458297570546,1,1,1,1,0.6354038527378669,0.2291428565979004,9.999974568684893e-4,1,1,1,1,1,1,1,1,1,1,1,0.8321666574478149,1,0.9756374979019165,0.9886458297570546,1,1,1,1,0.6354038527378669,0.2291428565979004,0.007899998029073079,1,1,1,1,0.9999999999999999,1,0.9999999999999999,0.9999999999999998,1,0.9999999999999998,1,2019-05-21,2019-06-05,2019-06-07,2019-07-17,2019-08-10,2019-08-30,2019-09-01,2019-09-10,2019-09-19,2019-10-15,2019-10-22,2019-06-04,2019-06-06,2019-07-16,2019-08-09,2019-08-29,2019-08-31,2019-09-09,2019-09-18,2019-10-14,2019-10-21,2019-11-05,141,156,158,198,222,242,244,253,262,288,295,15,2,40,24,20,2,9,9,26,7,15,155,157,197,221,241,243,252,261,287,294,309
43,43,albany_mo,40.2384,-94.3433,4.5,2019-06-07,22,2019,mid4,1405.492891421776,11,2019-05-24,2019-06-07,150,2019-11-04,2019-11-12,2019-11-26,Harvested at Maturity.,11.787333377202351,0,3.9528204875114636,4.976249992847443,5.468695583550827,0,2.7640000343322755,5.913999843597412,5.353684186935425,0.20999999344348907,0.5600000023841858,11.787333377202351,0,3.9528204875114636,4.976249992847443,5.468695583550827,0,2.7640000343322755,5.913999843597412,5.353684186935425,0.20999999344348907,0.5600000023841858,20.696697425842284,22.812314987182617,20.415637101882542,18.78425379594167,16.07262486996858,20.883453369140625,15.532274770736695,12.462454295158386,10.210097513700786,9.638965427875519,7.617392182350158,26.9,26.833333333333332,30.11974364060622,29.521666685740154,27.247391327567723,30.940000534057617,28.882999992370607,28.772999572753907,16.400526282034424,11.036249980330467,8.431999977429708,21.004666646321613,20.885000069936115,24.434230767763577,24.093749980131786,22.094565142755922,22.835000038146973,23.196000003814696,23.41049966812134,10.861315772819676,4.253750001895241,2.190333345035712,15.10933329264323,14.9366668065389,18.748717894920937,18.66583327452342,16.941738957944125,14.729999542236328,17.50900001525879,18.04799976348877,5.3221052636049295,-2.5287499765399843,-4.051333287358284,10.888407894104322,10.885000069936117,6.745638395011424,9.765480267804453,11.320318653366504,12.66455841151476,12.885813318237066,12.921888104438782,6.442435029616972,5.0441562338634585,0.5316864231022014,10.888407894104322,10.885000069936117,6.745638395011424,9.765480267804453,11.320318653366504,12.66455841151476,12.885813318237066,12.921888104438782,6.442435029616972,5.0441562338634585,0.5316864231022014,0,0,263.0798974054456,497.4514238327524,757.8187528601819,770.4833112716967,899.3414444540674,1028.560325498455,1273.3728566238997,1313.726106494807,1313.726106494807,0,0,0.9775897429539607,0.9956458369890849,0.9826956500177798,1,0.9995000028610229,0.9897499990463257,0.2555263147542351,0,0,1,1,1,1,1,1,1,1,1,1,1,0.942199993133545,0.9676666577657064,0.9775897429539607,0.9956458369890849,0.9826956500177798,1,0.9995000028610229,0.9897499990463257,0.2555263147542351,0,0.001966666380564372,1,1,1,0.9999999999999999,0.9999999999999999,1,0.9999999999999999,1,1,0.9999999999999999,1,2019-05-24,2019-06-08,2019-06-11,2019-07-20,2019-08-13,2019-09-05,2019-09-06,2019-09-16,2019-09-26,2019-11-03,2019-11-11,2019-06-07,2019-06-10,2019-07-19,2019-08-12,2019-09-04,2019-09-05,2019-09-15,2019-09-25,2019-11-02,2019-11-10,2019-11-25,144,159,162,201,225,248,249,259,269,307,315,15,3,39,24,23,1,10,10,38,8,15,158,161,200,224,247,248,258,268,306,314,329
44,44,columbia_mo,38.8894,-92.2081,4.5,2019-06-03,23,2019,mid4,1443.0005078711647,11,2019-05-20,2019-06-03,127,2019-10-08,2019-10-15,2019-10-29,Harvested at Maturity.,4.6466666758060455,18.16000008583069,3.775263165172778,1.896800012588501,6.42421041036907,0,7.622727307406339,1.4799999660915801,2.460000012814999,6.231428759438651,2.492666647831599,4.6466666758060455,18.16000008583069,3.775263165172778,1.896800012588501,6.42421041036907,0,7.622727307406339,1.4799999660915801,2.460000012814999,6.231428759438651,2.492666647831599,19.883367919921874,18.139328002929688,20.099904311330693,20.18582374572754,16.201415463497764,16.209152221679688,16.36090204932473,16.087081803215874,12.740575397014618,13.252935545785087,9.891898091634115,26.556000010172525,30.729999542236328,28.933684248673288,30.54240005493164,29.685789509823447,27.469999313354492,27.529999819668856,30.71666653951009,27.70900011062622,18.82285703931536,15.705999946594238,21.008666674296062,24.28749990463257,23.85986836333024,24.95240005493164,24.76605264764083,23.089999198913578,22.086818088184703,24.91722207599216,22.398000025749205,12.03714280469077,10.345333282152811,15.461333338419596,17.84500026702881,18.78605247798719,19.36240005493164,19.846315785458213,18.709999084472656,16.64363635670055,19.11777761247423,17.086999940872193,5.25142857006618,4.984666617711385,11.012674097263814,13.597994222271442,7.108729089914101,9.725885378338722,12.855943244753362,13.089999198913574,11.948180538916587,14.041739892323148,12.158812713007034,6.253494646123477,1.8267109746428332,11.012674097263814,13.597994222271442,7.108729089914101,9.725885378338722,12.855943244753362,13.089999198913574,11.948180538916587,14.041739892323148,12.158812713007034,6.253494646123477,1.8267109746428332,0,0,270.1317054167358,513.2788398752037,757.5417615255177,770.6317607244313,902.0617466525138,1028.4374056834222,1271.613659943563,1315.3881224664274,1315.3881224664274,0,0,0.9807763162412142,1,1,1,0.9880000027743253,1,0.9054249954223633,0.2710714272090367,0.015033334891001384,1,1,1,1,1,1,1,1,1,1,1,0.914900000890096,1,0.9807763162412142,1,1,1,0.9880000027743253,1,0.9054249954223633,0.2710714272090367,0.12933333158493043,1,1,1,1,0.9999999999999999,1,0.9999999999999999,0.9999999999999999,1,1,1,2019-05-20,2019-06-04,2019-06-06,2019-07-14,2019-08-08,2019-08-27,2019-08-28,2019-09-08,2019-09-17,2019-10-07,2019-10-14,2019-06-03,2019-06-05,2019-07-13,2019-08-07,2019-08-26,2019-08-27,2019-09-07,2019-09-16,2019-10-06,2019-10-13,2019-10-28,140,155,157,195,220,239,240,251,260,280,287,15,2,38,25,19,1,11,9,20,7,15,154,156,194,219,238,239,250,259,279,286,301
45,45,portagevilleclay_mo,36.3987,-88.6051,4.5,2019-05-16,29,2019,mid4,1446.6940313647883,11,2019-05-02,2019-05-16,122,2019-09-15,2019-09-18,2019-10-02,Harvested at Maturity.,4.1546666622161865,9.3149995803833,3.077187502756715,7.01269229558798,2.5834782227225923,0,0,7.210000064637926,0.15444444285498726,0,0.7273333231608073,4.1546666622161865,9.3149995803833,3.077187502756715,7.01269229558798,2.5834782227225923,0,0,7.210000064637926,0.15444444285498726,0,0.7273333231608073,16.017362340291342,19.950533866882324,19.4614444822073,18.073308908022366,19.844002060268235,18.524654388427734,20.204404407077366,14.832156075371635,18.6510435740153,17.99849510192871,14.592509015401204,22.956666819254558,30.84000015258789,29.1759375333786,31.510384486271786,30.525652512260105,29.700000762939453,32.29111120435927,31.559999889797634,31.786666764153374,34.63333384195963,31.836000188191733,17.984333403905232,24.49500036239624,23.696093767881393,26.213846096625694,25.158261071080748,25.020000457763672,26.387777752346462,25.986666785346138,24.83277776506212,26.578333536783855,24.889000097910564,13.011999988555909,18.15000057220459,18.216250002384186,20.917307706979607,19.79086962990139,20.34000015258789,20.48444430033366,20.413333680894638,17.878888765970867,18.523333231608074,17.942000007629396,8.039559167185823,14.322524862962961,8.360690698794112,9.243511129976703,10.953564277139927,12.85634472703007,13.557586587102282,14.337055485711769,13.66169839234319,13.442219485191504,12.45415924169143,8.039559167185823,14.322524862962961,8.360690698794112,9.243511129976703,10.953564277139927,12.85634472703007,13.557586587102282,14.337055485711769,13.66169839234319,13.442219485191504,12.45415924169143,0,0,267.54210236141165,507.873391740806,759.8053701150245,772.6617148420546,894.6799941259752,1023.7134934973813,1269.6240645595583,1309.9507230151328,1309.9507230151328,0,0,0.9902343779802323,1,1,1,1,1,1,1,0.06666666666666667,1,1,1,1,1,1,1,1,1,1,1,0.754300004641215,1,0.9902343779802323,1,1,1,1,1,1,1,1,1,1,1,1,0.9999999999999999,1,1,1,0.9999999999999999,1,1,2019-05-02,2019-05-17,2019-05-19,2019-06-20,2019-07-16,2019-08-08,2019-08-09,2019-08-18,2019-08-27,2019-09-14,2019-09-17,2019-05-16,2019-05-18,2019-06-19,2019-07-15,2019-08-07,2019-08-08,2019-08-17,2019-08-26,2019-09-13,2019-09-16,2019-10-01,122,137,139,171,197,220,221,230,239,257,260,15,2,32,26,23,1,9,9,18,3,15,136,138,170,196,219,220,229,238,256,259,274
46,46,portagevilleloam_mo,36.39516667,-89.6102,4.5,2019-05-14,30,2019,mid4,1432.0330236364746,11,2019-04-30,2019-05-14,121,2019-09-12,2019-09-15,2019-09-29,Harvested at Maturity.,5.581333335240682,0,5.3845162333980685,5.899230736952561,5.522174005923064,13.039999961853027,0.5988888740539551,7.747777832878961,1.25,0,1.2520000139872234,5.581333335240682,0,5.3845162333980685,5.899230736952561,5.522174005923064,13.039999961853027,0.5988888740539551,7.747777832878961,1.25,0,1.2520000139872234,14.891769727071127,25.244730631510418,19.813654961124545,18.734954393827,19.013310515362285,16.151273727416992,18.42150984870063,16.906083848741318,18.07694990494672,17.173085530598957,15.438404909769694,22.54133326212565,29.130000432332356,29.410322435440555,31.894230695871208,30.446956634521484,33.369998931884766,31.60888926188151,32.01333321465386,30.97058823529412,34.02000045776367,31.730666478474934,18.22233336766561,22.051666736602783,23.91258055163968,26.650384572836067,25.41369566710099,27.324999809265137,26.56888919406467,26.43888897365994,24.77441176246194,27.34000015258789,24.87033322652181,13.903333473205567,14.973333040873209,18.414838667838804,21.40653844980093,20.380434699680496,21.280000686645508,21.52888912624783,20.864444732666016,18.578235289629767,20.65999984741211,18.009999974568686,8.23690270224015,11.965784749281406,8.54812663260963,9.293033187523502,10.850530798568556,12.63495303437953,13.63547089344071,14.466823564741397,14.13335186024764,14.552212216854096,12.417307082285882,8.23690270224015,11.965784749281406,8.54812663260963,9.293033187523502,10.850530798568556,12.63495303437953,13.63547089344071,14.466823564741397,14.13335186024764,14.552212216854096,12.417307082285882,0,0,264.9919256108985,506.6107884865097,756.1729968535864,768.807949887966,891.5271879289324,1021.7286000116052,1261.9955816358151,1305.652218286377,1305.652218286377,0,0,0.9977419345609604,1,1,1,1,1,1,1,0.06666666666666667,1,1,1,1,1,1,1,1,1,1,1,0.7674000040690104,0.9708333492279053,0.9977419345609604,1,1,1,1,1,1,1,1,1,1,1,1,0.9999999999999999,1,0.9999999999999999,1,0.9999999999999999,0.9999999999999999,1,2019-04-30,2019-05-15,2019-05-18,2019-06-18,2019-07-14,2019-08-06,2019-08-07,2019-08-16,2019-08-25,2019-09-11,2019-09-14,2019-05-14,2019-05-17,2019-06-17,2019-07-13,2019-08-05,2019-08-06,2019-08-15,2019-08-24,2019-09-10,2019-09-13,2019-09-28,120,135,138,169,195,218,219,228,237,254,257,15,3,31,26,23,1,9,9,17,3,15,134,137,168,194,217,218,227,236,253,256,271
47,47,shelly_mn,47.4264,-96.8317,0.5,2019-05-20,31,2019,mid0,814.109760367036,11,2019-05-06,2019-05-20,123,2019-09-20,2019-10-04,2019-10-18,Harvested at Maturity.,1.4453333218892415,4.18888881471422,3.7760975368139222,1.2227777805593278,3.9752173553342405,0,4.42777767446306,1.2630000352859496,5.29399990439415,7.058571530239923,5.451999926567078,1.4453333218892415,4.18888881471422,3.7760975368139222,1.2227777805593278,3.9752173553342405,0,4.42777767446306,1.2630000352859496,5.29399990439415,7.058571530239923,5.451999926567078,24.28940575917562,19.966841485765244,20.625330552822206,20.67721716562907,17.90759667106297,16.212249755859375,15.439089086320665,15.203299427032471,11.526814508438111,10.237964340618678,7.387437089284261,17.033999888102212,19.27444447411431,26.160975712101635,28.550555653042263,25.9017391204834,24.030000686645508,22.49333339267307,20.591000175476076,21.9479998588562,17.743571724210465,9.794666647911072,9.737333257993063,12.916666706403097,19.52792688695396,22.311944564183552,19.710869561070982,18.86500024795532,17.093888971540665,14.789500069618224,17.130999970436097,12.991071598870414,6.138999997576078,2.4406666278839113,6.558888938691881,12.894878061806283,16.073333475324844,13.520000001658564,13.699999809265137,11.694444550408257,8.987999963760377,12.314000082015992,8.23857147353036,2.483333347241084,2.4115006280731164,3.6926856529568632,6.881734350235789,9.85263718478527,9.212010910082666,8.865000247955322,7.956816730084022,6.785661682081223,8.41331418871522,6.810288588440844,0.7754343498022109,2.4115006280731164,3.6926856529568632,6.881734350235789,9.85263718478527,9.212010910082666,8.865000247955322,7.956816730084022,6.785661682081223,8.41331418871522,6.810288588440844,0.7754343498022109,0,0,282.1511083596673,459.4985776858022,671.3748286177038,680.2398288656591,751.8511794364154,819.7077962572275,903.8409381443796,999.1849783825515,999.1849783825515,0,0,0.8426219556389786,0.9853611124886407,0.8836304374363112,0.8865000247955322,0.7091666751437717,0.47895000696182255,0.6157000088691712,0.36521430015563966,0,1,1,1,1,1,1,1,1,1,1,1,0.13056666175524395,0.29866666926278007,0.8426219556389786,0.9853611124886407,0.8836304374363112,0.8865000247955322,0.7091666751437717,0.47895000696182255,0.6157000088691712,0.36521430015563966,0.036033333142598475,1,1,1,1,1,0.9999999999999998,1,0.9999999999999999,1,1,1,2019-05-06,2019-05-21,2019-05-30,2019-07-10,2019-07-28,2019-08-20,2019-08-21,2019-08-30,2019-09-09,2019-09-19,2019-10-03,2019-05-20,2019-05-29,2019-07-09,2019-07-27,2019-08-19,2019-08-20,2019-08-29,2019-09-08,2019-09-18,2019-10-02,2019-10-17,126,141,150,191,209,232,233,242,252,262,276,15,9,41,18,23,1,9,10,10,14,15,140,149,190,208,231,232,241,251,261,275,290
48,48,wanatah_in,41.4444,-86.9437,1.5,2019-06-03,20,2019,mid1,761.2391087761794,11,2019-05-20,2019-06-03,100,2019-09-11,2019-09-18,2019-10-02,Harvested at Maturity.,5.7186667144298555,1.940000057220459,3.315624937415123,2.0677777926127114,2.092353014384999,NA,3.6233333349227905,1.9328570876802718,0.9620000123977661,4.017142874853952,9.837333178520202,5.7186667144298555,1.940000057220459,3.315624937415123,2.0677777926127114,2.092353014384999,NA,3.6233333349227905,1.9328570876802718,0.9620000123977661,4.017142874853952,9.837333178520202,19.1100923538208,22.464080174763996,19.804258197546005,19.56263658735487,20.741491990930893,NA,14.23600212732951,16.594770431518555,16.580852762858072,13.821553094046457,12.668179162343343,23.32133344014486,27.206666310628254,26.77656263113022,29.768889003329807,28.357646942138672,NA,27.508333524068195,26.569999967302596,24.666000239054362,28.661428451538086,26.237333424886067,17.5896666208903,20.52499993642171,21.522187620401382,24.118333339691162,22.33147040535422,NA,22.611666838328045,21.19785703931536,19.23900006612142,22.675714288439067,20.7846666653951,11.857999801635742,13.84333356221517,16.267812609672546,18.467777676052517,16.305293868569766,NA,17.71500015258789,15.825714111328125,13.811999893188476,16.690000125340053,15.331999905904134,7.71563572853764,10.524999936421711,8.779906552906654,11.310769337983158,11.768947956597566,NA,12.6118532989045,11.340569500630242,9.493881576004028,12.41793240022404,9.982348161035379,7.71563572853764,10.524999936421711,8.779906552906654,11.310769337983158,11.768947956597566,NA,12.6118532989045,11.340569500630242,9.493881576004028,12.41793240022404,9.982348161035379,0,0,280.95700969301294,484.55085777670973,684.6229730388684,NA,760.2940928322954,839.678079336707,982.0863029767676,1069.0118297783358,1069.0118297783358,0,0,0.908109375834465,0.9901944451861912,0.9953235289629768,NA,1,0.9436428615025112,0.883266674677531,0.9977142810821533,0.06666666666666667,1,1,1,1,1,NA,1,1,1,1,1,0.7304999923706055,0.9801666577657064,0.908109375834465,0.9901944451861912,0.9953235289629768,NA,1,0.9436428615025112,0.883266674677531,0.9977142810821533,0.9182333278656006,1,1,1,1,0.9999999999999999,NA,1,0.9999999999999999,1,1,1,2019-05-20,2019-06-04,2019-06-07,2019-07-09,2019-07-27,NA,2019-08-13,2019-08-19,2019-08-26,2019-09-10,2019-09-17,2019-06-03,2019-06-06,2019-07-08,2019-07-26,2019-08-12,NA,2019-08-18,2019-08-25,2019-09-09,2019-09-16,2019-10-01,140,155,158,190,208,NA,225,231,238,253,260,15,3,32,18,17,0,6,7,15,7,15,154,157,189,207,224,NA,230,237,252,259,274
49,49,saginaw_mi,43.4003,-83.8684,1.5,2019-06-08,32,2019,mid1,785.2559553337353,11,2019-05-25,2019-06-08,111,2019-09-27,2019-10-11,2019-10-25,Harvested at Maturity.,5.141333349545797,11.800000190734863,2.6333333163550408,2.269473665638974,1.4016667074627347,0,1.4212500229477882,2.6633333100212946,4.338666653633117,8.915000259876251,2.4619999845822655,5.141333349545797,11.800000190734863,2.6333333163550408,2.269473665638974,1.4016667074627347,0,1.4212500229477882,2.6633333100212946,4.338666653633117,8.915000259876251,2.4619999845822655,20.107238642374675,16.531198104222614,21.113130338264234,19.706001482511823,17.488653818766277,20.377037048339844,17.434415340423584,14.139149877760145,12.541242059071859,10.590788977486747,9.168568579355876,22.726667086283367,21.39333375295003,27.48666676607999,28.921052531192178,27.084444257948135,23.3700008392334,24.8125,22.94444423251682,25.285999933878582,18.973571300506592,14.381999905904134,16.51200024286906,16.451666831970215,21.37969704830285,22.610263096658805,21.178333308961655,16.59000062942505,18.249999970197678,17.44166644414266,19.748333390553793,13.876428493431636,9.276666632294654,10.297333399454752,11.509999910990397,15.272727330525717,16.299473662125436,15.27222235997518,9.8100004196167,11.687499940395355,11.938888655768501,14.210666847229003,8.779285686356681,4.1713333586851755,6.640786973027587,6.512966978008548,8.391438649761275,10.701280383827408,11.0582409124023,6.590000629425047,9.027678142416477,8.203961073689328,9.947890907758872,6.357920686893059,1.1457105620822683,6.640786973027587,6.512966978008548,8.391438649761275,10.701280383827408,11.0582409124023,6.590000629425047,9.027678142416477,8.203961073689328,9.947890907758872,6.357920686893059,1.1457105620822683,0,0,276.91747544212205,480.2418027348429,679.2901391580842,685.8801397875093,758.1015649268411,831.9372145900452,981.1555782064283,1070.166467822931,1070.166467822931,0,0,0.9233787854512533,0.9755526341890034,0.9512777778837416,0.6590000629425049,0.8084374994039536,0.7392221980624729,0.9101000022888184,0.3922857063157218,0.0240666675567627,1,1,1,1,1,1,1,1,1,1,1,0.6512000242869059,0.6451666831970215,0.9233787854512533,0.9755526341890034,0.9512777778837416,0.6590000629425049,0.8084374994039536,0.7392221980624729,0.9101000022888184,0.3922857063157218,0.08,1,1,1,1,1,1,1,1,1,1,1,2019-05-25,2019-06-09,2019-06-15,2019-07-18,2019-08-06,2019-08-24,2019-08-25,2019-09-02,2019-09-11,2019-09-26,2019-10-10,2019-06-08,2019-06-14,2019-07-17,2019-08-05,2019-08-23,2019-08-24,2019-09-01,2019-09-10,2019-09-25,2019-10-09,2019-10-24,145,160,166,199,218,236,237,245,254,269,283,15,6,33,19,18,1,8,9,15,14,15,159,165,198,217,235,236,244,253,268,282,297
50,50,danvers_mn,45.2803,-95.7591,1.5,2019-05-26,33,2019,mid1,996.759753753968,11,2019-05-12,2019-05-26,119,2019-09-22,2019-10-04,2019-10-18,Harvested at Maturity.,6.296666582425435,2.7899998664855956,4.174210500560308,2.636363674293865,4.6594443917274475,0,1.975000023841858,0.05299999713897705,8.207333374023436,1.9558332959810893,3.7686665932337444,6.296666582425435,2.7899998664855956,4.174210500560308,2.636363674293865,4.6594443917274475,0,1.975000023841858,0.05299999713897705,8.207333374023436,1.9558332959810893,3.7686665932337444,18.569681644439697,23.11999931335449,19.621246011633623,20.310178063132547,18.224345207214355,17.330034255981445,17.572816252708435,16.777183055877686,12.448211765289306,11.16608214378357,8.143847688039143,18.514666716257732,24.796000289916993,26.744473758496735,28.636818192221902,26.921111212836372,23.579999923706055,24.81500005722046,22.913000106811523,24.352666473388673,20.009166717529297,11.866666531562805,12.765333382288615,17.232000160217286,20.670789467661006,22.83909093249928,21.181944449742634,18.675000190734863,18.871875047683716,17.29650001525879,18.808999888102214,14.574583341677984,7.45466661589841,7.016000048319499,9.668000030517579,14.597105176825272,17.041363672776654,15.442777686648899,13.770000457763672,12.928750038146973,11.679999923706054,13.265333302815755,9.13999996582667,3.0426667002340158,3.6850416156834367,7.294294094183445,7.242149466840841,9.631955551037516,10.470981725195053,8.675000190734863,9.314733294948935,8.110774382067323,9.422741307437818,7.341713948839654,1.4664714816515894,3.6850416156834367,7.294294094183445,7.242149466840841,9.631955551037516,10.470981725195053,8.675000190734863,9.314733294948935,8.110774382067323,9.422741307437818,7.341713948839654,1.4664714816515894,0,0,275.2016797399519,487.1047018627772,675.582372916288,684.2573731070229,758.7752394666144,839.8829832872876,981.224102898855,1069.3246702849308,1069.3246702849308,0,0,0.9006578947368421,0.9795000011270697,0.9623055617014568,0.8675000190734864,0.8661250054836274,0.7296500015258789,0.7711999893188477,0.4531666735808055,0,1,1,1,1,1,1,1,1,1,1,1,0.3098333406448364,0.6797000122070312,0.9006578947368421,0.9795000011270697,0.9623055617014568,0.8675000190734864,0.8661250054836274,0.7296500015258789,0.7711999893188477,0.4531666735808055,0.10769999821980794,1,1,1,1,0.9999999999999999,1,1,1,1,1,1,2019-05-12,2019-05-27,2019-06-01,2019-07-09,2019-07-31,2019-08-18,2019-08-19,2019-08-27,2019-09-06,2019-09-21,2019-10-03,2019-05-26,2019-05-31,2019-07-08,2019-07-30,2019-08-17,2019-08-18,2019-08-26,2019-09-05,2019-09-20,2019-10-02,2019-10-17,132,147,152,190,212,230,231,239,249,264,276,15,5,38,22,18,1,8,10,15,12,15,146,151,189,211,229,230,238,248,263,275,290
51,51,morris_mn,45.3552,-95.5436,1.5,2019-05-30,34,2019,mid1,921.5562519475512,11,2019-05-16,2019-05-30,119,2019-09-26,2019-10-10,2019-10-24,Harvested at Maturity.,6.13066676457723,2.0999999046325684,4.145526368367045,2.4072727344252844,4.346111065811581,0,2.0149999976158144,5.912222054269579,6.388000027338664,3.8557142274720326,4.51666675011317,6.13066676457723,2.0999999046325684,4.145526368367045,2.4072727344252844,4.346111065811581,0,2.0149999976158144,5.912222054269579,6.388000027338664,3.8557142274720326,4.51666675011317,18.475220187505087,24.091450691223145,19.01616974880821,20.61236606944691,18.31273195478651,19.078405380249023,16.271156311035156,14.013745519849989,13.16517162322998,9.658540742737907,7.941605965296428,18.474666754404705,26.982500076293945,26.55105239466617,28.520454666831277,26.569999906751846,23.700000762939453,22.57100028991699,22.136666827731663,25.39533348083496,16.478571483067103,10.646666582425436,12.900666733582815,19.040000081062317,20.75381562584325,22.62272735075517,20.718611160914104,17.80500030517578,17.26100010871887,16.91444452603658,19.438666661580402,11.473214302744184,6.181666636342803,7.326666712760925,11.097500085830688,14.956578857020329,16.725000034679066,14.86722241507636,11.90999984741211,11.950999927520751,11.6922222243415,13.481999842325846,6.467857122421265,1.716666690260172,3.782686266758641,9.036011054430903,7.317847974390565,9.723157564605328,10.251187483815665,7.805000305175781,8.02729083396256,7.813484963524341,10.01260711397171,5.930632337387119,0.5703844840895136,3.782686266758641,9.036011054430903,7.317847974390565,9.723157564605328,10.251187483815665,7.805000305175781,8.02729083396256,7.813484963524341,10.01260711397171,5.930632337387119,0.5703844840895136,0,0,278.07822302684144,491.9876894481587,676.5090641568407,684.3140644620165,764.5869728016421,834.9083374733613,985.0974441829368,1068.1262969063564,1068.1262969063564,0,0,0.9071184221066927,0.9766136386177757,0.9466388914320204,0.7805000305175782,0.7235500097274781,0.691444452603658,0.8176000022888184,0.22046428748539515,0.0400333309173584,1,1,1,1,1,1,1,1,1,1,1,0.3302666727701823,0.8402499914169312,0.9071184221066927,0.9766136386177757,0.9466388914320204,0.7805000305175782,0.7235500097274781,0.691444452603658,0.8176000022888184,0.22046428748539515,0.05223332881927491,1,1,1,0.9999999999999999,0.9999999999999999,1,1,0.9999999999999999,1,0.9999999999999999,1,2019-05-16,2019-05-31,2019-06-04,2019-07-12,2019-08-03,2019-08-21,2019-08-22,2019-09-01,2019-09-10,2019-09-25,2019-10-09,2019-05-30,2019-06-03,2019-07-11,2019-08-02,2019-08-20,2019-08-21,2019-08-31,2019-09-09,2019-09-24,2019-10-08,2019-10-23,136,151,155,193,215,233,234,244,253,268,282,15,4,38,22,18,1,10,9,15,14,15,150,154,192,214,232,233,243,252,267,281,296
52,52,pontiac_il,40.82216667,-88.62016667,2.5,2019-06-07,35,2019,mid2,848.8698672405687,11,2019-05-24,2019-06-07,104,2019-09-19,2019-09-25,2019-10-09,Harvested at Maturity.,4.4800000031789144,0,5.61758620985623,0.3304545405236157,0.7273333390553792,18.200000762939453,3.153333306312561,4.51222218407525,2.704117634717156,5.184999942779541,9.31733323733012,4.4800000031789144,0,5.61758620985623,0.3304545405236157,0.7273333390553792,18.200000762939453,3.153333306312561,4.51222218407525,2.704117634717156,5.184999942779541,9.31733323733012,20.891481145222983,21.614973704020183,19.73600535557188,20.89054640856656,19.86305955251058,14.559534072875977,13.547682603200276,17.082766003078884,15.011562852298512,12.044366200764975,11.802752113342285,26.755333582560223,27.13666661580404,27.92206902339541,30.129545558582652,28.75799980163574,28.09000015258789,28.153333346048992,25.549999872843426,26.683529573328354,27.443333625793457,24.01999994913737,20.962000115712485,21.7599999109904,22.372241480597133,24.39840917153792,22.438333225250243,22.239999771118164,23.380000114440918,19.681666639116077,20.926176519954907,22.009166955947876,18.22299993832906,15.168666648864747,16.383333206176758,16.822413937798864,18.667272784493186,16.118666648864746,16.389999389648438,18.606666882832844,13.813333405388725,15.168823466581458,16.575000286102295,12.425999927520753,10.962000115712483,11.759999910990397,8.338461081534852,10.979564485397182,11.701777170214159,12.239999771118162,13.373214444613456,9.890345812330644,11.045039771319487,12.009166955947876,7.827598490612904,10.962000115712483,11.759999910990397,8.338461081534852,10.979564485397182,11.701777170214159,12.239999771118162,13.373214444613456,9.890345812330644,11.045039771319487,12.009166955947876,7.827598490612904,0,0,241.8153713645107,483.36579004324864,658.8924475964609,671.1324473675791,751.3717340352598,840.3848463462356,1028.150522458667,1100.2055241943542,1100.2055241943542,0,0,0.9468620694916824,1,0.9980666637420654,1,1,0.939611111746894,0.9390588339637308,0.9980000019073487,0.05833333651224772,1,1,1,1,1,1,1,1,1,1,1,0.974366668065389,1,0.9468620694916824,1,0.9980666637420654,1,1,0.939611111746894,0.9390588339637308,0.9980000019073487,0.734933336575826,1,1,0.9999999999999999,1,0.9999999999999999,1,1,1,1,1,1,2019-05-24,2019-06-08,2019-06-11,2019-07-10,2019-08-01,2019-08-16,2019-08-17,2019-08-23,2019-09-01,2019-09-18,2019-09-24,2019-06-07,2019-06-10,2019-07-09,2019-07-31,2019-08-15,2019-08-16,2019-08-22,2019-08-31,2019-09-17,2019-09-23,2019-10-08,144,159,162,191,213,228,229,235,244,261,267,15,3,29,22,15,1,6,9,17,6,15,158,161,190,212,227,228,234,243,260,266,281
53,53,urbana_il,40.05325,-88.23485,2.5,2019-05-31,17,2019,mid2,867.1246213669106,11,2019-05-17,2019-05-31,103,2019-09-11,2019-09-16,2019-09-30,Harvested at Maturity.,5.366666598121325,0,3.4906896784387786,2.973181789571589,0.8959999998410543,0,1.0557142666407995,5.163333237171173,1.7433333562480078,0.2359999895095825,3.4853333473205566,5.366666598121325,0,3.4906896784387786,2.973181789571589,0.8959999998410543,0,1.0557142666407995,5.163333237171173,1.7433333562480078,0.2359999895095825,3.4853333473205566,19.237343788146973,24.32040532430013,20.557665068527747,19.50643353028731,21.572813097635905,20.821224212646484,17.24466323852539,14.066350142161053,17.00617159737481,17.295960998535158,14.050994682312012,25.973333422342936,26.423333485921223,27.778620687024347,30.72045438939875,29.23999989827474,28.309999465942383,28.107142857142858,28.52666695912679,25.968333350287544,30.358000564575196,28.249333063761394,20.588666756947834,20.09166685740153,22.277413828619594,25.12340898947282,22.769999980926514,22.170000076293945,22.681428568703787,23.828333536783855,20.355833371480305,23.862000274658204,21.832333119710288,15.204000091552734,13.760000228881836,16.776206970214844,19.526363589546897,16.30000006357829,16.030000686645508,17.25571428026472,19.130000114440918,14.743333392673069,17.36599998474121,15.41533317565918,10.621573733170827,10.091666857401531,8.508328736799587,11.091157969112274,11.39459836434851,11.717932410253074,12.592132574431,13.799986934224766,10.492181124035188,13.573705685815812,11.03569896824201,10.621573733170827,10.091666857401531,8.508328736799587,11.091157969112274,11.39459836434851,11.717932410253074,12.592132574431,13.799986934224766,10.492181124035188,13.573705685815812,11.03569896824201,0,0,246.741533367188,490.7470086876581,661.6659841528858,673.3839165631389,761.5288445841559,844.3287661895044,1033.1880264221377,1101.0565548512168,1101.0565548512168,0,0,0.9569827573052768,1,1,1,1,1,0.9600277794731988,1,0.06666666666666667,1,1,1,1,1,1,1,1,1,1,1,0.891366662979126,0.9233333269755046,0.9569827573052768,1,1,1,1,1,0.9600277794731988,1,0.971933323542277,1,1,1,1,0.9999999999999999,0.9999999999999998,1,1,1,0.9999999999999999,1,2019-05-17,2019-06-01,2019-06-04,2019-07-03,2019-07-25,2019-08-09,2019-08-10,2019-08-17,2019-08-23,2019-09-10,2019-09-15,2019-05-31,2019-06-03,2019-07-02,2019-07-24,2019-08-08,2019-08-09,2019-08-16,2019-08-22,2019-09-09,2019-09-14,2019-09-29,137,152,155,184,206,221,222,229,235,253,258,15,3,29,22,15,1,7,6,18,5,15,151,154,183,205,220,221,228,234,252,257,272
54,54,wanatah_in,41.4444,-86.9437,2.5,2019-06-03,20,2019,mid2,928.7592752816732,11,2019-05-20,2019-06-03,110,2019-09-21,2019-09-28,2019-10-12,Harvested at Maturity.,5.7186667144298555,1.940000057220459,3.4225805805575464,2.2670833667119346,1.7413333654403687,3.819999933242798,2.162857174873352,1.9199999703301325,1.8800000150998433,0.7142857313156128,11.507333151499429,5.7186667144298555,1.940000057220459,3.4225805805575464,2.2670833667119346,1.7413333654403687,3.819999933242798,2.162857174873352,1.9199999703301325,1.8800000150998433,0.7142857313156128,11.507333151499429,19.1100923538208,22.464080174763996,19.68874405276391,19.524501085281372,20.210668818155924,16.387901306152344,15.260730334690638,17.311648474799263,15.161421087053087,13.118916307176862,10.699900499979655,23.32133344014486,27.206666310628254,26.729354981453188,29.264166752497356,28.339333216349285,27.860000610351563,27.484285627092635,25.344444698757595,26.43500010172526,26.084285736083984,22.410666783650715,17.5896666208903,20.52499993642171,21.48693561553955,23.76645831267039,22.28199987411499,21.105000495910645,22.484999861036027,19.5861111746894,20.69222225083245,20.68357147489275,17.0253333568573,11.857999801635742,13.84333356221517,16.244516249625914,18.268749872843426,16.224666531880697,14.350000381469728,17.48571409497942,13.827777650621202,14.949444399939642,15.28285721370152,11.639999930063883,7.71563572853764,10.524999936421711,7.6495463268638835,10.21719171419481,11.440054782044488,11.105000495910645,12.513631483055864,9.810585270285607,10.740257822928164,10.885687004233258,6.738916449556351,7.71563572853764,10.524999936421711,7.6495463268638835,10.21719171419481,11.440054782044488,11.105000495910645,12.513631483055864,9.810585270285607,10.740257822928164,10.885687004233258,6.738916449556351,0,0,237.1359361327804,482.34853727345586,653.949359004123,665.0543595000337,752.6497798814247,840.9450473139951,1034.269688126702,1110.469497156335,1110.469497156335,0,0,0.9051451621517058,0.9893333335717519,1,1,0.9820714337485177,0.9233888996971978,0.925194443596734,0.9229285648890905,0.042500003178914385,1,1,1,1,1,1,1,1,1,1,1,0.7304999923706055,0.9801666577657064,0.9051451621517058,0.9893333335717519,1,1,0.9820714337485177,0.9233888996971978,0.925194443596734,0.9229285648890905,0.6247333351771037,1,1,1,1,1,1,0.9999999999999999,1,1,0.9999999999999999,1,2019-05-20,2019-06-04,2019-06-07,2019-07-08,2019-08-01,2019-08-16,2019-08-17,2019-08-24,2019-09-02,2019-09-20,2019-09-27,2019-06-03,2019-06-06,2019-07-07,2019-07-31,2019-08-15,2019-08-16,2019-08-23,2019-09-01,2019-09-19,2019-09-26,2019-10-11,140,155,158,189,213,228,229,236,245,263,270,15,3,31,24,15,1,7,9,18,7,15,154,157,188,212,227,228,235,244,262,269,284
55,55,britton_mi,41.9256,-83.8225,2.5,2019-06-09,36,2019,mid2,867.5038962030898,11,2019-05-26,2019-06-09,110,2019-09-27,2019-10-06,2019-10-20,Harvested at Maturity.,6.952666664123535,4.203999996185303,3.0936666349569957,3.404347834379777,5.425714284181595,NA,3.112222174803416,0.28900001049041746,3.3435294032096863,8.411111222373115,1.1759999791781108,6.952666664123535,4.203999996185303,3.0936666349569957,3.404347834379777,5.425714284181595,NA,3.112222174803416,0.28900001049041746,3.3435294032096863,8.411111222373115,1.1759999791781108,19.176688702901206,19.184809303283693,20.991139205296836,19.12553953087848,17.511684349605016,NA,16.125390370686848,15.850141906738282,14.603094437543083,10.418444103664822,11.334212748209636,24.517333221435546,22.860000228881837,28.621000035603842,30.116956462030824,28.867856979370117,NA,25.722222010294598,23.863000106811523,27.30941177816952,23.635555691189236,17.428000068664552,18.54533330599467,16.725000143051147,22.408666642506915,23.701956458713695,22.70892838069371,NA,19.998333242204453,18.566500091552733,21.07941178714528,17.897222254011368,11.115000013510386,12.573333390553792,10.59000005722046,16.196333249409992,17.28695645539657,16.5499997820173,NA,14.274444474114311,13.270000076293945,14.849411796121036,12.158888816833496,4.801999958356221,8.61978724580884,6.81888379818797,8.101529291547225,10.59142558407793,12.331541279444167,NA,10.258418247879876,8.909413188033104,11.165119237014125,8.681536613551776,2.6246934587808455,8.61978724580884,6.81888379818797,8.101529291547225,10.59142558407793,12.331541279444167,NA,10.258418247879876,8.909413188033104,11.165119237014125,8.681536613551776,2.6246934587808455,0,0,243.0458787464167,486.648667180209,659.2902450924273,NA,751.6160093233462,840.7101412036772,1030.5171682329171,1108.650997754883,1108.650997754883,0,0,0.9474499988555909,0.9990217374718707,1,NA,0.9151111019982232,0.841950011253357,0.9604411770315732,0.7396111170450846,0.015033335685729982,1,1,1,1,1,NA,1,1,1,1,1,0.8485666608810425,0.6725000143051147,0.9474499988555909,0.9990217374718707,1,NA,0.9151111019982232,0.841950011253357,0.9604411770315732,0.7396111170450846,0.1952666699886322,1,1,1,0.9999999999999999,1,NA,1,1,1,1,1,2019-05-26,2019-06-10,2019-06-15,2019-07-15,2019-08-07,NA,2019-08-21,2019-08-30,2019-09-09,2019-09-26,2019-10-05,2019-06-09,2019-06-14,2019-07-14,2019-08-06,2019-08-20,NA,2019-08-29,2019-09-08,2019-09-25,2019-10-04,2019-10-19,146,161,166,196,219,NA,233,242,252,269,278,15,5,30,23,14,0,9,10,17,9,15,160,165,195,218,232,NA,241,251,268,277,292
56,56,wooster_oh,40.7565,-81.9004,2.5,2019-05-22,37,2019,mid2,938.42909884558,11,2019-05-08,2019-05-22,114,2019-09-13,2019-09-19,2019-10-03,Harvested at Maturity.,3.525999967257182,3.2833333810170493,5.805142852238246,8.541304277337117,2.1506249755620956,0,3.973750114440918,4.518333435058594,1.5634999990463256,0.8583333492279053,3.087999983628591,3.525999967257182,3.2833333810170493,5.805142852238246,8.541304277337117,2.1506249755620956,0,3.973750114440918,4.518333435058594,1.5634999990463256,0.8583333492279053,3.087999983628591,19.22053731282552,20.733371098836262,19.132738249642507,19.614985258682914,20.84461945295334,21.01110076904297,18.571670174598694,15.107290585835774,17.55817413330078,15.174107074737549,14.347464561462402,20.923999722798666,27.456666310628254,25.359999901907784,30.131739243217137,28.179999947547913,28.65999984741211,27.08999991416931,28.678333282470703,25.329499912261962,27.545000076293945,27.58466682434082,14.914333168665568,20.524999936421715,19.97085703441075,24.550652275914732,22.210937440395355,22.710000038146973,21.490000009536743,23.523333390553795,19.31449990272522,21.60083333651225,20.663666756947837,8.904666614532472,13.59333356221517,14.581714166913713,18.969565308612324,16.241874933242798,16.760000228881836,15.890000104904175,18.368333498636883,13.299499893188477,15.656666596730549,13.74266668955485,5.474293964354396,10.524999936421713,6.997108654843548,10.54991692429006,10.656101305579492,11.984047658319009,11.341864651925437,13.37016206820806,9.630377806795835,11.568442612094682,10.024812978273234,5.474293964354396,10.524999936421713,6.997108654843548,10.54991692429006,10.656101305579492,11.984047658319009,11.341864651925437,13.37016206820806,9.630377806795835,11.568442612094682,10.024812978273234,0,0,244.8988029195242,487.5468921781955,658.0445130674676,670.0285607257866,760.7634779411902,840.9844503504386,1033.5920064863556,1103.0026621589236,1103.0026621589236,0,0,0.8786285713740758,1,0.9909687489271164,1,0.997124993801117,1,0.8862999963760376,0.975000007947286,0.06070000012715659,1,1,1,1,1,1,1,1,1,1,1,0.4833999888102214,0.937666670481364,0.8786285713740758,1,0.9909687489271164,1,0.997124993801117,1,0.8862999963760376,0.975000007947286,0.9214000066121419,1,1,1,1,1,1,0.9999999999999999,0.9999999999999999,1,0.9999999999999999,1,2019-05-08,2019-05-23,2019-05-26,2019-06-30,2019-07-23,2019-08-08,2019-08-09,2019-08-17,2019-08-23,2019-09-12,2019-09-18,2019-05-22,2019-05-25,2019-06-29,2019-07-22,2019-08-07,2019-08-08,2019-08-16,2019-08-22,2019-09-11,2019-09-17,2019-10-02,128,143,146,181,204,220,221,229,235,255,261,15,3,35,23,16,1,8,6,20,6,15,142,145,180,203,219,220,228,234,254,260,275
57,57,urbana_il,40.05325,-88.23485,3.5,2019-05-31,17,2019,mid3,1153.5925876449746,11,2019-05-17,2019-05-31,117,2019-09-25,2019-09-30,2019-10-14,Harvested at Maturity.,5.366666598121325,0,4.220588240553351,1.1569999933242798,1.1572222146723006,0,3.534444378481971,2.333636392246593,1.3727777600288391,5.2220001220703125,2.1646666487058,5.366666598121325,0,4.220588240553351,1.1569999933242798,1.1572222146723006,0,3.534444378481971,2.333636392246593,1.3727777600288391,5.2220001220703125,2.1646666487058,19.237343788146973,24.32040532430013,20.05440672706155,20.79553303718567,19.663767761654324,19.36578941345215,15.997186342875162,16.3999416177923,15.771273718939888,14.109175300598144,12.675421142578125,25.973333422342936,26.423333485921223,28.247941185446347,30.380499839782715,28.966110971238876,27.829999923706055,27.594444698757595,26.10181825811213,28.642222298516167,26.825999450683593,23.593333180745443,20.588666756947834,20.09166685740153,22.76558828353882,24.52024989128113,22.922777732213337,22.102499961853027,22.435000207689072,20.68318189274181,22.458055522706772,19.74899959564209,16.93233327070872,15.204000091552734,13.760000228881836,17.28323538163129,18.659999942779542,16.879444493187798,16.375,17.275555716620552,15.264545527371492,16.27388874689738,12.671999740600585,10.271333360671997,10.621573733170827,10.091666857401531,7.51489701652577,9.601614076985465,11.022911470564217,11.606824841738216,12.422796432499213,10.78729199117693,12.394123798348838,10.245344445664884,6.54555648926278,10.621573733170827,10.091666857401531,7.51489701652577,9.601614076985465,11.022911470564217,11.606824841738216,12.422796432499213,10.78729199117693,12.394123798348838,10.245344445664884,6.54555648926278,0,0,255.5064985618762,447.53878010158553,645.9511865717417,669.1648362552181,780.9700041477109,899.6302160506572,1122.7244444209364,1173.9511666492608,1173.9511666492608,0,0,0.963308822407442,1,1,1,0.9828333430820041,0.9724090879613703,0.984194442960951,0.9203999710083008,0.06666666666666667,1,1,1,1,1,1,1,1,1,1,1,0.891366662979126,0.9233333269755046,0.963308822407442,1,1,1,0.9828333430820041,0.9724090879613703,0.984194442960951,0.9203999710083008,0.5816999904314677,1,1,1,1,0.9999999999999999,0.9999999999999999,0.9999999999999999,1,0.9999999999999999,1,1,2019-05-17,2019-06-01,2019-06-04,2019-07-08,2019-07-28,2019-08-15,2019-08-17,2019-08-26,2019-09-06,2019-09-24,2019-09-29,2019-05-31,2019-06-03,2019-07-07,2019-07-27,2019-08-14,2019-08-16,2019-08-25,2019-09-05,2019-09-23,2019-09-28,2019-10-13,137,152,155,189,209,227,229,238,249,267,272,15,3,34,20,18,2,9,11,18,5,15,151,154,188,208,226,228,237,248,266,271,286
58,58,romney_in,40.2364,-86.8889,3.5,2019-06-08,38,2019,mid3,1024.3524160743116,11,2019-05-25,2019-06-08,117,2019-10-03,2019-10-10,2019-10-24,Harvested at Maturity.,5.709999990463257,1.4399999976158142,3.1965624764561653,2.7514285416830155,2.4488235852297615,NA,6.484999885161717,0.18899999856948851,1.8315789825037905,0.18142856870378768,1.872666629155477,5.709999990463257,1.4399999976158142,3.1965624764561653,2.7514285416830155,2.4488235852297615,NA,6.484999885161717,0.18899999856948851,1.8315789825037905,0.18142856870378768,1.872666629155477,20.004308319091795,19.616836071014404,21.066668808460236,20.282619340079172,18.222454575931323,NA,15.875802199045816,17.491183948516845,14.375114591498123,12.822732176099505,11.461959330240886,27.011333465576172,24.40999937057495,28.74468767642975,29.284761882963636,29.099999932681815,NA,25.679999987284344,27.08900032043457,27.95842120521947,23.141428811209543,17.979333368937173,21.224666817982992,19.31499969959259,23.01046884059906,23.433333328792028,23.04352934220258,NA,20.417083263397217,21.07350010871887,21.569736907356663,16.928571598870413,10.998000024755795,15.438000170389811,14.22000002861023,17.27625000476837,17.58190477462042,16.987058751723346,NA,15.154166539510092,15.057999897003175,15.181052609493857,10.715714386531285,4.016666680574417,11.224666817982992,9.31499969959259,7.665025826124694,9.615247932418757,12.064218756032723,NA,10.54240894664377,11.109019450407624,11.671101164754127,8.651241066395384,2.5204739192700885,11.224666817982992,9.31499969959259,7.665025826124694,9.615247932418757,12.064218756032723,NA,10.54240894664377,11.109019450407624,11.671101164754127,8.651241066395384,2.5204739192700885,0,0,245.28082643599024,447.201033016784,652.29275186934035,NA,778.8016592290656,889.8918537331419,1111.6427758634704,1172.201463328238,1172.201463328238,0,0,0.9541250020265579,0.992785712650844,1,NA,0.9664166609446208,0.9124500036239624,0.9619210519288716,0.6110714401517595,0.02826666831970215,1,1,1,1,1,NA,1,1,1,1,1,0.9699333413441976,0.8986249804496765,0.9541250020265579,0.992785712650844,1,NA,0.9664166609446208,0.9124500036239624,0.9619210519288716,0.6110714401517595,0.1659333368142446,1,1,1,1,1,NA,0.9999999999999999,1,1,0.9999999999999999,1,2019-05-25,2019-06-09,2019-06-13,2019-07-15,2019-08-05,NA,2019-08-22,2019-09-03,2019-09-13,2019-10-02,2019-10-09,2019-06-08,2019-06-12,2019-07-14,2019-08-04,2019-08-21,NA,2019-09-02,2019-09-12,2019-10-01,2019-10-08,2019-10-23,145,160,164,196,217,NA,234,246,256,275,282,15,4,32,21,17,0,12,10,19,7,15,159,163,195,216,233,NA,245,255,274,281,296
59,59,wooster_oh,40.7565,-81.9004,3.5,2019-05-22,37,2019,mid3,1215.3440263551586,11,2019-05-08,2019-05-22,131,2019-09-30,2019-10-04,2019-10-18,Harvested at Maturity.,3.525999967257182,3.2833333810170493,5.507749974727631,7.916521704715231,3.3389473965293486,0,3.319090973247181,0.6858332951863607,1.0155000239610672,11.199999928474426,1.4693333466847738,3.525999967257182,3.2833333810170493,5.507749974727631,7.916521704715231,3.3389473965293486,0,3.319090973247181,0.6858332951863607,1.0155000239610672,11.199999928474426,1.4693333466847738,19.22053731282552,20.733371098836262,19.522602725028992,19.525891925977625,19.811138554623252,17.477617263793945,15.716171091253107,17.979777812957764,16.14132351875305,9.150537729263306,11.386432107289632,20.923999722798666,27.456666310628254,25.96875,29.333913056746773,28.234210365696956,27.010000228881836,26.277272831309926,25.11999972661336,27.628500175476074,28.65999984741211,19.70266653696696,14.914333168665568,20.524999936421715,20.47637493610382,23.779565272123918,22.39184203900789,22.22000026702881,21.081363677978516,19.201666514078777,20.58075008392334,23.264999866485596,13.071999911467234,8.904666614532472,13.59333356221517,14.983999872207642,18.225217487501062,16.54947371231882,17.43000030517578,15.885454524647106,13.28333330154419,13.532999992370605,17.869999885559082,6.441333285967509,5.474293964354396,10.524999936421713,6.172292765376991,8.95665969983547,10.466912274992675,11.658676969968248,11.124783238520507,9.559186593960723,10.92234811346203,13.086433298903705,3.303422942659855,5.474293964354396,10.524999936421713,6.172292765376991,8.95665969983547,10.466912274992675,11.658676969968248,11.124783238520507,9.559186593960723,10.92234811346203,13.086433298903705,3.303422942659855,0,0,246.89171061507963,452.8948837112955,651.7662169361563,663.4248939061246,785.7975095298502,900.507748657379,1118.954710926619,1171.3004441222342,1171.3004441222342,0,0,0.8937999999523163,0.993717390557994,0.9987894710741545,1,0.9159545464949175,0.8967916607856751,0.9280000066757202,1,0.06666666666666667,1,1,1,1,1,1,1,1,1,1,1,0.4833999888102214,0.937666670481364,0.8937999999523163,0.993717390557994,0.9987894710741545,1,0.9159545464949175,0.8967916607856751,0.9280000066757202,1,0.3055333213011424,1,1,1,0.9999999999999999,1,1,0.9999999999999999,1,1,1,1,2019-05-08,2019-05-23,2019-05-26,2019-07-05,2019-07-28,2019-08-16,2019-08-17,2019-08-28,2019-09-09,2019-09-29,2019-10-03,2019-05-22,2019-05-25,2019-07-04,2019-07-27,2019-08-15,2019-08-16,2019-08-27,2019-09-08,2019-09-28,2019-10-02,2019-10-17,128,143,146,186,209,228,229,240,252,272,276,15,3,40,23,19,1,11,12,20,4,15,142,145,185,208,227,228,239,251,271,275,290
60,60,urbana_il,40.05325,-88.23485,4.5,2019-05-31,17,2019,mid4,1619.692514224782,11,2019-05-17,2019-05-31,151,2019-10-29,2019-11-06,2019-11-20,Harvested at Maturity.,5.366666598121325,0,3.815476194733665,0.8385185113659611,2.8209090747616505,0,0.5509090965444391,1.6954545107754793,4.055624969303608,5.46750009059906,0.9093333164850871,5.366666598121325,0,3.815476194733665,0.8385185113659611,2.8209090747616505,0,0.5509090965444391,1.6954545107754793,4.055624969303608,5.46750009059906,0.9093333164850871,19.237343788146973,24.32040532430013,20.238197485605877,20.659135500590008,16.00134312022816,19.382381439208984,17.110545418479226,14.82663562081077,11.437674596905708,7.366793602705002,8.989259719848633,25.973333422342936,26.423333485921223,28.74499997638521,29.50555540014196,27.199091044339266,28.739999771118164,27.673636523160067,28.39363618330522,20.82374995946884,9.10875004529953,5.055999986330669,20.588666756947834,20.09166685740153,23.137738102958316,23.449444382279008,22.054545575922184,22.13000011444092,21.607727310874246,22.1009088863026,14.454062473028898,4.59687502682209,-0.37866667782266933,15.204000091552734,13.760000228881836,17.530476229531423,17.39333336441605,16.910000107505105,15.520000457763672,15.541818098588424,15.808181589299982,8.084374986588955,0.08500000834465027,-5.813333341976007,10.621573733170827,10.091666857401531,6.362054314768337,8.934136749240366,11.31261085911975,12.130000114440922,11.594176252438263,12.152682240735944,7.564964478211105,5,0.04983182917133597,10.621573733170827,10.091666857401531,6.362054314768337,8.934136749240366,11.31261085911975,12.130000114440922,11.594176252438263,12.152682240735944,7.564964478211105,5,0.04983182917133597,0,0,267.20628122027017,508.42797344976015,757.3054123503948,769.4354124648357,896.9713512416566,1030.650855889752,1272.7297191925077,1312.7297191925077,1312.7297191925077,0,0,0.9702976181393578,1,0.9882500041614879,1,0.9580909035422586,0.980818171934648,0.40207812190055847,0,0,1,1,1,1,1,1,1,1,1,1,1,0.891366662979126,0.9233333269755046,0.9702976181393578,1,0.9882500041614879,1,0.9580909035422586,0.980818171934648,0.40207812190055847,0,0,1,1,1,1,0.9999999999999999,1,1,1,1,0.9999999999999998,1,2019-05-17,2019-06-01,2019-06-04,2019-07-16,2019-08-12,2019-09-03,2019-09-04,2019-09-15,2019-09-26,2019-10-28,2019-11-05,2019-05-31,2019-06-03,2019-07-15,2019-08-11,2019-09-02,2019-09-03,2019-09-14,2019-09-25,2019-10-27,2019-11-04,2019-11-19,137,152,155,197,224,246,247,258,269,301,309,15,3,42,27,22,1,11,11,32,8,15,151,154,196,223,245,246,257,268,300,308,323
61,61,romney_in,40.2364,-86.8889,4.5,2019-06-08,38,2019,mid4,1401.8806686758342,11,2019-05-25,2019-06-08,161,2019-11-16,2019-11-24,2019-12-08,Harvested at Maturity.,5.709999990463257,1.4399999976158142,3.686410225354708,1.2651851971944172,4.311666627724965,0,0.7030000209808349,2.5245454961603335,2.3983721012292905,0.6812500283122063,2.9886666456858317,5.709999990463257,1.4399999976158142,3.686410225354708,1.2651851971944172,4.311666627724965,0,0.7030000209808349,2.5245454961603335,2.3983721012292905,0.6812500283122063,2.9886666456858317,20.004308319091795,19.616836071014404,20.29576607239552,20.788551719100386,16.271731972694397,15.57823371887207,16.16853771209717,12.642894744873047,9.790435863095661,6.959927558898926,5.827657858530681,27.011333465576172,24.40999937057495,29.32923096876878,28.351110952871817,26.487083435058594,31.190000534057617,28.980000305175782,27.648181915283203,13.667674441670263,6.716250002384186,7.330000034968058,21.224666817982992,19.31499969959259,23.781153947879105,22.02629620940597,20.91666664679845,25.61500072479248,22.340500116348267,21.603636394847523,7.797209331917381,2.2118749916553497,2.96066668741405,15.438000170389811,14.22000002861023,18.233076926989433,15.701481465940123,15.346249858538311,20.040000915527344,15.700999927520753,15.559090874411844,1.9267442221645006,-2.2925000190734863,-1.408666660139958,11.224666817982992,9.31499969959259,6.729952439099422,8.978780693998873,10.644618631015927,15.222995932126045,12.267064884215593,11.733935010778362,5.684089272748947,5,0.09226728656290412,11.224666817982992,9.31499969959259,6.729952439099422,8.978780693998873,10.644618631015927,15.222995932126045,12.267064884215593,11.733935010778362,5.684089272748947,5,0.09226728656290412,0,0,262.4681451248775,504.89522386284705,760.3660710072295,775.5890669393556,898.2597157815114,1027.333000900073,1271.748839628278,1311.748839628278,1311.748839628278,0,0,0.9623589760217911,0.9943888876173231,0.946729165315628,1,1,0.9342272715135054,0.1407325615716535,0,0,1,1,1,1,1,1,1,1,1,1,1,0.9699333413441976,0.8986249804496765,0.9623589760217911,0.9943888876173231,0.946729165315628,1,1,0.9342272715135054,0.1407325615716535,0,0,1,1,1,1,1,0.9999999999999996,0.9999999999999999,0.9999999999999999,1,1,1,2019-05-25,2019-06-09,2019-06-13,2019-07-22,2019-08-18,2019-09-11,2019-09-12,2019-09-22,2019-10-03,2019-11-15,2019-11-23,2019-06-08,2019-06-12,2019-07-21,2019-08-17,2019-09-10,2019-09-11,2019-09-21,2019-10-02,2019-11-14,2019-11-22,2019-12-07,145,160,164,203,230,254,255,265,276,319,327,15,4,39,27,24,1,10,11,43,8,15,159,163,202,229,253,254,264,275,318,326,341
62,62,columbia_mo,38.8894,-92.2081,4.5,2019-06-04,23,2019,mid4,1374.4384782746522,11,2019-05-21,2019-06-04,127,2019-10-09,2019-10-16,2019-10-30,Harvested at Maturity.,2.6193333844343822,16.125,3.775263165172778,1.9758333464463553,6.102999889850617,0,8.833636370572178,0,2.3428571550619033,6.231428759438651,4.627333345015844,2.6193333844343822,16.125,3.775263165172778,1.9758333464463553,6.102999889850617,0,8.833636370572178,0,2.3428571550619033,6.231428759438651,4.627333345015844,20.010273106892903,19.85502052307129,20.135771651017038,20.091215133666992,16.20180230140686,20.681974411010746,15.645485487851229,16.496417999267578,12.875445172900244,13.28012262071882,8.984675470987955,27.26933339436849,30.619998931884766,29.00815793087608,30.506666739781696,29.575,27.65999984741211,27.47999988902699,31.167499780654907,27.439047768002464,18.795714105878556,14.51533325513204,21.62666670481364,24.609999656677246,23.923947296644513,24.911666750907898,24.682249975204467,21.329999923706055,22.14590904929421,25.28437477350235,22.040476231347945,11.660714217594691,9.720666599273681,15.98400001525879,18.600000381469727,18.839736662412946,19.3166667620341,19.789499950408935,15,16.811818209561434,19.401249766349792,16.64190469469343,4.5257143293108255,4.925999943415324,11.625674906561375,13.92049397431612,7.157710496545881,9.753813442790447,12.867646042461372,11.329999923706056,12.007271500026095,14.299457316874712,11.921288076663302,6.191692873690171,1.5275102240534624,11.625674906561375,13.92049397431612,7.157710496545881,9.753813442790447,12.867646042461372,11.329999923706056,12.007271500026095,14.299457316874712,11.921288076663302,6.191692873690171,1.5275102240534624,0,0,271.9929988687434,506.084521495714,763.4374423449415,774.7674422686475,906.8474287689346,1021.2430873039324,1271.590136913862,1314.931987029693,1314.931987029693,0,0,0.9807763162412142,1,1,1,0.9880000027743253,1,0.8855952353704544,0.2334285684994289,0.025366668701171876,1,1,1,1,1,1,1,1,1,1,1,0.9577000013987224,1,0.9807763162412142,1,1,1,0.9880000027743253,1,0.8855952353704544,0.2334285684994289,0.11429999669392904,1,1,0.9999999999999999,1,1,1,1,0.9999999999999999,0.9999999999999999,1,1,2019-05-21,2019-06-05,2019-06-07,2019-07-15,2019-08-08,2019-08-28,2019-08-29,2019-09-09,2019-09-17,2019-10-08,2019-10-15,2019-06-04,2019-06-06,2019-07-14,2019-08-07,2019-08-27,2019-08-28,2019-09-08,2019-09-16,2019-10-07,2019-10-14,2019-10-29,141,156,158,196,220,240,241,252,260,281,288,15,2,38,24,20,1,11,8,21,7,15,155,157,195,219,239,240,251,259,280,287,302
63,63,crookston_mn,47.805,-96.61426667,-0.5,2018-05-23,1,2018,mid00,803.1634005770516,11,2018-05-09,2018-05-23,96,2018-08-27,2018-09-06,2018-09-20,Harvested at Maturity.,0.7759999910990397,1.1400000254313152,4.393076901252453,3.7568181536414404,0.36541664848725003,0,0,0,4.532500147819519,1.831000065803528,1.2619999726613365,0.7759999910990397,1.1400000254313152,4.393076901252453,3.7568181536414404,0.36541664848725003,0,0,0,4.532500147819519,1.831000065803528,1.2619999726613365,22.779508527119955,21.676725387573242,19.613713337824894,20.59162105213512,21.23135761419932,23.612634658813477,21.68590965270996,20.07460765838623,15.334429025650024,14.098362159729005,14.137828699747722,22.53733336130778,32.6533317565918,26.638461699852577,28.696818178350277,26.393333276112873,30.149999618530273,32.560000610351565,28.271999740600588,26.101250171661377,23.611000061035156,23.50266653696696,14.378333353996277,24.208332697550457,20.153846300565277,22.399090853604402,19.674999982118607,21.089999675750732,23.99800043106079,20.04399981498718,19.350625097751617,17.247000050544738,16.463333272933962,6.219333346684774,15.763333638509115,13.669230901277983,16.10136352885853,12.956666688124338,12.029999732971191,15.43600025177002,11.81599988937378,12.600000023841858,10.883000040054322,9.42400000890096,5.514474381776552,12.976483670632044,8.124923305901426,9.930472488682568,8.786587721370877,10.991460382076712,12.729173941085609,10.824021827715038,9.83331799800247,8.370696202350556,6.4210569606409464,5.514474381776552,12.976483670632044,8.124923305901426,9.930472488682568,8.786587721370877,10.991460382076712,12.729173941085609,10.824021827715038,9.83331799800247,8.370696202350556,6.4210569606409464,0,0,211.24800595343703,429.7184007044535,640.5965060173545,651.5879663994313,715.2338361048594,769.3539452434346,848.0204892274543,931.7274512509598,931.7274512509598,0,0,0.9000192330433773,0.996772727099332,0.8927499999602636,1,1,0.8965999937057495,0.9126875162124634,0.7169000029563904,0.02919999917348226,1,1,1,1,1,1,1,1,1,1,1,0.46346666653951013,1,0.9000192330433773,0.996772727099332,0.8927499999602636,1,1,0.8965999937057495,0.9126875162124634,0.7169000029563904,0.6153333234786987,1,1,1,0.9999999999999999,0.9999999999999999,1,1,1,1,1,1,2018-05-09,2018-05-24,2018-05-27,2018-06-22,2018-07-14,2018-08-07,2018-08-08,2018-08-13,2018-08-18,2018-08-26,2018-09-05,2018-05-23,2018-05-26,2018-06-21,2018-07-13,2018-08-06,2018-08-07,2018-08-12,2018-08-17,2018-08-25,2018-09-04,2018-09-19,129,144,147,173,195,219,220,225,230,238,248,15,3,26,22,24,1,5,5,8,10,15,143,146,172,194,218,219,224,229,237,247,262
64,64,shelly_mn,47.4264,-96.8317,-0.5,2018-05-24,31,2018,mid00,739.785023040424,11,2018-05-10,2018-05-24,94,2018-08-26,2018-09-05,2018-09-19,Harvested at Maturity.,0.5726666529973348,1.9233333269755046,3.215999972820282,2.3490909175439314,1.0850000008940697,NA,0,0,6.968749821186066,3.189999967813492,1.7486666599909466,0.5726666529973348,1.9233333269755046,3.215999972820282,2.3490909175439314,1.0850000008940697,NA,0,0,6.968749821186066,3.189999967813492,1.7486666599909466,23.08178342183431,21.379313151041668,19.588115043640137,21.319064357063986,21.00063133239746,NA,22.75956611633301,19.893659019470217,15.575627028942108,14.12363986968994,14.686726252237955,23.79400005340576,31.950000127156574,26.884799880981447,28.850454330444336,26.525416612625122,NA,31.650000381469727,29.33599967956543,25.957499980926514,23.682999992370604,24.382666524251302,15.49400001168251,23.64666684468587,20.403599948883056,22.59636354446411,19.84770831465721,NA,22.935000133514404,21.485999870300294,19.088124990463257,17.448000073432922,17.34766656557719,7.193999969959259,15.34333356221517,13.922400016784668,16.342272758483887,13.1700000166893,NA,14.219999885559082,13.636000061035157,12.21875,11.213000154495239,10.312666606903077,6.395726349780212,12.429936537988981,8.381716584617667,10.165048247289837,9.007860953411411,NA,12.382392285425672,11.582239910104274,9.629622952069342,8.484863095897436,6.952425011847218,6.395726349780212,12.429936537988981,8.381716584617667,10.165048247289837,9.007860953411411,NA,12.382392285425672,11.582239910104274,9.629622952069342,8.484863095897436,6.952425011847218,0,0,209.54291461544167,433.17397605581823,649.3626389376923,NA,711.2746003648206,769.1857999153419,846.2227835318967,931.0714144908712,931.0714144908712,0,0,0.9192200050354005,0.9972727298736572,0.908729162812233,NA,1,0.9213999938964844,0.8952500045299531,0.7315500044822694,0.054433336257934575,1,1,1,1,1,NA,1,1,1,1,1,0.5383666690190634,1,0.9192200050354005,0.9972727298736572,0.908729162812233,NA,1,0.9213999938964844,0.8952500045299531,0.7315500044822694,0.6979666598637899,1,1,0.9725536616282973,1,1,NA,1,0.9999999999999999,0.9999999999999999,0.9999999999999999,1,2018-05-10,2018-05-25,2018-05-28,2018-06-22,2018-07-14,NA,2018-08-07,2018-08-12,2018-08-17,2018-08-25,2018-09-04,2018-05-24,2018-05-27,2018-06-21,2018-07-13,2018-08-06,NA,2018-08-11,2018-08-16,2018-08-24,2018-09-03,2018-09-18,130,145,148,173,195,NA,219,224,229,237,247,15,3,25,22,24,0,5,5,8,10,15,144,147,172,194,218,NA,223,228,236,246,261
65,65,casselton_nd,46.8866,-97.2386,-0.5,2018-05-07,4,2018,mid00,770.6746948419756,11,2018-04-23,2018-05-07,98,2018-08-13,2018-08-21,2018-09-04,Harvested at Maturity.,0.7733333269755046,0.11999999625342232,3.3011538890691905,2.9878260778344194,3.2614286059424993,2.369999885559082,0.23333332935969034,0.8566666692495346,0,4.271250069141388,7.85666675567627,0.7733333269755046,0.11999999625342232,3.3011538890691905,2.9878260778344194,3.2614286059424993,2.369999885559082,0.23333332935969034,0.8566666692495346,0,4.271250069141388,7.85666675567627,25.533968226114908,22.424075807843888,21.055822482475868,19.516128581503164,20.28542137145996,18.486351013183594,23.439985911051433,20.912221908569336,21.977214177449547,17.127051651477814,15.080699507395426,21.08733336130778,21.12142848968506,27.764230948228104,27.606086979741637,28.15428570338658,27.950000762939453,25.94166628519694,27.358333269755047,30.67833360036214,28.067500114440918,24.493333435058595,11.978333334128061,13.755714224917547,20.039038493083073,21.545652202937912,22.181190490722656,20.395000457763672,18.739999771118164,19.934166590372723,22.522500038146973,21.037500023841858,18.04233333269755,2.8693333069483438,6.389999960150038,12.313846037938044,15.485217426134191,16.20809527805873,12.84000015258789,11.538333257039387,12.509999910990397,14.366666475931805,14.007499933242798,11.591333230336508,4.11113484268407,4.9425205656214475,8.438607877192828,9.306258684763622,10.312612140133131,9.479239866883487,8.798235277582172,10.205780263411153,12.04582764261442,11.05314755904898,7.548165923050642,4.11113484268407,4.9425205656214475,8.438607877192828,9.306258684763622,10.312612140133131,9.479239866883487,8.798235277582172,10.205780263411153,12.04582764261442,11.05314755904898,7.548165923050642,0,0,219.40380480701347,433.4477545565769,650.0126094993724,659.4918493662559,712.281261031749,773.515942612216,845.7909084679025,934.2160889402944,934.2160889402944,0,0,0.8434807795744677,0.9654565209927767,0.995023809160505,1,0.8707499821980794,0.8489166577657064,1,0.9464375078678131,0.053399998346964524,1,1,1,1,1,1,1,1,1,1,1,0.273100000222524,0.4274999993188041,0.8434807795744677,0.9654565209927767,0.995023809160505,1,0.8707499821980794,0.8489166577657064,1,0.9464375078678131,0.7881333335240682,1,1,1,1,1,1,1,0.9999999999999999,1,1,1,2018-04-23,2018-05-08,2018-05-15,2018-06-10,2018-07-03,2018-07-24,2018-07-25,2018-07-31,2018-08-06,2018-08-12,2018-08-20,2018-05-07,2018-05-14,2018-06-09,2018-07-02,2018-07-23,2018-07-24,2018-07-30,2018-08-05,2018-08-11,2018-08-19,2018-09-03,113,128,135,161,184,205,206,212,218,224,232,15,7,26,23,21,1,6,6,6,8,15,127,134,160,183,204,205,211,217,223,231,246
66,66,ottawa_ont,45.3712,-75.72575,-0.5,2018-05-18,5,2018,mid00,552.9330680593961,11,2018-05-04,2018-05-18,98,2018-08-24,2018-08-31,2018-09-14,Harvested at Maturity.,0.4206666628519694,3.15666663646698,2.86999997586915,0.8138095282372975,8.298333247502645,NA,6.0440000057220455,0,3.381250098347664,2.1314285738127574,0.9753333379824957,0.4206666628519694,3.15666663646698,2.86999997586915,0.8138095282372975,8.298333247502645,NA,6.0440000057220455,0,3.381250098347664,2.1314285738127574,0.9753333379824957,24.766964213053384,20.83176310857137,20.201155243497904,21.84673427400135,16.191268550025093,NA,13.423645973205566,20.2296443939209,17.030440092086792,17.074077333722794,15.105426025390624,20.54600009918213,22.056666374206543,23.967878832961574,30.394761585053942,27.96722231970893,NA,28.768000030517577,27.61599998474121,25.18750023841858,27.772857121058873,23.594666735331217,12.83400001724561,14.854999860127768,17.78545451886726,23.172618865966797,22.225555605358547,NA,23.964000320434568,21.271000099182128,20.043750166893005,21.675714220319474,17.99033335049947,5.121999935309092,7.653333346048991,11.60303020477295,15.95047614687965,16.483888891008164,NA,19.160000610351563,14.926000213623048,14.900000095367432,15.578571319580078,12.385999965667724,4.196470068174849,5.297351310510437,6.705173049866152,10.562080787535871,11.62911213185721,NA,13.66305257086277,11.396372910556792,10.118932202038913,11.814551170332942,7.697018959500989,4.196470068174849,5.297351310510437,6.705173049866152,10.562080787535871,11.62911213185721,NA,13.66305257086277,11.396372910556792,10.118932202038913,11.814551170332942,7.697018959500989,0,0,221.27071064558297,443.0744071838363,652.3984255572663,NA,720.7136884115802,777.6955529643641,858.6470105806753,941.348868773006,941.348868773006,0,0,0.7425151492610123,0.9755952426365444,0.9831944465637207,NA,1,0.9897999954223633,0.9712500035762787,0.9717857156481061,0.04129999796549479,1,1,1,1,1,NA,1,1,1,1,1,0.3147333363691966,0.4854999860127767,0.7425151492610123,0.9755952426365444,0.9831944465637207,NA,1,0.9897999954223633,0.9712500035762787,0.9717857156481061,0.6889333295822144,1,1,1,1,1,NA,1,1,1,0.9999999999999999,1,2018-05-04,2018-05-19,2018-05-25,2018-06-27,2018-07-18,NA,2018-08-05,2018-08-10,2018-08-15,2018-08-23,2018-08-30,2018-05-18,2018-05-24,2018-06-26,2018-07-17,2018-08-04,NA,2018-08-09,2018-08-14,2018-08-22,2018-08-29,2018-09-13,124,139,145,178,199,NA,217,222,227,235,242,15,6,33,21,18,0,5,5,8,7,15,138,144,177,198,216,NA,221,226,234,241,256
67,67,lapocatiere_que,47.357,-70.023,-0.5,2018-05-28,6,2018,mid00,573.0535977232727,11,2018-05-14,2018-05-28,119,2018-09-24,2018-10-10,2018-10-24,Harvested at Maturity.,0.8079999764760335,2.1200000411934323,1.488378392079392,2.762727266008204,2.480909130790017,0,2.3171427931104387,0.9555555582046509,2.069999948143959,1.4637500196695328,4.028666563580433,0.8079999764760335,2.1200000411934323,1.488378392079392,2.762727266008204,2.480909130790017,0,2.3171427931104387,0.9555555582046509,2.069999948143959,1.4637500196695328,4.028666563580433,25.49862855275472,19.942816734313965,21.522401448842643,17.482859589836814,17.83536265113137,15.360862731933594,14.222813197544642,14.99091010623508,12.004149532318115,9.45197194814682,6.77183559735616,17.766666603088378,19.434444639417862,23.216756769128747,26.033636526627973,25.1636363809759,26.93000030517578,23.038571493966238,19.951111051771377,20.44099998474121,13.146250009536743,8.47733325958252,10.755999946594239,13.378888938162062,16.89527024449529,20.74068184332414,19.62409088828347,22.06999969482422,17.915000132152013,14.055555502573648,14.947000002861023,8.554687484167516,4.886666639645894,3.7453332901000977,7.323333236906263,10.57378371986183,15.447727160020309,14.084545395591041,17.209999084472656,12.791428770337786,8.159999953375923,9.453000020980834,3.9631249587982893,1.2960000197092691,2.8737917043573162,4.331789692738983,5.745661821485065,9.8004649739771,9.607094495254964,12.06999969482422,8.876400806299703,6.772298578120603,7.444530733748079,5.237203498307057,0.0850591633383433,2.8737917043573162,4.331789692738983,5.745661821485065,9.8004649739771,9.607094495254964,12.06999969482422,8.876400806299703,6.772298578120603,7.444530733748079,5.237203498307057,0.0850591633383433,0,0,212.5894873949474,428.1997168224436,639.5557957180528,651.625795412877,713.7606010569749,774.7112882600603,849.1565955975411,932.951851570454,932.951851570454,0,0,0.6324729751896214,0.9483863657171077,0.8933636383576826,1,0.7231428725378855,0.4196666638056437,0.4988500022888184,0.06856249943375588,3.666655222574867e-4,1,1,1,1,1,1,1,1,1,1,1,0.17986666361490886,0.3836666716469659,0.6324729751896214,0.9483863657171077,0.8933636383576826,1,0.7231428725378855,0.4196666638056437,0.4988500022888184,0.06856249943375588,3.666655222574867e-4,1,1,1,1,1,1,0.9999999999999999,1,0.9999999999999999,1,1,2018-05-14,2018-05-29,2018-06-07,2018-07-14,2018-08-05,2018-08-27,2018-08-28,2018-09-04,2018-09-13,2018-09-23,2018-10-09,2018-05-28,2018-06-06,2018-07-13,2018-08-04,2018-08-26,2018-08-27,2018-09-03,2018-09-12,2018-09-22,2018-10-08,2018-10-23,134,149,158,195,217,239,240,247,256,266,282,15,9,37,22,22,1,7,9,10,16,15,148,157,194,216,238,239,246,255,265,281,296
68,68,stmathieudebeloeil_que,45.5834,-73.2422,-0.5,2018-05-24,7,2018,mid00,562.6759313128553,11,2018-05-10,2018-05-24,91,2018-08-23,2018-08-30,2018-09-13,Harvested at Maturity.,1.290666651725769,4.740000128746033,3.1054839241889214,1.7976190674872625,3.7718750834465027,0,5.345000058412552,0.8319999694824218,0.9228571483067104,2.537142889840262,4.1053332964579266,1.290666651725769,4.740000128746033,3.1054839241889214,1.7976190674872625,3.7718750834465027,0,5.345000058412552,0.8319999694824218,0.9228571483067104,2.537142889840262,4.1053332964579266,23.62016626993815,14.563863515853882,20.401557091743715,21.133412315731956,16.376367509365082,20.455604553222656,13.541470289230347,19.13603801727295,18.19143431527274,15.630397932870048,14.645952796936035,20.96266663869222,23.332499504089355,24.009677333216512,29.831904547555105,28.451249957084656,30.989999771118164,29.039999961853027,28.30800018310547,26.19285719735282,27.208571570260183,24.220000076293946,14.016999981800716,18.34374976158142,18.08645156891115,23.366190410795667,23.400312542915344,24.72000026702881,24.324999809265137,22.354000091552734,20.719285692487443,21.852142878941127,18.74766666094462,7.07133332490921,13.355000019073486,12.163225804605792,16.900476274036226,18.349375128746033,18.450000762939453,19.609999656677246,16.400000000000002,15.24571418762207,16.49571418762207,13.275333245595297,4.978792927092016,8.343749761581421,6.864040316284005,10.930540110093673,12.749737150909128,14.489590216720106,14.015638007110358,12.357567876548767,10.748437413357838,11.887927856751851,7.918035530043046,4.978792927092016,8.343749761581421,6.864040316284005,10.930540110093673,12.749737150909128,14.489590216720106,14.015638007110358,12.357567876548767,10.748437413357838,11.887927856751851,7.918035530043046,0,0,212.78524980480415,442.3265921167712,646.3223865313172,660.8119767480373,716.8745287764788,778.6623681592226,853.9014300527274,937.1169250499904,937.1169250499904,0,0,0.7498870903445829,0.9772142864408947,1,1,1,1,0.9783571447644915,0.9657142911638533,0.06666666666666667,1,1,1,1,1,1,1,1,1,1,1,0.4304999947547913,0.8052499890327454,0.7498870903445829,0.9772142864408947,1,1,1,1,0.9783571447644915,0.9657142911638533,0.7297333383560181,1,1,1,1,0.9999999999999999,1,1,1,1,1,1,2018-05-10,2018-05-25,2018-05-29,2018-06-29,2018-07-20,2018-08-05,2018-08-06,2018-08-10,2018-08-15,2018-08-22,2018-08-29,2018-05-24,2018-05-28,2018-06-28,2018-07-19,2018-08-04,2018-08-05,2018-08-09,2018-08-14,2018-08-21,2018-08-28,2018-09-12,130,145,149,180,201,217,218,222,227,234,241,15,4,31,21,16,1,4,5,7,7,15,144,148,179,200,216,217,221,226,233,240,255
69,69,ames_ia,42.0215,-93.7745,1.5,2018-05-25,15,2018,mid1,829.193187154176,11,2018-05-11,2018-05-25,96,2018-08-29,2018-09-06,2018-09-20,Harvested at Maturity.,1.3180000066757203,0,11.066896570139917,5.667894727305362,1.0615789262871993,NA,10.701666831970215,1.349999984105428,6.761666665474574,14.507499992847443,2.5746666272481282,1.3180000066757203,0,11.066896570139917,5.667894727305362,1.0615789262871993,NA,10.701666831970215,1.349999984105428,6.761666665474574,14.507499992847443,2.5746666272481282,18.919795417785643,25.22194480895996,17.59557819366455,21.425907385976693,22.029578660663805,NA,16.864954789479572,18.047734260559082,15.288672526677448,11.872874915599823,15.41701078414917,24.580666732788085,35.71666717529297,28.553448315324456,30.365262985229492,27.75947370027241,NA,29.381666501363117,29.36666711171468,26.855833371480305,26.53125,26.807333501180015,18.718333307902018,27.03333346048991,22.891896642487623,24.590526279650238,21.579736759788112,NA,23.428333282470703,23.360833485921223,21.710833390553795,21.8262500166893,20.996000003814697,12.85599988301595,18.349999745686848,17.230344969650794,18.81578957407098,15.399999819303813,NA,17.47500006357829,17.354999860127766,16.565833409627277,17.1212500333786,15.184666506449382,8.705356514489651,12.857036112348238,9.488178869911218,10.935997675661845,10.114051522144944,NA,12.981366373981782,13.27886741119822,11.789960785902043,12.006087523978204,9.998747099268835,8.705356514489651,12.857036112348238,9.488178869911218,10.935997675661845,10.114051522144944,NA,12.981366373981782,13.27886741119822,11.789960785902043,12.006087523978204,9.998747099268835,0,0,275.1571872274253,482.94114306500035,675.1081219857543,NA,752.9963202296449,832.6695246968342,974.1490541276588,1070.197754319484,1070.197754319484,0,0,0.9906206920229156,1,0.981999989559776,NA,1,1,0.9608333388964335,0.9381249964237213,0.06666666666666667,1,1,1,1,1,NA,1,1,1,1,1,0.7715333302815756,1,0.9906206920229156,1,0.981999989559776,NA,1,1,0.9608333388964335,0.9381249964237213,0.9124999968210856,1,1,1,0.9999999999999999,0.9999999999999999,NA,0.9999999999999999,0.9999999999999999,1,1,1,2018-05-11,2018-05-26,2018-05-29,2018-06-27,2018-07-16,NA,2018-08-04,2018-08-10,2018-08-16,2018-08-28,2018-09-05,2018-05-25,2018-05-28,2018-06-26,2018-07-15,2018-08-03,NA,2018-08-09,2018-08-15,2018-08-27,2018-09-04,2018-09-19,131,146,149,178,197,NA,216,222,228,240,248,15,3,29,19,19,0,6,6,12,8,15,145,148,177,196,215,NA,221,227,239,247,262
70,70,kanawha_ia,42.9333,-93.7924,1.5,2018-05-18,39,2018,mid1,905.9279072227456,11,2018-05-04,2018-05-18,105,2018-08-31,2018-09-09,2018-09-23,Harvested at Maturity.,3.3840000152587892,8.176000070571899,6.847999938329061,5.646363602443175,3.135499954223633,NA,7.6157141753605435,2.073333263397217,8.767692382519062,9.510000069936117,10.850666491190593,3.3840000152587892,8.176000070571899,6.847999938329061,5.646363602443175,3.135499954223633,NA,7.6157141753605435,2.073333263397217,8.767692382519062,9.510000069936117,10.850666491190593,19.216463629404704,15.225924110412599,18.40688613255819,20.46285226128318,21.499972534179687,NA,17.041497775486537,18.164697488149006,15.288036639873798,13.57838265101115,15.314271799723308,22.602000045776368,22.237999725341798,29.25233332316081,28.86045438593084,27.130500030517577,NA,27.921428680419922,28.585000038146973,25.606923029972958,25.096666547987198,26.50933329264323,16.376999998092653,16.757999897003174,23.100833304723103,23.28977257555181,21.02799997329712,NA,22.194285937717982,22.830833435058594,20.415769210228554,20.154444376627605,19.952333291371662,10.151999950408936,11.27800006866455,16.949333286285402,17.719090765172783,14.92549991607666,NA,16.467143195016043,17.076666831970215,15.22461539048415,15.212222205268011,13.395333290100098,6.569187573706309,6.767760174310208,9.2684088231942,9.78856174813781,9.432202588838743,NA,11.751930550680832,12.825969839964705,10.685917495015035,10.534122431839837,9.392540024576585,6.569187573706309,6.767760174310208,9.2684088231942,9.78856174813781,9.432202588838743,NA,11.751930550680832,12.825969839964705,10.685917495015035,10.534122431839837,9.392540024576585,0,0,278.052264695826,493.4006231548578,682.0446749316327,NA,764.3081887863985,841.2640078261867,980.1809352613822,1074.9880371479408,1074.9880371479408,0,0,0.9874833297729493,0.9998409097844905,0.9603499937057496,NA,1,1,0.9117307699643649,0.8947777854071723,0.04090000152587891,1,1,1,1,1,NA,1,1,1,1,1,0.6415333350499471,0.6546999931335449,0.9874833297729493,0.9998409097844905,0.9603499937057496,NA,1,1,0.9117307699643649,0.8947777854071723,0.8248333295186361,1,1,1,1,0.9999999999999999,NA,1,1,1,0.9999999999999999,1,2018-05-04,2018-05-19,2018-05-24,2018-06-23,2018-07-15,NA,2018-08-04,2018-08-11,2018-08-17,2018-08-30,2018-09-08,2018-05-18,2018-05-23,2018-06-22,2018-07-14,2018-08-03,NA,2018-08-10,2018-08-16,2018-08-29,2018-09-07,2018-09-22,124,139,144,174,196,NA,216,223,229,242,251,15,5,30,22,20,0,7,6,13,9,15,138,143,173,195,215,NA,222,228,241,250,265
71,71,wanatah_in,41.4444,-86.9437,1.5,2018-05-25,20,2018,mid1,768.986165293548,11,2018-05-11,2018-05-25,96,2018-08-29,2018-09-05,2018-09-19,Harvested at Maturity.,3.625333348910014,0,3.5154837946737967,1.9475000321865081,2.1488888528611927,NA,9.538333455721537,0,5.35083344578743,2.5271428823471065,2.333333396911621,3.625333348910014,0,3.5154837946737967,1.9475000321865081,2.1488888528611927,NA,9.538333455721537,0,5.35083344578743,2.5271428823471065,2.333333396911621,18.813925361633302,23.037665367126465,18.698119209658714,21.858714866638184,19.583313200208874,NA,15.647837797800701,20.020845794677733,15.20501939455668,15.507885796683176,14.794680913289389,22.804666582743327,33.02500057220459,27.303225855673514,30.38449983596802,27.14055569966634,NA,29.781666437784832,29.302000427246092,27.52333354949951,29.38142830984933,26.51533342997233,16.875333309173584,25.90000009536743,21.988064519820675,24.379499888420106,21.640277862548828,NA,24.5108331044515,23.529000282287598,22.57166667779287,23.64571407863072,21.036666679382325,10.946000035603841,18.774999618530273,16.672903183967836,18.37449994087219,16.140000025431316,NA,19.239999771118164,17.756000137329103,17.619999806086224,17.90999984741211,15.557999928792318,6.86072002915899,14.03196044136882,8.97576333925282,11.022182672883606,10.397448476000475,NA,13.934685222736281,13.521052177107334,12.356145667884748,13.17664374667917,9.717036827097735,6.86072002915899,14.03196044136882,8.97576333925282,11.022182672883606,10.397448476000475,NA,13.934685222736281,13.521052177107334,12.356145667884748,13.17664374667917,9.717036827097735,0,0,278.2486635168374,498.6923169745094,685.846389542518,NA,769.4545008789356,837.0597617644723,985.3335097790894,1077.5700160058434,1077.5700160058434,0,0,0.9635161307550246,0.9980250024795532,0.985472223493788,NA,1,1,0.9769583384195963,0.9756428514208112,0.06666666666666667,1,1,1,1,1,NA,1,1,1,1,1,0.6554666646321615,1,0.9635161307550246,0.9980250024795532,0.985472223493788,NA,1,1,0.9769583384195963,0.9756428514208112,0.8986666742960612,1,1,1,0.9999999999999999,0.9970995167803687,NA,0.9999999999999999,1,0.9999999999999999,1,1,2018-05-11,2018-05-26,2018-05-28,2018-06-28,2018-07-18,NA,2018-08-05,2018-08-11,2018-08-16,2018-08-28,2018-09-04,2018-05-25,2018-05-27,2018-06-27,2018-07-17,2018-08-04,NA,2018-08-10,2018-08-15,2018-08-27,2018-09-03,2018-09-18,131,146,148,179,199,NA,217,223,228,240,247,15,2,31,20,18,0,6,5,12,7,15,145,147,178,198,216,NA,222,227,239,246,261
72,72,eastlansing_mi,42.6296,-84.4375,1.5,2018-06-07,16,2018,mid1,763.7026376514821,11,2018-05-24,2018-06-07,101,2018-09-16,2018-09-25,2018-10-09,Harvested at Maturity.,1.8979999383290609,6.2749998569488525,1.3032258133734427,0.915909081697464,3.183999983469645,NA,3.2657142536980763,4.522857257298061,1.5838461289039025,4.660000059339735,6.010000014305115,1.8979999383290609,6.2749998569488525,1.3032258133734427,0.915909081697464,3.183999983469645,NA,3.2657142536980763,4.522857257298061,1.5838461289039025,4.660000059339735,6.010000014305115,20.991928164164225,16.135050535202026,21.617287605039536,19.73438327962702,17.8626233736674,NA,15.792925153459823,16.36149651663644,14.536878512455866,14.654787063598633,11.384018675486246,27.259999974568686,23.567500114440918,28.38225801529423,27.667273087935015,28.925333658854168,NA,25.594285692487443,28.14571407863072,24.86230776860164,26.31888919406467,19.52266699473063,20.776000006993613,18.96874988079071,22.13838706477996,21.742954709313132,23.20133352279663,NA,20.31571422304426,22.3271427154541,19.74538465646597,20.133889039357502,14.16400016148885,14.292000039418538,14.369999647140503,15.894516114265688,15.818636330691252,17.477333386739094,NA,15.037142753601074,16.50857135227748,14.628461544330303,13.948888884650335,8.80533332824707,10.47224811404427,8.968749880790712,8.732092607354533,9.934074783778279,12.786909656342234,NA,10.462560510359491,12.435271173564024,10.187748289158252,10.741941742713584,4.459900365452369,10.47224811404427,8.968749880790712,8.732092607354533,9.934074783778279,12.786909656342234,NA,10.462560510359491,12.435271173564024,10.187748289158252,10.741941742713584,4.459900365452369,0,0,270.6948708279904,489.24451607111257,681.0481609162462,NA,754.2860844887625,841.3329827037106,973.773710462768,1070.45118614719,1070.45118614719,0,0,0.9669516132723901,0.9916590929031373,1,NA,0.9514285700661795,0.9545714242117745,0.7989615440368653,0.8557777828640408,0.022766669591267902,1,1,1,1,1,NA,1,1,1,1,1,0.8601000038782756,0.8789999961853028,0.9669516132723901,0.9916590929031373,1,NA,0.9514285700661795,0.9545714242117745,0.7989615440368653,0.8557777828640408,0.42626667976379395,1,1,1,1,1,NA,0.9999999999999999,0.9999999999999999,0.9999999999999999,0.9999999999999999,1,2018-05-24,2018-06-08,2018-06-12,2018-07-13,2018-08-04,NA,2018-08-19,2018-08-26,2018-09-02,2018-09-15,2018-09-24,2018-06-07,2018-06-11,2018-07-12,2018-08-03,2018-08-18,NA,2018-08-25,2018-09-01,2018-09-14,2018-09-23,2018-10-08,144,159,163,194,216,NA,231,238,245,258,267,15,4,31,22,15,0,7,7,13,9,15,158,162,193,215,230,NA,237,244,257,266,281
73,73,saginaw_mi,43.4003,-83.8684,1.5,2018-05-21,32,2018,mid1,854.2190231364061,11,2018-05-07,2018-05-21,107,2018-09-05,2018-09-15,2018-09-29,Harvested at Maturity.,3.2420000076293944,0,2.331621653324849,1.703636352650144,2.837058887762182,NA,0,5.718571390424456,10.430000106493631,1.0950000405311584,0.9880000114440918,3.2420000076293944,0,2.331621653324849,1.703636352650144,2.837058887762182,NA,0,5.718571390424456,10.430000106493631,1.0950000405311584,0.9880000114440918,18.920849609375,24.782410144805908,20.336994763967155,20.71857044913552,18.239826623131247,NA,20.88251845041911,13.26464067186628,14.23299773534139,14.937156581878662,13.518008104960124,20.561333433787027,26.25749969482422,26.85756760674554,29.2240910096602,28.397058711332434,NA,29.486666679382324,26.38428579057966,27.299999872843426,23.72500057220459,23.444000244140625,14.047333375612894,18.242499828338623,20.72351355810423,22.707045490091495,22.379411781535428,NA,22.85166652997335,21.95857129778181,21.714999953905743,18.534000301361083,17.761333481470743,7.533333317438761,10.227499961853027,14.589459509462923,16.189999970522795,16.361764851738425,NA,16.216666380564373,17.532856804983957,16.13000003496806,13.343000030517578,12.078666718800863,4.861514079034329,8.244389707025887,7.642093565928063,9.479527765198672,11.14081014157066,NA,12.753320617664045,11.958571297781809,11.882140738639237,9.132301823089122,7.310892508266568,4.861514079034329,8.244389707025887,7.642093565928063,9.479527765198672,11.14081014157066,NA,12.753320617664045,11.958571297781809,11.882140738639237,9.132301823089122,7.310892508266568,0,0,282.7574619393383,491.307072773709,680.7008451804103,NA,757.2207688863946,840.9307679708672,983.516456834538,1074.8394750654295,1074.8394750654295,0,0,0.8879189239965903,0.9919545455412432,0.9978823521557976,NA,1,1,0.9573750058809916,0.7338500213623047,0.06666666666666667,1,1,1,1,1,NA,1,1,1,1,1,0.44103333870569866,0.7601249933242797,0.8879189239965903,0.9919545455412432,0.9978823521557976,NA,1,1,0.9573750058809916,0.7338500213623047,0.709633339246114,1,1,1,0.9999999999999999,1,NA,1,0.9999999999999999,1,0.9999999999999999,1,2018-05-07,2018-05-22,2018-05-26,2018-07-02,2018-07-24,NA,2018-08-10,2018-08-16,2018-08-23,2018-09-04,2018-09-14,2018-05-21,2018-05-25,2018-07-01,2018-07-23,2018-08-09,NA,2018-08-15,2018-08-22,2018-09-03,2018-09-13,2018-09-28,127,142,146,183,205,NA,222,228,235,247,257,15,4,37,22,17,0,6,7,12,10,15,141,145,182,204,221,NA,227,234,246,256,271
74,74,danvers_mn,45.2803,-95.7591,1.5,2018-05-21,33,2018,mid1,1066.0930833784662,11,2018-05-07,2018-05-21,111,2018-09-09,2018-09-17,2018-10-01,Harvested at Maturity.,1.8020000457763672,2.006666660308838,3.9894286394119263,6.7252174875010615,2.737894717015718,0,0,8.37374997138977,3.3464285305568153,0,2.2886666933695476,1.8020000457763672,2.006666660308838,3.9894286394119263,6.7252174875010615,2.737894717015718,0,0,8.37374997138977,3.3464285305568153,0,2.2886666933695476,21.182831891377766,20.2755708694458,18.96214884349278,19.48131897138513,20.22505162891589,22.090309143066406,18.330732981363933,16.908186554908752,14.83490092413766,15.955568671226501,11.762898826599121,23.281999842325845,28.883333206176758,27.662571552821568,29.078260919322137,27.06473701878598,30.059999465942383,29.21666685740153,25.6875,24.892857006617955,27.717499256134033,18.511333211263022,16.039666604995727,21.761666456858315,21.801285798209054,23.435652193815812,20.853421035565827,22.714999675750732,23.425000031789143,19.945000052452087,19.403928518295288,21.323124706745148,13.243333264191945,8.797333367665608,14.639999707539875,15.940000043596541,17.793043468309484,14.642105052345677,15.369999885559082,17.633333206176758,14.202500104904175,13.91500002997262,14.928750157356262,7.97533331712087,6.525459268118342,11.183604185740153,7.8491734967664035,9.495020245548975,9.421106016025924,12.13943348474858,13.003260544283757,10.157569862119853,9.91217547756391,11.294689071160555,3.328918493139148,6.525459268118342,11.183604185740153,7.8491734967664035,9.495020245548975,9.421106016025924,12.13943348474858,13.003260544283757,10.157569862119853,9.91217547756391,11.294689071160555,3.328918493139148,0,0,274.7210723868241,493.1065380344507,672.1075523389432,684.2469858236917,762.2665490893943,843.5271079863531,982.297564672248,1072.6550772415324,1072.6550772415324,0,0,0.9739428547450475,1,0.9380789455614592,1,1,0.9461875021457672,0.8554999964577812,0.9283124923706055,0.06666666666666667,1,1,1,1,1,1,1,1,1,1,1,0.5824666627248128,0.9838333447774252,0.9739428547450475,1,0.9380789455614592,1,1,0.9461875021457672,0.8554999964577812,0.9283124923706055,0.3584999990463257,1,1,0.9603436312950193,0.9999999999999999,1,1,1,1,1,0.9999999999999999,1,2018-05-07,2018-05-22,2018-05-25,2018-06-29,2018-07-22,2018-08-10,2018-08-11,2018-08-17,2018-08-25,2018-09-08,2018-09-16,2018-05-21,2018-05-24,2018-06-28,2018-07-21,2018-08-09,2018-08-10,2018-08-16,2018-08-24,2018-09-07,2018-09-15,2018-09-30,127,142,145,180,203,222,223,229,237,251,259,15,3,35,23,19,1,6,8,14,8,15,141,144,179,202,221,222,228,236,250,258,273
75,75,rosemount_mn,44.707,-93.101,1.5,2018-05-19,9,2018,mid1,966.5326666296684,11,2018-05-05,2018-05-19,109,2018-09-05,2018-09-14,2018-09-28,Harvested at Maturity.,2.368666716416677,0,5.657714183841433,4.753181752833453,2.430999997258186,NA,0,1.271666685740153,3.5249999931880405,5.496666802300347,6.563999986648559,2.368666716416677,0,5.657714183841433,4.753181752833453,2.430999997258186,NA,0,1.271666685740153,3.5249999931880405,5.496666802300347,6.563999986648559,18.487783845265707,22.08661651611328,18.126309435708183,20.72526151483709,19.753495454788208,NA,20.57117811838786,16.677031358083088,13.879355362483434,15.692398918999565,11.531178045272828,22.263333066304526,23.182499885559082,27.00542869567871,28.967272758483887,26.594999980926513,NA,30.59166653951009,27.999999682108562,24.95642880031041,24.316666709052193,22.564000193277995,16.192666498819985,16.85749989748001,21.824714401790075,23.662272756749932,20.979750013351442,NA,24.270833015441895,22.80249993006388,20.17535720552717,18.641666730244953,17.729666709899902,10.121999931335449,10.53249990940094,16.644000107901437,18.35727275501598,15.364500045776367,NA,17.9499994913737,17.605000178019207,15.394285610743932,12.966666751437717,12.89533322652181,6.466933884188732,7.015434441324324,8.048790559299842,9.703279059481863,9.506733593791182,NA,13.814524388503388,12.802499930063885,10.413241768750122,9.331384658955203,6.968745824637016,6.466933884188732,7.015434441324324,8.048790559299842,9.703279059481863,9.506733593791182,NA,13.814524388503388,12.802499930063885,10.413241768750122,9.331384658955203,6.968745824637016,0,0,281.7076695754945,495.17980888409545,685.3144807599192,NA,768.2016270909396,845.0166266713229,990.8020114338244,1074.7844733644215,1074.7844733644215,0,0,0.9701571423666818,0.9969318173148415,0.9666749954223632,NA,1,1,0.898499996321542,0.820888900756836,0.06666666666666667,1,1,1,1,1,NA,1,1,1,1,1,0.6181999890009562,0.6594999849796296,0.9701571423666818,0.9969318173148415,0.9666749954223632,NA,1,1,0.898499996321542,0.820888900756836,0.6265666707356771,1,1,1,1,0.9999999999999999,NA,1,0.9999999999999999,1,1,1,2018-05-05,2018-05-20,2018-05-24,2018-06-28,2018-07-20,NA,2018-08-09,2018-08-15,2018-08-21,2018-09-04,2018-09-13,2018-05-19,2018-05-23,2018-06-27,2018-07-19,2018-08-08,NA,2018-08-14,2018-08-20,2018-09-03,2018-09-12,2018-09-27,125,140,144,179,201,NA,221,227,233,247,256,15,4,35,22,20,0,6,6,14,9,15,139,143,178,200,220,NA,226,232,246,255,270
76,76,mead_ne,41.15785,-96.42075,1.5,2018-05-17,10,2018,mid1,878.5914028093694,11,2018-05-03,2018-05-17,93,2018-08-18,2018-08-26,2018-09-09,Harvested at Maturity.,1.5833333174387614,2.4759999752044677,3.745000013938317,9.059999930858613,2.028125047683716,0,3.9128570556640625,3.3250000079472857,1.0990000009536742,7.331249758601189,8.773333398501078,1.5833333174387614,2.4759999752044677,3.745000013938317,9.059999930858613,2.028125047683716,0,3.9128570556640625,3.3250000079472857,1.0990000009536742,7.331249758601189,8.773333398501078,20.160080846150716,14.242370367050171,20.82523881472074,18.29061770439148,20.969749450683594,24.504087448120117,20.04430362156459,18.749273935953774,18.02880320549011,14.716552913188934,13.880077902475993,25.668000094095866,22.567999839782715,32.03192314734826,29.122500228881837,30.768750071525574,29.3700008392334,26.882856913975306,31.138333002726238,30.032999801635743,25.742500066757202,27.035999806722007,18.481333351135255,17.746000003814697,25.212307691574097,23.877500128746032,24.936874985694885,22.320000648498535,21.0707140650068,24.609999895095825,24.111999893188475,21.0412500500679,22.174666595458984,11.294666608174643,12.924000167846678,18.392692235799935,18.63250002861023,19.104999899864197,15.270000457763672,15.258571216038295,18.081666787465412,18.19099998474121,16.3400000333786,17.313333384195964,8.492844215913614,7.7460000038146974,10.699346630384127,10.368685089271432,11.849711826079586,10.93919617488206,10.14992835093646,13.52237411021929,13.612360456578541,11.084217799587549,11.048087500958443,8.492844215913614,7.7460000038146974,10.699346630384127,10.368685089271432,11.849711826079586,10.93919617488206,10.14992835093646,13.52237411021929,13.612360456578541,11.084217799587549,11.048087500958443,0,0,278.1830123899873,485.5567141754159,675.1521033926891,686.0912995675712,757.1407980241265,838.2750426854423,974.3986472512275,1063.0723896479278,1063.0723896479278,0,0,0.9983269251309909,0.9870749998092652,1,1,0.9969999994550433,1,1,0.9548124849796296,0.06666666666666667,1,1,1,1,1,1,1,1,1,1,1,0.8152333354949951,0.7394999980926513,0.9983269251309909,0.9870749998092652,1,1,0.9969999994550433,1,1,0.9548124849796296,0.962333329518636,1,1,1,0.9999999999999999,0.9999999999999999,0.9999999999999996,1,1,1,1,1,2018-05-03,2018-05-18,2018-05-23,2018-06-18,2018-07-08,2018-07-24,2018-07-25,2018-08-01,2018-08-07,2018-08-17,2018-08-25,2018-05-17,2018-05-22,2018-06-17,2018-07-07,2018-07-23,2018-07-24,2018-07-31,2018-08-06,2018-08-16,2018-08-24,2018-09-08,123,138,143,169,189,205,206,213,219,229,237,15,5,26,20,16,1,7,6,10,8,15,137,142,168,188,204,205,212,218,228,236,251
77,77,ridgetown_ont,42.4527,-81.8803,1.5,2018-05-31,40,2018,mid1,694.9250112703271,11,2018-05-17,2018-05-31,102,2018-09-10,2018-09-19,2018-10-03,Harvested at Maturity.,0.8013333400090535,1.484000015258789,2.042352953377892,3.3038095406123573,3.4820000330607095,0,7.556666851043701,1.8516666889190674,1.2158333559830983,2.1577777332729764,5.968666593233745,0.8013333400090535,1.484000015258789,2.042352953377892,3.3038095406123573,3.4820000330607095,0,7.556666851043701,1.8516666889190674,1.2158333559830983,2.1577777332729764,5.968666593233745,20.546619987487794,17.663002014160156,20.940542221069336,19.061440331595286,17.50699825286865,16.85525894165039,12.542029698689777,16.722992420196533,14.11275871594747,14.275298118591309,12.909185123443603,24.86533342997233,21.83199996948242,26.30058821509866,27.2257144564674,27.617333348592123,28.610000610351563,25.911666870117188,26.209999720255535,26.87833325068156,23.392222510443794,21.023333231608074,19.142000039418537,17.65200004577637,21.058529391008264,21.78452389580863,22.613666661580403,24.320000648498535,22.351666768391926,21.266666491826374,22.957916537920635,19.123889022403294,16.12233328819275,13.418666648864747,13.472000122070313,15.816470566917868,16.343333335149858,17.609999974568684,20.030000686645508,18.791666666666668,16.323333263397217,19.03749982515971,14.855555534362793,11.221333344777426,9.199907871253092,7.652000045776368,8.179395684554176,9.84455166261256,12.172419245053117,14.320000648498535,12.351666768391926,11.410264647301037,12.878571003214518,9.437161133688688,5.539128349749446,9.199907871253092,7.652000045776368,8.179395684554176,9.84455166261256,12.172419245053117,14.320000648498535,12.351666768391926,11.410264647301037,12.878571003214518,9.437161133688688,5.539128349749446,0,0,278.099453274842,484.8350381897056,667.4213268655025,681.741327514001,755.8513281243526,824.3129160081587,978.8557680467328,1063.790218249931,1063.790218249931,0,0,0.9140441137201646,0.9825238114311582,1,1,1,0.9413333336512248,0.956333331267039,0.8154444429609511,0.06666666666666667,1,1,1,1,1,1,1,1,1,1,1,0.7860333410898844,0.7257999992370606,0.9140441137201646,0.9825238114311582,1,1,1,0.9413333336512248,0.956333331267039,0.8154444429609511,0.5792666641871135,1,1,1,1,0.9999999999999999,1,1,0.9999999999999999,0.9999999999999999,0.9999999999999999,1,2018-05-17,2018-06-01,2018-06-06,2018-07-10,2018-07-31,2018-08-15,2018-08-16,2018-08-22,2018-08-28,2018-09-09,2018-09-18,2018-05-31,2018-06-05,2018-07-09,2018-07-30,2018-08-14,2018-08-15,2018-08-21,2018-08-27,2018-09-08,2018-09-17,2018-10-02,137,152,157,191,212,227,228,234,240,252,261,15,5,34,21,15,1,6,6,12,9,15,151,156,190,211,226,227,233,239,251,260,275
78,78,stpauls_ont,43.32515,-81.1402,1.5,2018-05-23,13,2018,mid1,797.3784330729819,11,2018-05-09,2018-05-23,116,2018-09-16,2018-09-26,2018-10-10,Harvested at Maturity.,1.9926666736602783,0,2.097179483144711,2.96115387403048,3.3600000458605153,NA,6.065000057220459,3.3600000143051147,2.0399999788829257,1.490999984741211,4.413999978701273,1.9926666736602783,0,2.097179483144711,2.96115387403048,3.3600000458605153,NA,6.065000057220459,3.3600000143051147,2.0399999788829257,1.490999984741211,4.413999978701273,20.250433985392252,25.056279500325523,20.992496417118954,19.925238279195934,17.90939763013054,NA,14.851478695869446,13.585907459259033,14.08402783530099,14.871823596954346,10.012533140182494,19.76733341217041,27.843333562215168,25.510256302662384,26.498461649968075,27.23235298605526,NA,24.52500009536743,25.48714283534459,23.914999961853027,23.421000003814697,18.42133331298828,13.450666689872742,19.855000098546345,19.68769233654707,20.423076941416813,21.673235276166132,NA,19.934375166893005,21.264285768781388,19.0628571169717,17.60200001001358,13.566666650772095,7.133999967575074,11.866666634877523,13.865128370431753,14.347692232865553,16.114117566277,NA,15.343750238418579,17.04142870221819,14.210714272090367,11.783000016212464,8.711999988555908,4.218074334232608,9.912814237588643,7.095720148107832,8.378219620144376,11.200240830335142,NA,10.09670443495661,11.457397148311138,9.852519273393495,8.86841640261069,3.6702632226403553,4.218074334232608,9.912814237588643,7.095720148107832,8.378219620144376,11.200240830335142,NA,10.09670443495661,11.457397148311138,9.852519273393495,8.86841640261069,3.6702632226403553,0,0,276.73308577620537,494.5667958999592,684.9708900156567,NA,765.7445254953095,845.9463055334875,983.8815753609964,1072.5657393871036,1072.5657393871036,0,0,0.8305769198980087,0.919980762555049,0.9976470554576201,NA,0.9201250076293945,0.9145000049046108,0.7553928511483329,0.6917500030994416,0.05609999974568685,1,1,1,1,1,NA,1,1,1,1,1,0.3724666698773702,0.9178333361943563,0.8305769198980087,0.919980762555049,0.9976470554576201,NA,0.9201250076293945,0.9145000049046108,0.7553928511483329,0.6917500030994416,0.3757666635513306,1,1,1,1,1,NA,1,0.9999999999999999,0.9999999999999999,1,1,2018-05-09,2018-05-24,2018-05-27,2018-07-05,2018-07-31,NA,2018-08-17,2018-08-25,2018-09-01,2018-09-15,2018-09-25,2018-05-23,2018-05-26,2018-07-04,2018-07-30,2018-08-16,NA,2018-08-24,2018-08-31,2018-09-14,2018-09-24,2018-10-09,129,144,147,186,212,NA,229,237,244,258,268,15,3,39,26,17,0,8,7,14,10,15,143,146,185,211,228,NA,236,243,257,267,282
79,79,woodstock_ont,43.14542,-80.78348,1.5,2018-05-25,8,2018,mid1,764.4908379907445,11,2018-05-11,2018-05-25,113,2018-09-15,2018-09-24,2018-10-08,Harvested at Maturity.,2.8266666889190675,0.7100000381469727,3.225526288936013,3.903599977493286,2.93500005453825,13.229999542236328,6.841428484235491,3.540000041325887,1.8480000038941702,0,5.294666719436646,2.8266666889190675,0.7100000381469727,3.225526288936013,3.903599977493286,2.93500005453825,13.229999542236328,6.841428484235491,3.540000041325887,1.8480000038941702,0,5.294666719436646,20.7968807220459,20.968940099080402,20.22633833634226,19.990157852172853,18.531252562999725,13.21636962890625,14.297947883605957,14.241732756296793,14.644686126708985,16.042920218573677,10.3928071975708,21.28466682434082,29.239999771118164,25.730263057507965,26.832400131225587,27.728749990463257,26.920000076293945,24.964285441807338,27.109999974568684,23.723333168029786,25.41666645473904,18.21066640218099,14.610666759808858,22.198333104451496,19.93881573175129,20.53600009918213,21.911874920129776,21.920000076293945,20.37785693577358,22.57749970753988,18.937666575113933,19.432222207387287,13.15733319123586,7.936666695276896,15.15666643778483,14.147368405994616,14.239600067138673,16.094999849796295,16.920000076293945,15.791428429739817,18.04499944051107,14.15199998219808,13.447777960035536,8.10399998029073,5.16649887418429,12.061555027254423,7.270898715539802,8.568622892917958,11.423082938451714,11.920000076293944,10.50063988745468,12.679855207751196,9.623330367492834,10.059541011679173,3.6049641263935968,5.16649887418429,12.061555027254423,7.270898715539802,8.568622892917958,11.423082938451714,11.920000076293944,10.50063988745468,12.679855207751196,9.623330367492834,10.059541011679173,3.6049641263935968,0,0,276.29415119051254,490.5097235134614,673.2790505286889,685.1990506049829,758.7035298171656,834.7826610636728,979.1326165760654,1069.668485681178,1069.668485681178,0,0,0.8364999959343359,0.9363600063323975,0.9969062507152557,1,0.9402142797197615,0.9759166558583577,0.7609666633605957,0.8351111094156901,0.010333332220713299,1,1,1,1,1,1,1,1,1,1,1,0.48110000610351566,1,0.8364999959343359,0.9363600063323975,0.9969062507152557,1,0.9402142797197615,0.9759166558583577,0.7609666633605957,0.8351111094156901,0.3325999855995178,1,1,1,0.9999999999999999,1,1,0.9999999999999999,1,0.9999999999999999,1,1,2018-05-11,2018-05-26,2018-05-29,2018-07-06,2018-07-31,2018-08-16,2018-08-17,2018-08-24,2018-08-30,2018-09-14,2018-09-23,2018-05-25,2018-05-28,2018-07-05,2018-07-30,2018-08-15,2018-08-16,2018-08-23,2018-08-29,2018-09-13,2018-09-22,2018-10-07,131,146,149,187,212,228,229,236,242,257,266,15,3,38,25,16,1,7,6,15,9,15,145,148,186,211,227,228,235,241,256,265,280
80,80,ames_ia,42.0215,-93.7745,2.5,2018-05-25,15,2018,mid2,999.5080809347592,11,2018-05-11,2018-05-25,109,2018-09-11,2018-09-17,2018-10-01,Harvested at Maturity.,1.3180000066757203,0,11.066896570139917,4.3599999904632565,4.615000036027697,NA,1.1571428435189384,8.831249952316284,8.397647023200989,0,5.350000075499216,1.3180000066757203,0,11.066896570139917,4.3599999904632565,4.615000036027697,NA,1.1571428435189384,8.831249952316284,8.397647023200989,0,5.350000075499216,18.919795417785643,25.22194480895996,17.59557819366455,21.420938301086426,20.485705004798042,NA,18.694888796125138,15.183982133865356,13.219166082494398,18.651179313659668,12.402026653289795,24.580666732788085,35.71666717529297,28.553448315324456,29.8847998046875,27.89277786678738,NA,29.66714314052037,25.771250247955322,25.973529254688938,28.701666831970215,21.974000040690104,18.718333307902018,27.03333346048991,22.891896642487623,24.213799896240236,21.577222241295708,NA,23.462142944335938,20.86687523126602,21.208823428434485,21.364166657129925,16.52699998219808,12.85599988301595,18.349999745686848,17.230344969650794,18.542799987792968,15.261666615804037,NA,17.257142748151505,15.962500214576721,16.444117602180032,14.026666482289631,11.079999923706055,8.705356514489651,12.857036112348238,8.270422848268609,9.654222461961238,9.779130603311517,NA,12.822639978415214,11.025138102862984,11.38649127536346,11.53287782722811,5.900178377924362,8.705356514489651,12.857036112348238,8.270422848268609,9.654222461961238,9.779130603311517,NA,12.822639978415214,11.025138102862984,11.38649127536346,11.53287782722811,5.900178377924362,0,0,239.84226259978968,481.1978241488207,657.2221750084279,NA,746.9806548573345,835.1817596802383,1028.752111361417,1097.9493783247856,1097.9493783247856,0,0,0.9906206920229156,1,0.9809999889797635,NA,1,0.9412500083446502,0.9155882302452536,0.9379166682561239,0.06666666666666667,1,1,1,1,1,NA,1,1,1,1,1,0.7715333302815756,1,0.9906206920229156,1,0.9809999889797635,NA,1,0.9412500083446502,0.9155882302452536,0.9379166682561239,0.552766669591268,1,1,1,1,0.9999999999999999,NA,0.9999999999999999,1,1,0.9999999999999999,1,2018-05-11,2018-05-26,2018-05-29,2018-06-27,2018-07-22,NA,2018-08-09,2018-08-16,2018-08-24,2018-09-10,2018-09-16,2018-05-25,2018-05-28,2018-06-26,2018-07-21,2018-08-08,NA,2018-08-15,2018-08-23,2018-09-09,2018-09-15,2018-09-30,131,146,149,178,203,NA,221,228,236,253,259,15,3,29,25,18,0,7,8,17,6,15,145,148,177,202,220,NA,227,235,252,258,273
81,81,pontiac_il,40.82216667,-88.62016667,2.5,2018-05-08,35,2018,mid2,1088.4350333945058,11,2018-04-24,2018-05-08,109,2018-08-25,2018-08-30,2018-09-13,Harvested at Maturity.,0.8859999895095826,2.3075000047683716,2.403703724896466,7.642592792157774,1.547058848773732,0,0,0.5600000123182932,1.634666665395101,9.222000217437744,3.462000020345052,0.8859999895095826,2.3075000047683716,2.403703724896466,7.642592792157774,1.547058848773732,0,0,0.5600000123182932,1.634666665395101,9.222000217437744,3.462000020345052,22.879222361246743,18.912126302719116,20.11882859689218,18.10447938353927,20.945006987627817,21.481992721557617,21.649260330200196,19.027589639027912,18.82466723124186,15.37154655456543,14.728435611724853,23.39066645304362,26.172500133514404,29.025555716620552,29.11370355111581,28.957058962653665,27.170000076293945,26.769000244140624,30.583333015441895,29.150666809082033,29.8560001373291,27.284000142415366,15.26366657714049,19.22125017642975,21.940555643152308,24.096111015037255,23.128235340118408,21.65499973297119,20.939500093460083,24.737500031789143,23.119000148773193,24.382000064849855,21.86000010172526,7.136666701237361,12.270000219345093,14.855555569684064,19.078518478958696,17.29941171758315,16.139999389648438,15.109999942779542,18.891667048136394,17.087333488464356,18.907999992370605,16.436000061035156,6.3921543410049875,9.221250176429749,8.673567845501552,9.311601620782458,9.834353684676351,9.437171170514334,9.343152116956228,13.036234023779706,12.95394456135114,13.529800832531452,10.60375562930425,6.3921543410049875,9.221250176429749,8.673567845501552,9.311601620782458,9.834353684676351,9.437171170514334,9.343152116956228,13.036234023779706,12.95394456135114,13.529800832531452,10.60375562930425,0,0,234.1863318285419,485.59957558966835,652.7835882291665,662.2207593996809,755.6522805692432,833.8696847119214,1028.1788531321886,1095.827857294846,1095.827857294846,0,0,0.9631851885053847,0.9967962936118797,0.9987647056579589,1,0.9811499929428101,1,0.9908999983469645,0.9664000034332275,0.06666666666666667,1,1,1,1,1,1,1,1,1,1,1,0.5368666627009709,0.8975000023841858,0.9631851885053847,0.9967962936118797,0.9987647056579589,1,0.9811499929428101,1,0.9908999983469645,0.9664000034332275,0.9399000040690104,1,1,1,0.9999999999999999,0.9999999999999999,1,0.9999999999999999,1,0.9999999999999999,1,1,2018-04-24,2018-05-09,2018-05-13,2018-06-09,2018-07-06,2018-07-23,2018-07-24,2018-08-03,2018-08-09,2018-08-24,2018-08-29,2018-05-08,2018-05-12,2018-06-08,2018-07-05,2018-07-22,2018-07-23,2018-08-02,2018-08-08,2018-08-23,2018-08-28,2018-09-12,114,129,133,160,187,204,205,215,221,236,241,15,4,27,27,17,1,10,6,15,5,15,128,132,159,186,203,204,214,220,235,240,255
82,82,urbana_il,40.05325,-88.23485,2.5,2018-05-07,17,2018,mid2,987.3956647261203,11,2018-04-23,2018-05-07,104,2018-08-19,2018-08-26,2018-09-09,Harvested at Maturity.,1.2693333228429158,11.206666310628256,2.7200000381469724,7.6700001192092895,4.2747057956807755,0,1.769999951124191,2.056666625870599,3.997142825807844,5.959999927452632,7.312666777769724,1.2693333228429158,11.206666310628256,2.7200000381469724,7.6700001192092895,4.2747057956807755,0,1.769999951124191,2.056666625870599,3.997142825807844,5.959999927452632,7.312666777769724,22.22492961883545,21.764448801676433,19.52449321746826,18.194789543151856,21.090756696813244,21.788658142089844,20.077321648597717,20.0385619269477,18.808313029153005,16.59226826259068,15.239562638600667,22.44933312733968,27.760000228881836,29.365199966430666,29.049999923706054,30.51235311171588,29.59000015258789,27.612499952316284,26.080000135633682,29.741428783961705,26.47000013078962,29.64800033569336,14.979333166281382,19.800000031789146,22.966199970245363,23.751200046539306,24.884411839877856,24.23499965667725,22.354374885559082,20.821111255221897,24.216428552355083,21.536428655896867,24.48133370081584,7.509333205223084,11.839999834696451,16.56719997406006,18.45240016937256,19.256470568039838,18.8799991607666,17.09624981880188,15.562222374810112,18.691428320748464,16.602857181004115,19.314667065938313,5.976867260297537,9.800000031789144,9.902368559801223,9.458924523710792,10.62796061919173,11.20186097248927,10.082135609715607,9.526591676903765,13.61370753869449,11.598822145370077,12.738806226534843,5.976867260297537,9.800000031789144,9.902368559801223,9.458924523710792,10.62796061919173,11.20186097248927,10.082135609715607,9.526591676903765,13.61370753869449,11.598822145370077,12.738806226534843,0,0,247.55921399503063,484.0323270878006,664.7076576140599,675.9095185865492,756.5666034642741,842.305928556408,1032.8978340981307,1114.089589115721,1114.089589115721,0,0,0.9965200023651123,1,1,1,1,0.9755555523766412,1,0.9679285730634417,0.06666666666666667,1,1,1,1,1,1,1,1,1,1,1,0.49963332533836363,0.9433333237965902,0.9965200023651123,1,1,1,1,0.9755555523766412,1,0.9679285730634417,0.9810333347320557,1,1,1,1,1,0.9999999999999998,0.9999999999999998,0.9999999999999999,0.9999999999999999,0.9999999999999999,1,2018-04-23,2018-05-08,2018-05-11,2018-06-05,2018-06-30,2018-07-17,2018-07-18,2018-07-26,2018-08-04,2018-08-18,2018-08-25,2018-05-07,2018-05-10,2018-06-04,2018-06-29,2018-07-16,2018-07-17,2018-07-25,2018-08-03,2018-08-17,2018-08-24,2018-09-08,113,128,131,156,181,198,199,207,216,230,237,15,3,25,25,17,1,8,9,14,7,15,127,130,155,180,197,198,206,215,229,236,251
83,83,wanatah_in,41.4444,-86.9437,2.5,2018-05-25,20,2018,mid2,928.8604968239124,11,2018-05-11,2018-05-25,106,2018-09-08,2018-09-16,2018-09-30,Harvested at Maturity.,3.625333348910014,0,3.5154837946737967,2.6024000120162962,1.972352939493516,36.27000045776367,0,7.515714509146554,3.960666720072428,0.6100000143051147,2.3853333115577695,3.625333348910014,0,3.5154837946737967,2.6024000120162962,1.972352939493516,36.27000045776367,0,7.515714509146554,3.960666720072428,0.6100000143051147,2.3853333115577695,18.813925361633302,23.037665367126465,18.698119209658714,21.082399940490724,18.86264554192038,17.161588668823242,19.796438217163086,14.278228214808871,15.18295644124349,14.924428224563599,14.732347742716472,22.804666582743327,33.02500057220459,27.303225855673514,29.691599884033202,27.796470642089844,31.149999618530273,29.240000406901043,26.945714133126394,29.193333435058594,23.425000190734863,25.230666605631512,16.875333309173584,25.90000009536743,21.988064519820675,23.87239990234375,22.321764749639176,24.019999504089355,23.587500254313152,22.492856911250524,23.626666641235353,18.29687511920929,19.050999959309895,10.946000035603841,18.774999618530273,16.672903183967836,18.053199920654297,16.847058857188504,16.889999389648438,17.93500010172526,18.03999968937465,18.059999847412108,13.168750047683716,12.87133331298828,6.86072002915899,14.03196044136882,7.871767137974952,9.6415020393548,10.461357557240204,12.943249862074165,13.244267805897048,12.492856911250524,12.969279088904063,8.713470791170746,8.170107479741375,6.86072002915899,14.03196044136882,7.871767137974952,9.6415020393548,10.461357557240204,12.943249862074165,13.244267805897048,12.492856911250524,12.969279088904063,8.713470791170746,8.170107479741375,0,0,244.02478127722347,485.06233226109345,662.905410734177,675.8486605962512,755.3142674316335,842.7642658103872,1037.303452143948,1107.011218473314,1107.011218473314,0,0,0.9635161307550246,0.9984200019836426,0.9846176484051873,1,1,0.9955714293888637,0.9722666676839192,0.8100000143051148,0.06666666666666667,1,1,1,1,1,1,1,1,1,1,1,0.6554666646321615,1,0.9635161307550246,0.9984200019836426,0.9846176484051873,1,1,0.9955714293888637,0.9722666676839192,0.8100000143051148,0.7381666723887126,1,1,1,0.9999999999999999,0.9953357702094514,1,1,1,0.9999999999999999,0.9999999999999999,1,2018-05-11,2018-05-26,2018-05-28,2018-06-28,2018-07-23,2018-08-09,2018-08-10,2018-08-16,2018-08-23,2018-09-07,2018-09-15,2018-05-25,2018-05-27,2018-06-27,2018-07-22,2018-08-08,2018-08-09,2018-08-15,2018-08-22,2018-09-06,2018-09-14,2018-09-29,131,146,148,179,204,221,222,228,235,250,258,15,2,31,25,17,1,6,7,15,8,15,145,147,178,203,220,221,227,234,249,257,272
84,84,eastlansing_mi,42.6296,-84.4375,2.5,2018-06-07,16,2018,mid2,826.6270023055845,11,2018-05-24,2018-06-07,114,2018-09-29,2018-10-10,2018-10-24,Harvested at Maturity.,1.8979999383290609,6.2749998569488525,1.3032258133734427,2.469999980468016,0.6913333336512247,0,4.412857123783657,4.9671429225376675,2.3133333580834523,7.84363638270985,1.837333345413208,1.8979999383290609,6.2749998569488525,1.3032258133734427,2.469999980468016,0.6913333336512247,0,4.412857123783657,4.9671429225376675,2.3133333580834523,7.84363638270985,1.837333345413208,20.991928164164225,16.135050535202026,21.617287605039536,19.244321914819572,17.620899772644044,21.884735107421875,15.076632227216448,14.11559704371861,14.794953255426316,10.656299461017955,9.763061300913492,27.259999974568686,23.567500114440918,28.38225801529423,28.103077301612267,27.67400016784668,26.520000457763672,27.242856979370117,28.784285681588308,23.58904793148949,19.25363653356379,13.589333248138429,20.776000006993613,18.96874988079071,22.13838706477996,22.175384796582737,22.258666769663492,19.13000011444092,21.971428394317627,23.36571420942034,17.890476374399093,13.871818260713058,8.561333287755648,14.292000039418538,14.369999647140503,15.894516114265688,16.247692291553204,16.843333371480306,11.739999771118164,16.699999809265137,17.94714273725237,12.191904817308698,8.489999987862326,3.5333333273728686,10.47224811404427,8.968749880790712,7.5688396050026725,9.479427447469902,11.896014843206554,9.130000114440918,12.052966332411765,13.214241456661906,8.86041422872146,6.620027001757514,1.1828364143969243,10.47224811404427,8.968749880790712,7.5688396050026725,9.479427447469902,11.896014843206554,9.130000114440918,12.052966332411765,13.214241456661906,8.86041422872146,6.620027001757514,1.1828364143969243,0,0,234.63402775508288,481.09914138930026,659.5393640373985,668.6693641518394,753.0401284787217,845.539818675355,1031.6085174785055,1104.4288144978384,1104.4288144978384,0,0,0.9669516132723901,0.9929423093795776,0.9923666636149089,0.9130000114440918,0.9392142908913749,0.9914999961853027,0.7192381075450353,0.40063636736436326,0.06666666666666667,1,1,1,1,1,1,1,1,1,1,1,0.8601000038782756,0.8789999961853028,0.9669516132723901,0.9929423093795776,0.9923666636149089,0.9130000114440918,0.9392142908913749,0.9914999961853027,0.7192381075450353,0.40063636736436326,0.14556666374206542,1,1,1,1,0.9999999999999999,1,0.9999999999999999,1,1,1,1,2018-05-24,2018-06-08,2018-06-12,2018-07-13,2018-08-08,2018-08-23,2018-08-24,2018-08-31,2018-09-07,2018-09-28,2018-10-09,2018-06-07,2018-06-11,2018-07-12,2018-08-07,2018-08-22,2018-08-23,2018-08-30,2018-09-06,2018-09-27,2018-10-08,2018-10-23,144,159,163,194,220,235,236,243,250,271,282,15,4,31,26,15,1,7,7,21,11,15,158,162,193,219,234,235,242,249,270,281,296
85,85,lenawee_mi,41.9,-84.07,2.5,2018-05-29,41,2018,mid2,882.3634510757086,11,2018-05-15,2018-05-29,112,2018-09-18,2018-09-25,2018-10-09,Harvested at Maturity.,2.733333365122477,5.100000023841858,2.135454524647106,2.223214336803981,2.776428597314017,0,5.188750073313713,1.4200000762939453,2.071666697661082,1.5085714885166712,6.826666673024495,2.733333365122477,5.100000023841858,2.135454524647106,2.223214336803981,2.776428597314017,0,5.188750073313713,1.4200000762939453,2.071666697661082,1.5085714885166712,6.826666673024495,21.103632418314618,16.40185260772705,20.052744056239273,21.629617350442068,18.14730753217425,19.77688980102539,15.055414319038391,15.8920259475708,15.019373125500149,15.131942476545062,12.316820748647054,26.733333079020184,31.295000076293945,27.242727568655305,29.423214231218612,29.707142966134207,30.190000534057617,26.85124969482422,28.84333324432373,26.25333325068156,26.677142551967076,22.46000010172526,19.49233325322469,25.68250036239624,21.39803047613664,22.322678548949106,23.138214247567312,23.579999923706055,21.528124809265137,23.316666682561237,20.55638885498047,19.99642845562526,16.053666734695433,12.251333427429199,20.070000648498535,15.553333383617979,15.2221428666796,16.569285529000418,16.969999313354492,16.204999923706055,17.790000120798748,14.859444459279379,13.315714359283447,9.647333367665608,9.007113804730574,15.215112466990945,7.280416863865306,8.842809571953456,11.924411199802488,13.499131536718297,11.653590639040619,13.229039077741902,10.671406380983194,10.683775010052749,6.127372856889566,9.007113804730574,15.215112466990945,7.280416863865306,8.842809571953456,11.924411199802488,13.499131536718297,11.653590639040619,13.229039077741902,10.671406380983194,10.683775010052749,6.127372856889566,0,0,240.25375650755507,487.8524245222518,654.7941813194866,668.2933128562049,761.5220379685298,840.8962724349813,1032.9815872926788,1107.768012363048,1107.768012363048,0,0,0.9367272803277681,0.9895714265959603,1,1,0.9738125026226044,0.965583332379659,0.8633888933393691,0.812357142993382,0.024299998283386234,1,1,1,1,1,1,1,1,1,1,1,0.8197999922434489,1,0.9367272803277681,0.9895714265959603,1,1,0.9738125026226044,0.965583332379659,0.8633888933393691,0.812357142993382,0.5895333401362102,1,1,1,1,1,1,0.9999999999999999,1,1,0.9999999999999999,1,2018-05-15,2018-05-30,2018-06-01,2018-07-04,2018-08-01,2018-08-15,2018-08-16,2018-08-24,2018-08-30,2018-09-17,2018-09-24,2018-05-29,2018-05-31,2018-07-03,2018-07-31,2018-08-14,2018-08-15,2018-08-23,2018-08-29,2018-09-16,2018-09-23,2018-10-08,135,150,152,185,213,227,228,236,242,260,267,15,2,33,28,14,1,8,6,18,7,15,149,151,184,212,226,227,235,241,259,266,281
86,86,lamberton_mn,44.24095,-95.3115,2.5,2018-05-16,42,2018,mid2,1149.3035094392117,11,2018-05-02,2018-05-16,122,2018-09-15,2018-09-24,2018-10-08,Harvested at Maturity.,1.7846667130788167,4.336000061035156,6.778823505429661,6.806071432573455,2.4168421626091003,0,0.6057142700467791,1.8374999724328518,2.2461110883288913,15.865555339389378,1.5240000247955323,1.7846667130788167,4.336000061035156,6.778823505429661,6.806071432573455,2.4168421626091003,0,0.6057142700467791,1.8374999724328518,2.2461110883288913,15.865555339389378,1.5240000247955323,20.752431869506836,18.78827838897705,17.113990180632648,20.70783703667777,20.35058267492997,20.276357650756836,17.022040367126465,17.076258420944214,15.015517976548937,11.415581226348877,11.346973609924316,21.796666463216145,22.96799964904785,27.79970584196203,28.796071461268834,27.276315889860456,30.229999542236328,28.507143020629883,25.96624994277954,25.22000005510118,23.95999993218316,15.183999951680502,15.28466658592224,16.96799988746643,22.239999967462875,23.481249962534225,21.198947429656982,24.03499984741211,23.24785716193063,20.40999984741211,19.794444375567966,19.11222216818068,10.054333316286405,8.772666708628336,10.968000125885009,16.680294092963724,18.166428463799612,15.12157896945351,17.84000015258789,17.988571303231375,14.853749752044678,14.36888869603475,14.264444404178196,4.924666680892309,5.779938223255674,7.0983389073097705,7.130246100194043,8.460298524490634,9.12138934012744,12.863205306619768,12.553277768074521,10.57387680420801,10.250339118132988,9.505928912970424,1.826950068298479,5.779938223255674,7.0983389073097705,7.130246100194043,8.460298524490634,9.12138934012744,12.863205306619768,12.553277768074521,10.57387680420801,10.250339118132988,9.505928912970424,1.826950068298479,0,0,242.42836740659743,479.3167260923353,652.6231235547566,665.4863288613764,753.359273237898,837.9502876715621,1022.456391797956,1108.0097520146896,1108.0097520146896,0,0,0.9748088205561919,1,0.9500263189014636,1,1,0.9431249916553497,0.8647500038146972,0.7111666599909465,0.04633333206176758,1,1,1,1,1,1,1,1,1,1,1,0.5358666610717774,0.6105999994277954,0.9748088205561919,1,0.9500263189014636,1,1,0.9431249916553497,0.8647500038146972,0.7111666599909465,0.1969333283106486,1,1,1,1,1,1,1,1,0.9999999999999999,0.9999999999999999,1,2018-05-02,2018-05-17,2018-05-22,2018-06-25,2018-07-23,2018-08-11,2018-08-12,2018-08-19,2018-08-27,2018-09-14,2018-09-23,2018-05-16,2018-05-21,2018-06-24,2018-07-22,2018-08-10,2018-08-11,2018-08-18,2018-08-26,2018-09-13,2018-09-22,2018-10-07,122,137,142,176,204,223,224,231,239,257,266,15,5,34,28,19,1,7,8,18,9,15,136,141,175,203,222,223,230,238,256,265,280
87,87,waseca_mn,44.07345,-93.53225,2.5,2018-05-17,43,2018,mid2,1085.5801322165996,11,2018-05-03,2018-05-17,123,2018-09-17,2018-09-26,2018-10-10,Harvested at Maturity.,4.887333273887634,0.678000020980835,5.934411750120275,3.8513793277329413,1.4584210640505741,0,5.731428759438651,4.221111085679796,9.507058872896081,10.276666747199165,4.792000007629395,4.887333273887634,0.678000020980835,5.934411750120275,3.8513793277329413,1.4584210640505741,0,5.731428759438651,4.221111085679796,9.507058872896081,10.276666747199165,4.792000007629395,18.974684524536134,18.762599182128906,17.047403251423557,20.765584057775037,20.4619174254568,21.165945053100582,15.264189720153809,14.313123332129585,14.868303439196419,11.51769987742106,8.811266628901164,21.58199996948242,21.729999923706053,27.445000087513645,28.143792974537817,26.68263154280813,31.020000457763672,27.53999982561384,24.156666649712456,25.81176466100356,23.384444766574436,13.268666648864746,15.609333292643228,16.21299991607666,22.11676476983463,22.94913781922439,20.778421050623844,24.270000457763672,22.594999926430837,19.34055561489529,20.235882310306323,18.26555567317539,9.315999989708265,9.636666615804037,10.695999908447266,16.78852945215562,17.754482663910963,14.874210558439556,17.520000457763672,17.650000027247838,14.524444580078125,14.659999959609088,13.14666657977634,5.363333330551783,5.920275414384008,6.293546942870616,7.153741939201184,8.288327870020247,9.112597530911136,13.20973637375317,12.30745167680381,9.769009639164475,10.632162557657326,9.362151495428549,1.2728429643016308,5.920275414384008,6.293546942870616,7.153741939201184,8.288327870020247,9.112597530911136,13.20973637375317,12.30745167680381,9.769009639164475,10.632162557657326,9.362151495428549,1.2728429643016308,0,0,243.22722593284016,483.5887341634274,656.7280872507388,669.9378236244919,756.0899853621185,844.0110721145987,1024.7578355947733,1109.0171990536303,1109.0171990536303,0,0,0.9742499982609468,0.9983793127125707,0.944157886505127,1,1,0.8609444512261285,0.8790294142330394,0.7110000054041544,0.013900000254313151,1,1,1,1,1,1,1,1,1,1,1,0.569133324623108,0.601599988937378,0.9742499982609468,0.9983793127125707,0.944157886505127,1,1,0.8609444512261285,0.8790294142330394,0.7110000054041544,0.11096666336059571,1,1,1,0.9999999999999999,0.9999999999999999,1,0.9999999999999999,0.9999999999999999,0.9999999999999999,0.9999999999999999,1,2018-05-03,2018-05-18,2018-05-23,2018-06-26,2018-07-25,2018-08-13,2018-08-14,2018-08-21,2018-08-30,2018-09-16,2018-09-25,2018-05-17,2018-05-22,2018-06-25,2018-07-24,2018-08-12,2018-08-13,2018-08-20,2018-08-29,2018-09-15,2018-09-24,2018-10-09,123,138,143,177,206,225,226,233,242,259,268,15,5,34,29,19,1,7,9,17,9,15,137,142,176,205,224,225,232,241,258,267,282
88,88,mead_ne,41.15785,-96.42075,2.5,2018-05-17,10,2018,mid2,1070.4712402693192,11,2018-05-03,2018-05-17,105,2018-08-30,2018-09-05,2018-09-19,Harvested at Maturity.,1.5833333174387614,2.4759999752044677,3.5707999992370607,7.280769192255461,3.5200000089757584,0,2.850000006811959,0,4.958666531244914,14.265000104904175,3.618666712443034,1.5833333174387614,2.4759999752044677,3.5707999992370607,7.280769192255461,3.5200000089757584,0,2.850000006811959,0,4.958666531244914,14.265000104904175,3.618666712443034,20.160080846150716,14.242370367050171,21.172227058410645,19.09433489579421,19.81830664242015,21.06731414794922,19.479642868041992,21.234591347830637,14.11048183441162,14.589598814646402,15.351318709055583,25.668000094095866,22.567999839782715,31.98800003051758,30.12192337329571,28.692352855906766,26.469999313354492,30.69285692487444,31.47857121058873,27.12599983215332,27.67833360036214,27.608666229248048,18.481333351135255,17.746000003814697,25.076999988555908,24.620577023579525,23.11205877977259,20.899999618530273,24.095714228493826,24.704999923706055,22.359666601816812,22.088333527247112,22.098999722798666,11.294666608174643,12.924000167846678,18.165999946594237,19.11923067386334,17.531764703638412,15.329999923706056,17.49857153211321,17.93142863682338,17.593333371480306,16.49833345413208,16.589333216349285,8.492844215913614,7.7460000038146974,9.401477226360944,9.427104629178212,10.259066925462966,9.34184934344957,12.165585872265519,13.396433621496552,12.15808101500813,12.255046536311507,10.881811935237248,8.492844215913614,7.7460000038146974,9.401477226360944,9.427104629178212,10.259066925462966,9.34184934344957,12.165585872265519,13.396433621496552,12.15808101500813,12.255046536311507,10.881811935237248,0,0,235.03693065902365,480.14165101765695,654.5457887505273,663.8876380939769,749.0467391998355,842.8217745503113,1025.1929897754333,1098.7232689933023,1098.7232689933023,0,0,0.9982600021362305,0.9900576921609732,0.9987647056579589,1,1,1,0.9758999919891358,0.9580833355585734,0.06666666666666667,1,1,1,1,1,1,1,1,1,1,1,0.8152333354949951,0.7394999980926513,0.9982600021362305,0.9900576921609732,0.9987647056579589,1,1,1,0.9758999919891358,0.9580833355585734,0.9567999903361003,1,1,1,1,1,0.9999999999999998,1,0.9999999999999999,0.9999999999999999,0.9999999999999998,1,2018-05-03,2018-05-18,2018-05-23,2018-06-17,2018-07-13,2018-07-30,2018-07-31,2018-08-07,2018-08-14,2018-08-29,2018-09-04,2018-05-17,2018-05-22,2018-06-16,2018-07-12,2018-07-29,2018-07-30,2018-08-06,2018-08-13,2018-08-28,2018-09-03,2018-09-18,123,138,143,168,194,211,212,219,226,241,247,15,5,25,26,17,1,7,7,15,6,15,137,142,167,193,210,211,218,225,240,246,261
89,89,hoytville_oh,41.2126,-83.7578,2.5,2018-05-30,44,2018,mid2,908.5375428958864,11,2018-05-16,2018-05-30,101,2018-09-08,2018-09-16,2018-09-30,Harvested at Maturity.,1.3913333098093668,4.566666603088379,5.708620630461595,0.7483333249886831,2.9206666549046836,17.40999984741211,6.360000014305115,4.135714258466448,1.4223076747013972,4.122500002384186,1.543333371480306,1.3913333098093668,4.566666603088379,5.708620630461595,0.7483333249886831,2.9206666549046836,17.40999984741211,6.360000014305115,4.135714258466448,1.4223076747013972,4.122500002384186,1.543333371480306,20.489294052124023,14.717572848002115,18.688861452299975,21.270044485727947,18.618607076009116,13.38681411743164,16.661080087934224,17.470748083932058,15.721945982712965,11.352145314216614,14.964808305104574,27.704666519165038,27.650000254313152,27.653792940337084,29.609166781107586,28.365999603271487,28.739999771118164,28.529999596732004,26.4985716683524,30.355384533221905,22.286250114440918,25.340000025431316,21.342666657765708,23.15000009536743,22.52741371352097,23.91479168335597,22.945333099365236,24.02999973297119,23.508571352277485,21.257143020629883,25.400384462796726,18.727500081062317,19.683333333333334,14.980666796366373,18.649999936421715,17.40103448670486,18.22041658560435,17.524666595458985,19.31999969482422,18.487143107822963,16.015714372907365,20.445384392371544,15.168750047683716,14.026666641235352,10.820623265050251,12.964406764316559,8.240686662151283,9.936965910438968,11.28644679535735,13.392295810319178,13.348499925711273,11.376041617834568,14.649920326826205,8.870906623668224,8.731007260646026,10.820623265050251,12.964406764316559,8.240686662151283,9.936965910438968,11.28644679535735,13.392295810319178,13.348499925711273,11.376041617834568,14.649920326826205,8.870906623668224,8.731007260646026,0,0,238.9799132023872,477.4670950529225,646.7637969832828,660.1560927936019,753.5955922735809,833.2278835984229,1023.6768478471636,1094.6441008365096,1094.6441008365096,0,0,0.9826206864981816,1,0.9994333330790202,1,1,0.9722142900739398,1,0.807562506198883,0.06666666666666667,1,1,1,1,1,1,1,1,1,1,1,0.9150999927520752,0.9856666723887125,0.9826206864981816,1,0.9994333330790202,1,1,0.9722142900739398,1,0.807562506198883,0.7713666598002116,1,1,1,0.9999999999999999,1,1,1,0.9999999999999999,1,0.9999999999999999,1,2018-05-16,2018-05-31,2018-06-03,2018-07-02,2018-07-26,2018-08-10,2018-08-11,2018-08-18,2018-08-25,2018-09-07,2018-09-15,2018-05-30,2018-06-02,2018-07-01,2018-07-25,2018-08-09,2018-08-10,2018-08-17,2018-08-24,2018-09-06,2018-09-14,2018-09-29,136,151,154,183,207,222,223,230,237,250,258,15,3,29,24,15,1,7,7,13,8,15,150,153,182,206,221,222,229,236,249,257,272
90,90,chatham_ont,42.38,-82.2524,2.5,2018-07-07,18,2018,mid2,587.2296501141907,11,2018-06-23,2018-07-07,111,2018-10-26,2018-11-09,2018-11-23,Harvested at Maturity.,2.0260000228881836,0,3.5871999716758727,3.4850000977516173,1.6008332980175812,0,1.5039999961853028,6.345555517408583,3.084482782873614,6.53571435383388,1.6580000042915344,2.0260000228881836,0,3.5871999716758727,3.4850000977516173,1.6008332980175812,0,1.5039999961853028,6.345555517408583,3.084482782873614,6.53571435383388,1.6580000042915344,20.530489222208658,26.05342165629069,18.655015506744384,16.590127992630006,14.446158011754353,10.923870086669922,14.002124214172364,13.556055598788792,10.86453102374899,5.8063560383660455,5.63930541674296,28.070666376749674,29.27333386739095,27.5092000579834,27.368499946594238,28.932499885559082,24.81999969482422,22.919999885559083,23.674444410536026,17.042068843183845,10.438571453094482,2.9773333787918093,22.934666474660236,22.1850004196167,22.30539999008179,22.691749930381775,24.651249806086224,22.05500030517578,18.791999959945677,18.83277776506212,12.274827547114471,7.096071425359696,0.11466665578385198,17.798666572570802,15.096666971842447,17.101599922180174,18.014999914169312,20.36999972661336,19.290000915527344,14.664000034332275,13.991111119588217,7.507586251045096,3.75357139762491,-2.748000067224105,12.523761481242975,12.152645763605832,9.54363319306099,12.166792803946223,14.414874262873331,12.05500030517578,9.033567810286284,9.503954931343264,6.5425900234036405,5,0,12.523761481242975,12.152645763605832,9.54363319306099,12.166792803946223,14.414874262873331,12.05500030517578,9.033567810286284,9.503954931343264,6.5425900234036405,5,0,0,0,238.5908298265248,481.9266859054492,654.9051770599292,666.960177365105,757.2958554679678,842.8314498500572,1032.5665605287627,1102.5665605287627,1102.5665605287627,0,0,0.9934799995422363,0.9896249961853028,1,1,0.806799988746643,0.7948888884650337,0.32791378662504,0.005035713740757533,0,1,1,1,1,1,1,1,1,1,1,1,0.9533666642506917,1,0.9934799995422363,0.9896249961853028,1,1,0.806799988746643,0.7948888884650337,0.32791378662504,0.005035713740757533,0,1,1,1,0.9999999999999999,1,1,0.9999999999999999,1,1,1,1,2018-06-23,2018-07-08,2018-07-11,2018-08-05,2018-08-25,2018-09-06,2018-09-07,2018-09-17,2018-09-26,2018-10-25,2018-11-08,2018-07-07,2018-07-10,2018-08-04,2018-08-24,2018-09-05,2018-09-06,2018-09-16,2018-09-25,2018-10-24,2018-11-07,2018-11-22,174,189,192,217,237,249,250,260,269,298,312,15,3,25,20,12,1,10,9,29,14,15,188,191,216,236,248,249,259,268,297,311,326
91,91,ivesdale_il,39.9481,-88.44975,4.5,2018-05-14,26,2018,mid4,1706.966843080825,11,2018-04-30,2018-05-14,143,2018-10-04,2018-10-08,2018-10-22,Harvested at Maturity.,2.1006666819254556,0.5833333333333334,5.160256475974352,2.8103125020861626,3.611666686832905,0,1.8229999661445617,10.097000217437744,1.3427272872491316,3.9450000524520874,0.6020000060399373,2.1006666819254556,0.5833333333333334,5.160256475974352,2.8103125020861626,3.611666686832905,0,1.8229999661445617,10.097000217437744,1.3427272872491316,3.9450000524520874,0.6020000060399373,21.393454869588215,20.780452728271484,18.619874000549316,20.38048180937767,18.644068360328674,11.756677627563477,16.973933696746826,14.34211106300354,15.591037663546475,11.810277223587036,11.043628438313801,27.332000096638996,27.816666920979817,29.468974333543045,29.44218760728836,28.50583330790202,24.65999984741211,28.37800006866455,28.188999748229982,27.74318166212602,28.52750015258789,16.677999941507974,19.938000082969666,21.34833351771037,23.71282049325796,24.05078123509884,23.24958332379659,21.78499984741211,23.105499982833862,23.296999883651733,20.830454436215486,21.647500157356262,10.765666647752127,12.544000069300333,14.880000114440918,17.95666665297288,18.659374862909317,17.993333339691162,18.90999984741211,17.832999897003173,18.405000019073487,13.917727210304953,14.767500162124634,4.853333353996277,10.01906334060381,11.348333517710369,6.819404814523226,7.51772295046889,10.58913433744061,11.148219115371832,12.649982969863167,12.433382276591061,10.90619636651982,11.782431982213259,2.9733929455802093,10.01906334060381,11.348333517710369,6.819404814523226,7.51772295046889,10.58913433744061,11.148219115371832,12.649982969863167,12.433382276591061,10.90619636651982,11.782431982213259,2.9733929455802093,0,0,265.95678776640585,506.5239221814102,760.663146279985,771.8113653953568,898.3111950939885,1022.6450178598992,1262.581337923335,1309.711065852188,1309.711065852188,0,0,0.9980256410745474,1,0.9891875008742015,1,0.9727500009536744,0.9427999925613404,0.8670227289199829,0.9858750104904175,0.06666666666666667,1,1,1,1,1,1,1,1,1,1,1,0.8888333360354106,1,0.9980256410745474,1,0.9891875008742015,1,0.9727500009536744,0.9427999925613404,0.8670227289199829,0.9858750104904175,0.2617000007629395,1,1,1,1,1,1,0.9999999999999999,0.9999999999999999,1,0.9999999999999998,1,2018-04-30,2018-05-15,2018-05-18,2018-06-26,2018-07-28,2018-08-21,2018-08-22,2018-09-01,2018-09-11,2018-10-03,2018-10-07,2018-05-14,2018-05-17,2018-06-25,2018-07-27,2018-08-20,2018-08-21,2018-08-31,2018-09-10,2018-10-02,2018-10-06,2018-10-21,120,135,138,177,209,233,234,244,254,276,280,15,3,39,32,24,1,10,10,22,4,15,134,137,176,208,232,233,243,253,275,279,294
92,92,neoga_il,39.323,-88.452,4.5,2018-05-11,45,2018,mid4,1667.6644213140448,11,2018-04-27,2018-05-11,137,2018-09-25,2018-09-30,2018-10-14,Harvested at Maturity.,1.5833333333333333,0,5.651111054751608,3.2238709695877565,4.764615398186904,11.989999771118164,8.333999907970428,1.2666666242811413,2.778999948501587,13.45200023651123,1.0006666660308838,1.5833333333333333,0,5.651111054751608,3.2238709695877565,4.764615398186904,11.989999771118164,8.333999907970428,1.2666666242811413,2.778999948501587,13.45200023651123,1.0006666660308838,21.764883740743002,20.31150722503662,19.666521708170574,19.296202136624245,18.893936230586124,10.869955062866213,14.717864513397217,16.469286918640137,15.602562856674195,12.626143836975098,11.45005734761556,25.032000033060708,30.52999973297119,30.378055307600235,30.632903191351122,28.850000014671913,25.68000030517578,27.623000144958496,31.160000059339737,29.020499897003173,23.83199996948242,25.12199986775716,17.469000001748405,24.22249984741211,24.234583192401463,25.139677416893743,23.364230797841,22.06999969482422,22.740999937057495,25.883333524068195,23.031499910354615,18.391999816894533,19.2836666226387,9.905999970436095,17.914999961853027,18.09111107720269,19.646451642436364,17.878461581010086,18.459999084472656,17.858999729156494,20.606666988796658,17.042499923706053,12.95199966430664,13.445333377520244,8.107720800635914,13.845973608899115,7.558816364652911,7.6723795499744885,9.77826930829058,10.650250013604172,12.020776573047993,14.864579846394063,12.260498587941228,9.006742176183462,9.570210054162244,8.107720800635914,13.845973608899115,7.558816364652911,7.6723795499744885,9.77826930829058,10.650250013604172,12.020776573047993,14.864579846394063,12.260498587941228,9.006742176183462,9.570210054162244,0,0,272.11738912750474,509.96115517671393,764.196157192269,774.8464072058731,895.0541729363531,1028.8353915538996,1274.0453633127242,1319.0790741936414,1319.0790741936414,0,0,0.999013888835907,1,0.9935961521588839,1,0.9737000036239625,1,0.9529749989509583,0.7723999786376954,0.025233332316080728,1,1,1,1,1,1,1,1,1,1,1,0.7085333434740703,1,0.999013888835907,1,0.9935961521588839,1,0.9737000036239625,1,0.9529749989509583,0.7723999786376954,0.7579666646321614,1,1,1,0.9999999999999999,1,1,0.9999999999999999,1,0.9999999999999999,0.9999999999999999,1,2018-04-27,2018-05-12,2018-05-14,2018-06-19,2018-07-20,2018-08-15,2018-08-16,2018-08-26,2018-09-04,2018-09-24,2018-09-29,2018-05-11,2018-05-13,2018-06-18,2018-07-19,2018-08-14,2018-08-15,2018-08-25,2018-09-03,2018-09-23,2018-09-28,2018-10-13,117,132,134,170,201,227,228,238,247,267,272,15,2,36,31,26,1,10,9,20,5,15,131,133,169,200,226,227,237,246,266,271,286
93,93,urbana_il,40.05325,-88.23485,4.5,2018-05-08,17,2018,mid4,1806.0103311378025,11,2018-04-24,2018-05-08,147,2018-10-02,2018-10-05,2018-10-19,Harvested at Maturity.,0.9673333088556925,11.206666310628256,4.44236851052234,5.228529372636009,2.864230738236354,0,4.754999941587448,2.8777778612242804,4.821666697661082,0,1.8779999295870464,0.9673333088556925,11.206666310628256,4.44236851052234,5.228529372636009,2.864230738236354,0,4.754999941587448,2.8777778612242804,4.821666697661082,0,1.8779999295870464,22.8994140625,20.779858907063804,19.280348075063607,19.44636319665348,19.67431666300847,17.156831741333008,16.513842868804932,16.94234413570828,15.020536998907724,13.208906491597494,10.964419968922932,23.044666481018066,28.490000406901043,29.496052591424238,29.254117685205795,28.30846170278696,27.920000076293945,28.391000175476073,30.73555586073134,26.709583282470703,28.75,19.55733340581258,15.348999838034311,21.011666774749756,23.345131585472508,24.048676504808313,22.836730773632343,23.36999988555908,23.221000242233277,24.926667001512318,20.314166635274887,22.266666730244953,13.688333408037822,7.653333195050558,13.533333142598469,17.194210579520778,18.84323532441083,17.364999844477726,18.81999969482422,18.051000308990478,19.117778142293293,13.918749988079071,15.783333460489908,7.819333410263061,6.314693618109226,11.011666774749756,6.961270098608775,7.121923894661809,9.691607578927668,12.128525371006036,12.52765714585736,13.937469285955695,10.425700204070782,12.387329449073473,5.107895814560453,6.314693618109226,11.011666774749756,6.961270098608775,7.121923894661809,9.691607578927668,12.128525371006036,12.52765714585736,13.937469285955695,10.425700204070782,12.387329449073473,5.107895814560453,0,0,264.52826374713345,506.6736761656348,758.655473217754,770.78399858876,896.0605700473336,1021.4977936209348,1271.7145985186332,1308.8765868658536,1308.8765868658536,0,0,0.9977105278717844,1,0.9915384604380681,1,0.9775500011444092,1,0.8474374959866207,1,0.06666666666666667,1,1,1,1,1,1,1,1,1,1,1,0.5365999925136566,1,0.9977105278717844,1,0.9915384604380681,1,0.9775500011444092,1,0.8474374959866207,1,0.4634666697184245,1,1,1,0.9999999999999999,1,0.9999999999999996,0.9999999999999999,1,1,1,1,2018-04-24,2018-05-09,2018-05-12,2018-06-19,2018-07-23,2018-08-18,2018-08-19,2018-08-29,2018-09-07,2018-10-01,2018-10-04,2018-05-08,2018-05-11,2018-06-18,2018-07-22,2018-08-17,2018-08-18,2018-08-28,2018-09-06,2018-09-30,2018-10-03,2018-10-18,114,129,132,170,204,230,231,241,250,274,277,15,3,38,34,26,1,10,9,24,3,15,128,131,169,203,229,230,240,249,273,276,291
94,94,manhattan_ks,38.1326,-96.62,4.5,2018-05-18,27,2018,mid4,1466.1426006482336,11,2018-05-04,2018-05-18,133,2018-09-28,2018-10-03,2018-10-17,Harvested at Maturity.,4.330666796366374,0.6274999976158142,4.41911763391074,3.5564284920692444,4.422173852505892,35.310001373291016,7.928999876976014,7.1933333079020185,3.38045457276431,0,13.217333062489827,4.330666796366374,0.6274999976158142,4.41911763391074,3.5564284920692444,4.422173852505892,35.310001373291016,7.928999876976014,7.1933333079020185,3.38045457276431,0,13.217333062489827,20.699779510498047,17.90108811855316,20.17061654259177,20.810844557625906,18.97640510227369,15.67855739593506,13.514291572570801,14.309420373704699,15.206164034930143,16.85480785369873,10.160020542144776,29.52399991353353,24.90500020980835,31.136176670298855,33.6753568649292,31.182608645895254,33.09000015258789,28.178000450134277,30.261111153496635,26.444091016596015,23.592000198364257,18.047333431243896,22.349666659037272,19.600000262260437,24.93720593171961,27.192678451538086,24.7532609856647,25.85999965667725,23.581000328063965,25.30611122979058,21.26545466076244,16.767000007629395,12.827333410580952,15.175333404541016,14.295000314712524,18.738235193140365,20.710000038146973,18.323913325434145,18.6299991607666,18.984000205993652,20.351111306084526,16.086818304928865,9.941999816894532,7.60733338991801,12.240696146223943,9.600000262260437,7.825727357403221,8.574431765470411,10.777574215305766,12.94872912533707,12.6168062046125,14.144387441306645,11.338277892186966,8.541191433675886,3.5052494623667005,12.240696146223943,9.600000262260437,7.825727357403221,8.574431765470411,10.777574215305766,12.94872912533707,12.6168062046125,14.144387441306645,11.338277892186966,8.541191433675886,3.5052494623667005,0,0,266.07473015170945,506.1588195848809,754.0430265369132,766.9917556622503,893.1598177083752,1020.4593046801348,1269.901418308248,1312.607375476627,1312.607375476627,0,0,1,1,1,1,1,1,0.9043409087441184,0.6178000068664551,0.06666666666666667,1,1,1,1,1,1,1,1,1,1,1,0.9825333340962727,0.884125006198883,1,1,1,1,1,1,0.9043409087441184,0.6178000068664551,0.36613333702087403,1,1,1,1,1,1,0.9999999999999999,1,1,0.9999999999999999,1,2018-05-04,2018-05-19,2018-05-23,2018-06-26,2018-07-24,2018-08-16,2018-08-17,2018-08-27,2018-09-05,2018-09-27,2018-10-02,2018-05-18,2018-05-22,2018-06-25,2018-07-23,2018-08-15,2018-08-16,2018-08-26,2018-09-04,2018-09-26,2018-10-01,2018-10-16,124,139,143,177,205,228,229,239,248,270,275,15,4,34,28,23,1,10,9,22,5,15,138,142,176,204,227,228,238,247,269,274,289
95,95,onaga_ks,39.4889,-96.17,4.5,2018-05-11,46,2018,mid4,1562.0968095992812,11,2018-04-27,2018-05-11,145,2018-10-03,2018-10-08,2018-10-22,Harvested at Maturity.,5.047999890645345,0,2.7586842461636194,1.9206250309944153,2.553333322207133,0,6.346363614905965,16.14111097653707,0.6407999992370604,15.760000228881836,6.332000017166138,5.047999890645345,0,2.7586842461636194,1.9206250309944153,2.553333322207133,0,6.346363614905965,16.14111097653707,0.6407999992370604,15.760000228881836,6.332000017166138,21.434519004821777,22.84866269429525,20.01392788636057,20.948113411664963,19.6290100812912,18.20464515686035,13.786316134712912,12.276041030883789,15.424898376464844,11.24787197113037,10.707911237080891,27.58066660563151,30.78333346048991,31.095526293704385,32.895312547683716,31.81875006357829,30.700000762939453,29.116364045576617,28.238888634575737,25.554800033569336,22.428000450134277,16.16533349355062,19.62633334795634,23.02333354949951,24.53052628667731,26.319375053048134,24.771875103314716,24.4950008392334,23.919545607133344,23.571666558583576,19.503000030517576,15.958000230789185,9.91300005565087,11.672000090281168,15.263333638509115,17.965526279650238,19.743437558412552,17.725000143051147,18.290000915527344,18.722727168690074,18.904444482591416,13.45120002746582,9.488000011444091,3.6606666177511213,9.883729868254465,12.806856310534478,6.964484531579626,7.520331446866947,10.252438886141666,12.985373953756136,12.45775559070449,13.025039958483644,9.966003109170199,8.180678154978752,2.3288897694537543,9.883729868254465,12.806856310534478,6.964484531579626,7.520331446866947,10.252438886141666,12.985373953756136,12.45775559070449,13.025039958483644,9.966003109170199,8.180678154978752,2.3288897694537543,0,0,264.6504122000258,505.3010184997679,751.3595517671681,764.3449257209243,901.3802372186736,1018.6055968450264,1267.755674574281,1308.659065349175,1308.659065349175,0,0,0.9886578999067608,0.9894062459468842,1,1,0.9994090947237881,0.9984999974568685,0.7686000003814697,0.5288000059127808,0.0109333340326945,1,1,1,1,1,1,1,1,1,1,1,0.8556666707992554,1,0.9886578999067608,0.9894062459468842,1,1,0.9994090947237881,0.9984999974568685,0.7686000003814697,0.5288000059127808,0.13956667666633923,1,1,1,0.9999999999999999,0.9337826293189745,0.9999999999999998,0.9974916765781583,0.9999999999999999,1,1,1,2018-04-27,2018-05-12,2018-05-15,2018-06-22,2018-07-24,2018-08-17,2018-08-18,2018-08-29,2018-09-07,2018-10-02,2018-10-07,2018-05-11,2018-05-14,2018-06-21,2018-07-23,2018-08-16,2018-08-17,2018-08-28,2018-09-06,2018-10-01,2018-10-06,2018-10-21,117,132,135,173,205,229,230,241,250,275,280,15,3,38,32,24,1,11,9,25,5,15,131,134,172,204,228,229,240,249,274,279,294
96,96,ottawa_ks,38.5404,-95.2477,4.5,2018-05-15,21,2018,mid4,1569.1441755299984,11,2018-05-01,2018-05-15,133,2018-09-25,2018-10-01,2018-10-15,Harvested at Maturity.,1.4073333501815797,4.786666631698608,3.5165714502334597,0.9965517130391351,3.5679166515668235,1.7400000095367432,8.982000074535609,5.727778010898167,4.5234999597072605,0,18.808666547139484,1.4073333501815797,4.786666631698608,3.5165714502334597,0.9965517130391351,3.5679166515668235,1.7400000095367432,8.982000074535609,5.727778010898167,4.5234999597072605,0,18.808666547139484,19.670836194356283,19.2776362101237,19.237505204336983,21.456745772526183,19.77140673001607,14.182008743286133,14.232956647872925,14.363411055670843,14.492603361606598,17.140479405721027,9.702448177337647,28.82466646830241,28.359999974568684,30.667714527675084,33.4379311923323,31.77125032742818,29.239999771118164,28.496999740600586,30.734444512261284,27.4310001373291,22.426666259765625,20.413333257039387,22.38733326594035,21.31500005722046,24.69814301899501,27.1544828414917,25.07750016450882,24.97499942779541,23.63799982070923,25.793333371480305,22.346250033378602,15.714166442553202,15.601999998092651,15.950000063578287,14.270000139872232,18.728571510314943,20.8710344906511,18.38375000158946,20.709999084472656,18.778999900817873,20.852222230699326,17.2614999294281,9.00166662534078,10.790666739145914,12.306221173792283,11.315000057220459,7.632104508232957,8.214140474998679,10.515114504873996,13.399399489943631,12.570488198158383,14.561104927182198,12.048138311230542,7.784676957978308,5.699371324952643,12.306221173792283,11.315000057220459,7.632104508232957,8.214140474998679,10.515114504873996,13.399399489943631,12.570488198158383,14.561104927182198,12.048138311230542,7.784676957978308,5.699371324952643,0,0,267.12365778815354,505.3337315631154,757.6964796800912,771.0958791700349,896.8007611516186,1027.8507054962583,1268.8134717208686,1315.5215334687384,1315.5215334687384,0,0,0.9979714271000454,0.999827582260658,1,1,0.9982999992370606,1,0.9521000027656555,0.5489166537920634,0.049466667175292973,1,1,1,1,1,1,1,1,1,1,1,0.9935333283742269,1,0.9979714271000454,0.999827582260658,1,1,0.9982999992370606,1,0.9521000027656555,0.5489166537920634,0.5575333340962728,1,1,1,0.9999999999999999,0.9989573755040035,1,0.9999999999999999,0.9999999999999999,0.9999999999999999,1,1,2018-05-01,2018-05-16,2018-05-19,2018-06-23,2018-07-22,2018-08-15,2018-08-16,2018-08-26,2018-09-04,2018-09-24,2018-09-30,2018-05-15,2018-05-18,2018-06-22,2018-07-21,2018-08-14,2018-08-15,2018-08-25,2018-09-03,2018-09-23,2018-09-29,2018-10-14,121,136,139,174,203,227,228,238,247,267,273,15,3,35,29,24,1,10,9,20,6,15,135,138,173,202,226,227,237,246,266,272,287
97,97,novelty_mo,39.9428,-92.0534,4.5,2018-05-16,47,2018,mid4,1700.594125905676,11,2018-05-02,2018-05-16,143,2018-10-06,2018-10-10,2018-10-24,Harvested at Maturity.,3.9953333854675295,0.7666666507720947,1.6766666907530565,2.3445161388766382,3.052173884018608,0,16.627999830245972,8.289999983527444,1.2795652410258418,13.767500042915344,4.08400000333786,3.9953333854675295,0.7666666507720947,1.6766666907530565,2.3445161388766382,3.052173884018608,0,16.627999830245972,8.289999983527444,1.2795652410258418,13.767500042915344,4.08400000333786,19.33083413441976,15.878867149353027,19.83712956844232,21.71964986862675,17.972635683806047,17.090232849121094,15.487371253967286,13.08404803276062,15.150876957437266,9.091858983039856,10.40405961672465,27.677999877929686,25.106666564941406,30.24076921511919,31.456451539070375,30.17347825091818,28.020000457763672,29.320000076293944,27.063636606389824,26.51739145361859,23.28249979019165,14.585999806722006,20.922666676839192,20.230000019073486,24.355128166003105,25.238387092467278,24.163478291552998,22.84500026702881,23.639500045776366,22.45136378028176,19.962391366129335,18.12124991416931,9.051333266496659,14.167333475748698,15.353333473205566,18.46948711688702,19.02032264586418,18.15347833218782,17.670000076293945,17.959000015258788,17.839090954173695,13.407391278640084,12.960000038146973,3.5166667262713114,10.922666676839192,10.230000019073486,6.8158422992703045,7.8350394022769,10.85560718426443,12.15187340340599,12.468438828832147,12.353959092666885,10.531895710678592,8.646037418991327,1.2927648481338534,10.922666676839192,10.230000019073486,6.8158422992703045,7.8350394022769,10.85560718426443,12.15187340340599,12.468438828832147,12.353959092666885,10.531895710678592,8.646037418991327,1.2927648481338534,0,0,265.81784967154186,508.7040711421259,758.383036380208,770.5349097836139,895.2192980719354,1031.112848091271,1273.3464494368786,1307.930599112844,1307.930599112844,0,0,0.9938846160203982,1,0.9909130428148353,1,0.9944500017166138,0.9151363762942227,0.7871739169825679,0.7619999885559082,0.06666666666666667,1,1,1,1,1,1,1,1,1,1,1,0.9814666684468587,0.9646666685740154,0.9938846160203982,1,0.9909130428148353,1,0.9944500017166138,0.9151363762942227,0.7871739169825679,0.7619999885559082,0.10960000356038412,1,1,1,0.9999999999999999,0.9995221106945662,1,0.9999999999999999,1,0.9999999999999999,1,1,2018-05-02,2018-05-17,2018-05-20,2018-06-28,2018-07-29,2018-08-21,2018-08-22,2018-09-01,2018-09-12,2018-10-05,2018-10-09,2018-05-16,2018-05-19,2018-06-27,2018-07-28,2018-08-20,2018-08-21,2018-08-31,2018-09-11,2018-10-04,2018-10-08,2018-10-23,122,137,140,179,210,233,234,244,255,278,282,15,3,39,31,23,1,10,11,23,4,15,136,139,178,209,232,233,243,254,277,281,296
98,98,portagevilleclay_mo,36.3987,-88.6051,4.5,2018-05-28,29,2018,mid4,1314.9581158061892,11,2018-05-14,2018-05-28,116,2018-09-21,2018-09-25,2018-10-09,Harvested at Maturity.,6.08066660563151,24.219999313354492,4.431333367029826,2.522499978542328,1.3431818241422826,8.720000267028809,2.8544445037841797,1.023749977350235,3.4438889026641846,23.43749976158142,2.5693333307902018,6.08066660563151,24.219999313354492,4.431333367029826,2.522499978542328,1.3431818241422826,8.720000267028809,2.8544445037841797,1.023749977350235,3.4438889026641846,23.43749976158142,2.5693333307902018,17.597416750590007,14.47948408126831,19.852252388000487,19.17850363254547,20.195650750940498,14.618099212646484,15.847716013590494,16.643322587013245,15.94923088285658,10.266928434371948,13.221232414245605,30.26666679382324,29.414999961853027,31.6716667175293,32.75125010808309,31.35681793906472,33.040000915527344,28.97333335876465,32.8362500667572,30.807221836513943,28.164999961853027,28.38733342488607,24.605666732788087,25.27750015258789,26.10666667620341,27.395833412806194,25.349545348774303,27.08000087738037,24.25333325068156,27.17187511920929,24.981944269604153,23.382499933242798,22.647999986012778,18.94466667175293,21.140000343322754,20.541666634877522,22.040416717529297,19.342272758483887,21.1200008392334,19.53333314259847,21.507500171661377,19.156666702694363,18.59999990463257,16.908666547139486,14.276025254192353,15.110394636106488,8.848705209645319,9.881485379102006,11.849180330131425,14.103059251515996,13.847008138919293,15.34074884788245,13.605560930442149,11.686384105235339,11.501685131164392,14.276025254192353,15.110394636106488,8.848705209645319,9.881485379102006,11.849180330131425,14.103059251515996,13.847008138919293,15.34074884788245,13.605560930442149,11.686384105235339,11.501685131164392,0,0,265.46115628935956,502.6168053878078,763.2987726506993,777.4018319022153,902.0249051524888,1024.750895935549,1269.6509926835074,1316.3965291044487,1316.3965291044487,0,0,1,1,1,1,1,1,0.9869999912050036,0.9589999914169312,0.06666666666666667,1,1,1,1,1,1,1,1,1,1,1,1,1,1,1,1,1,1,1,0.9869999912050036,0.9589999914169312,0.9459999974568685,1,1,1,0.9999999999999999,1,1,1,1,1,0.9999999999999999,1,2018-05-14,2018-05-29,2018-05-31,2018-06-30,2018-07-24,2018-08-15,2018-08-16,2018-08-25,2018-09-02,2018-09-20,2018-09-24,2018-05-28,2018-05-30,2018-06-29,2018-07-23,2018-08-14,2018-08-15,2018-08-24,2018-09-01,2018-09-19,2018-09-23,2018-10-08,134,149,151,181,205,227,228,237,245,263,267,15,2,30,24,22,1,9,8,18,4,15,148,150,180,204,226,227,236,244,262,266,281
99,99,portagevilleloam_mo,36.39516667,-89.6102,4.5,2018-05-01,30,2018,mid4,1628.5012199609105,11,2018-04-17,2018-05-01,123,2018-09-01,2018-09-04,2018-09-18,Harvested at Maturity.,4.7106665452321375,8.899999618530273,5.5661537647247314,3.0977777904934354,1.52384614944458,0,0.6441666881243387,3.9260000228881835,5.224374949932098,0,3.727999973297119,4.7106665452321375,8.899999618530273,5.5661537647247314,3.0977777904934354,1.52384614944458,0,0.6441666881243387,3.9260000228881835,5.224374949932098,0,3.727999973297119,19.99431756337484,14.582074483235678,18.202047751500057,20.008489891334815,20.050338158240685,19.024572372436523,21.030492544174194,17.256205081939697,15.908566117286682,17.46762212117513,15.613577779134115,20.87399984995524,27.359999974568684,30.233076902536247,32.11370376304344,33.452692398658165,29.149999618530273,30.919999758402508,32.05899982452392,30.413749933242798,32.12000020345052,30.151999918619794,14.073333235581716,22.383333206176758,24.451730783169086,26.54388893975152,27.960000001467193,24.53499984741211,24.78041656812032,26.51649980545044,25.423124939203262,26.65500005086263,24.714666748046874,7.272666621208191,17.406666437784832,18.670384663801926,20.9740741164596,22.46730760427622,19.920000076293945,18.640833377838135,20.973999786376954,20.432499945163727,21.18999989827474,19.277333577473957,4.742135325036049,12.383333206176758,9.993591071684587,8.941325104782006,9.803475683631104,10.397677590387254,10.878110184872712,13.190797178207841,14.455188799999133,15.528385319050152,12.69041877750953,4.742135325036049,12.383333206176758,9.993591071684587,8.941325104782006,9.803475683631104,10.397677590387254,10.878110184872712,13.190797178207841,14.455188799999133,15.528385319050152,12.69041877750953,0,0,259.8333678637993,501.2491456929133,756.1395134673219,766.5371910577092,897.0745132761817,1028.9824850582602,1260.265505858246,1306.8506618153965,1306.8506618153965,0,0,1,1,1,1,1,1,1,1,0.06666666666666667,1,1,1,1,1,1,1,1,1,1,1,0.4098333219687144,1,1,1,1,1,1,1,1,1,0.9954666646321615,1,1,1,1,0.9999999999999999,0.9999999999999996,0.9905872254784001,0.9998630242267391,1,1,1,2018-04-17,2018-05-02,2018-05-05,2018-05-31,2018-06-27,2018-07-23,2018-07-24,2018-08-05,2018-08-15,2018-08-31,2018-09-03,2018-05-01,2018-05-04,2018-05-30,2018-06-26,2018-07-22,2018-07-23,2018-08-04,2018-08-14,2018-08-30,2018-09-02,2018-09-17,107,122,125,151,178,204,205,217,227,243,246,15,3,26,27,26,1,12,10,16,3,15,121,124,150,177,203,204,216,226,242,245,260
100,100,rockport_mo,40.273,-95.4743,4.5,2018-05-22,48,2018,mid4,1549.3353750522087,11,2018-05-08,2018-05-22,153,2018-10-22,2018-10-29,2018-11-12,Harvested at Maturity.,1.5453333655993144,0,3.6397560980261825,1.6733333269755044,6.662608789361042,0,16.727777745988632,0.6572727073322643,5.074411876061383,1.2542856931686401,0.7660000006357829,1.5453333655993144,0,3.6397560980261825,1.6733333269755044,6.662608789361042,0,16.727777745988632,0.6572727073322643,5.074411876061383,1.2542856931686401,0.7660000006357829,19.072447268168133,22.283448219299316,19.73713106062354,21.272285477320352,16.697787948276687,15.044463157653809,11.528429402245415,15.935698942704635,11.779229094000424,11.40178210394723,7.519713433583577,27.63799997965495,32.59000015258789,31.46219481491461,30.80099983215332,29.737825891245965,34.08000183105469,27.99555566575792,27.209091186523438,20.103235132553998,17.349999972752162,9.732666526734828,20.93499994277954,25.34249973297119,25.1509754366991,24.28749992052714,23.891086868617844,28.86500072479248,23.478333367241753,21.393181930888783,14.276764623848173,9.836428557123456,4.791999915490548,14.231999905904134,18.094999313354492,18.83975605848359,17.77400000890096,18.044347845989726,23.649999618530273,18.961111068725586,15.577272675254129,8.450294115142349,2.322857141494751,-0.14866669575373342,10.905648750395775,14.05064396870136,6.536028441402779,7.866845194293651,11.31282107800919,15.629269264638426,13.340129646064176,11.193150219397111,7.408889784384188,5.701139998000648,0.6122639585417012,10.905648750395775,14.05064396870136,6.536028441402779,7.866845194293651,11.31282107800919,15.629269264638426,13.340129646064176,11.193150219397111,7.408889784384188,5.701139998000648,0.6122639585417012,0,0,267.9771660975139,503.9825219263234,764.1774067205349,779.8066759851733,899.8678427997509,1022.992495213119,1274.8947478821808,1314.8027278681852,1314.8027278681852,0,0,0.9912926836711604,1,0.9888913030209748,1,0.9898333337571886,0.9498636332425204,0.3988970563692205,0.06657142809459142,0.010833330154418947,1,1,1,1,1,1,1,1,1,1,1,0.9784666601816814,1,0.9912926836711604,1,0.9888913030209748,1,0.9898333337571886,0.9498636332425204,0.3988970563692205,0.06657142809459142,0.031033326784769697,1,1,1,1,1,1,0.9999999999999999,1,1,1,1,2018-05-08,2018-05-23,2018-05-25,2018-07-05,2018-08-04,2018-08-27,2018-08-28,2018-09-06,2018-09-17,2018-10-21,2018-10-28,2018-05-22,2018-05-24,2018-07-04,2018-08-03,2018-08-26,2018-08-27,2018-09-05,2018-09-16,2018-10-20,2018-10-27,2018-11-11,128,143,145,186,216,239,240,249,260,294,301,15,2,41,30,23,1,9,11,34,7,15,142,144,185,215,238,239,248,259,293,300,315
101,101,thiefriverfalls_mn,48.1283,-96.2427,-0.5,2018-06-16,3,2018,mid00,578.1679732035243,11,2018-06-02,2018-06-16,112,2018-10-06,2018-10-22,2018-11-05,Harvested at Maturity.,4.419333330790201,0.5350000262260437,2.860869552778161,0.10192308059105507,2.196399974822998,0,1.7828571115221297,0.33500000834465027,3.8662500977516174,2.464375015348196,1.502666676044464,4.419333330790201,0.5350000262260437,2.860869552778161,0.10192308059105507,2.196399974822998,0,1.7828571115221297,0.33500000834465027,3.8662500977516174,2.464375015348196,1.502666676044464,19.970596504211425,23.197158575057983,21.70253662441088,21.550915277921238,16.813779945373536,19.649982452392575,14.228147234235491,13.963351249694824,9.641665011644363,7.38440477848053,6.701496982574463,24.566666666666666,26.570000171661377,28.157391257908035,25.952692472017727,26.116800003051758,25.8799991607666,23.08142852783203,22.986249804496765,11.378124952316284,5.929999988526106,8.018666553497315,17.986999988555908,19.34000015258789,21.621521742447563,18.997692429102383,18.8581999874115,15.94499969482422,16.076428532600403,15.92187488079071,6.528749988414347,1.8059375304728746,3.2716666010518867,11.40733331044515,12.110000133514404,15.085652226987092,12.04269238618704,11.59959997177124,6.010000228881836,9.071428537368774,8.857499957084656,1.6793750245124102,-2.3181249275803566,-1.4753333513935407,8.077660113327504,9.34000015258789,9.266156472549502,8.254229133532569,8.756668044852972,6.595519781255722,7.886241245858797,7.910631294899806,5.038468173540477,5.099240333548514,0.02213640226811173,8.077660113327504,9.34000015258789,9.266156472549502,8.254229133532569,8.756668044852972,6.595519781255722,7.886241245858797,7.910631294899806,5.038468173540477,5.099240333548514,0.02213640226811173,0,0,213.1215988686386,427.7315563404853,646.6482574618097,653.2437772430654,708.4474659640769,771.7325163232754,852.3480070999229,933.9358524366992,933.9358524366992,0,0,0.9880869533704675,0.845153848024515,0.8132799978256225,0.5944999694824219,0.6076428532600403,0.5634375005960465,0.006031250208616257,0.0017812501639127732,0,1,1,1,1,1,1,1,1,1,1,1,0.7551333395640055,0.9223750114440918,0.9880869533704675,0.845153848024515,0.8132799978256225,0.5944999694824219,0.6076428532600403,0.5634375005960465,0.006031250208616257,0.0017812501639127732,0,1,1,0.984685875716553,1,0.9948896645431436,1,0.9999999999999999,1,1,1,1,2018-06-02,2018-06-17,2018-06-21,2018-07-14,2018-08-09,2018-09-03,2018-09-04,2018-09-11,2018-09-19,2018-10-05,2018-10-21,2018-06-16,2018-06-20,2018-07-13,2018-08-08,2018-09-02,2018-09-03,2018-09-10,2018-09-18,2018-10-04,2018-10-20,2018-11-04,153,168,172,195,221,246,247,254,262,278,294,15,4,23,26,25,1,7,8,16,16,15,167,171,194,220,245,246,253,261,277,293,308
102,102,crookston_mn,47.805,-96.61426667,0.5,2018-05-23,1,2018,mid0,948.953881396344,11,2018-05-09,2018-05-23,110,2018-09-10,2018-09-21,2018-10-05,Harvested at Maturity.,0.7759999910990397,1.1400000254313152,4.3248648289087654,1.9700000066506236,0.37227270819924096,0,3.618750125169754,2.168750077486038,2.384999990463257,0.30454544587568805,4.904666757583618,0.7759999910990397,1.1400000254313152,4.3248648289087654,1.9700000066506236,0.37227270819924096,0,3.618750125169754,2.168750077486038,2.384999990463257,0.30454544587568805,4.904666757583618,22.779508527119955,21.676725387573242,19.873539254472064,20.611499485216644,21.710342407226563,16.21269989013672,17.893021941184998,13.909938097000122,14.726833724975586,14.381345922296697,9.538327566782634,22.53733336130778,32.6533317565918,27.101892058913773,27.981578726517526,27.995454701510344,31.219999313354492,26.302500247955322,23.797499895095825,24.33799991607666,23.947272647510875,11.84266668955485,14.378333353996277,24.208332697550457,20.71959471058201,21.72605245991757,20.483636498451233,25.38999938964844,18.718750149011612,17.77062487602234,17.191000008583067,16.839090889150448,7.182333328326543,6.219333346684774,15.763333638509115,14.33729736225025,15.470526193317614,12.971818295392124,19.559999465942383,11.135000050067902,11.743749856948853,10.044000101089477,9.730909130790016,2.5219999670982363,5.514474381776552,12.976483670632044,7.6871143782933045,8.839050511557687,9.258870938590984,14.967365708448188,9.51714355522953,8.685929683154821,8.552736285791696,8.391263383374701,0.5919197736464441,5.514474381776552,12.976483670632044,7.6871143782933045,8.839050511557687,9.258870938590984,14.967365708448188,9.51714355522953,8.685929683154821,8.552736285791696,8.391263383374701,0.5919197736464441,0,0,284.4232319968522,452.3651917164483,656.06035236545,671.0277180738981,747.1648665157343,816.6523039809728,902.1796668388896,994.4835640560116,994.4835640560116,0,0,0.9297432448412921,0.9742105207945171,0.902045459097082,1,0.8662500113248826,0.7603124976158142,0.7112999987602234,0.6416363564404575,0.0017333316802978513,1,1,1,1,1,1,1,1,1,1,1,0.46346666653951013,1,0.9297432448412921,0.9742105207945171,0.902045459097082,1,0.8662500113248826,0.7603124976158142,0.7112999987602234,0.6416363564404575,0.01383333206176758,1,1,1,1,1,1,1,0.9999999999999999,0.9999999999999999,1,1,2018-05-09,2018-05-24,2018-05-27,2018-07-03,2018-07-22,2018-08-13,2018-08-14,2018-08-22,2018-08-30,2018-09-09,2018-09-20,2018-05-23,2018-05-26,2018-07-02,2018-07-21,2018-08-12,2018-08-13,2018-08-21,2018-08-29,2018-09-08,2018-09-19,2018-10-04,129,144,147,184,203,225,226,234,242,252,263,15,3,37,19,22,1,8,8,10,11,15,143,146,183,202,224,225,233,241,251,262,277
103,103,shelly_mn,47.4264,-96.8317,0.5,2018-05-24,31,2018,mid0,884.0162684843256,11,2018-05-10,2018-05-24,108,2018-09-09,2018-09-19,2018-10-03,Harvested at Maturity.,0.5726666529973348,1.9233333269755046,2.9434285623686653,1.8984999865293504,0.7786363688382235,NA,4.947499871253967,5.113749913871288,1.7139999508857726,1.625000035762787,3.134000027179718,0.5726666529973348,1.9233333269755046,2.9434285623686653,1.8984999865293504,0.7786363688382235,NA,4.947499871253967,5.113749913871288,1.7139999508857726,1.625000035762787,3.134000027179718,23.08178342183431,21.379313151041668,19.87285742078509,20.889161586761475,21.98467423699119,NA,17.462930738925934,13.004741787910461,16.31949939727783,14.286594104766845,10.713093153635661,23.79400005340576,31.950000127156574,27.311142676217216,28.102999877929687,28.075454538518734,NA,26.835000038146973,23.78125,24.520999908447266,25.321999931335448,13.695999813079833,15.49400001168251,23.64666684468587,20.981999928610666,21.852749967575072,20.578409054062583,NA,19.716875076293945,17.9668750166893,17.073999977111818,18.456999921798708,8.650999904672306,7.193999969959259,15.34333356221517,14.652857181004116,15.602500057220459,13.081363569606435,NA,12.598750114440918,12.152500033378601,9.627000045776366,11.591999912261963,3.6059999962647757,6.395726349780212,12.429936537988981,7.954940525025098,9.00379096791614,9.448047480844059,NA,10.28079294425696,8.721322143785656,8.531604786564708,9.20220969129324,1.0816593435234825,6.395726349780212,12.429936537988981,7.954940525025098,9.00379096791614,9.448047480844059,NA,10.28079294425696,8.721322143785656,8.531604786564708,9.20220969129324,1.0816593435234825,0,0,278.4229183758784,458.4987377342012,666.3557823127707,NA,748.6021258668263,818.3727030171117,903.6887508827588,995.7108477956908,995.7108477956908,0,0,0.9423000035967146,0.9827750015258789,0.913363633372567,NA,0.8965624988079072,0.7812500059604645,0.7013499975204468,0.7904999971389771,0.014199997584025067,1,1,1,1,1,NA,1,1,1,1,1,0.5383666690190634,1,0.9423000035967146,0.9827750015258789,0.913363633372567,NA,0.8965624988079072,0.7812500059604645,0.7013499975204468,0.7904999971389771,0.05719999154408773,1,1,0.9804895249976393,1,0.9882162247897192,NA,0.9894255644985509,1,0.9999999999999999,1,1,2018-05-10,2018-05-25,2018-05-28,2018-07-02,2018-07-22,NA,2018-08-13,2018-08-21,2018-08-29,2018-09-08,2018-09-18,2018-05-24,2018-05-27,2018-07-01,2018-07-21,2018-08-12,NA,2018-08-20,2018-08-28,2018-09-07,2018-09-17,2018-10-02,130,145,148,183,203,NA,225,233,241,251,261,15,3,35,20,22,0,8,8,10,10,15,144,147,182,202,224,NA,232,240,250,260,275
104,104,casselton_nd,46.8866,-97.2386,0.5,2018-05-07,4,2018,mid0,989.7290893083454,11,2018-04-23,2018-05-07,111,2018-08-26,2018-09-05,2018-09-19,Harvested at Maturity.,0.7733333269755046,0.11999999625342232,3.541351389240574,3.0931578937329745,1.7133333397408326,0,0.17166666189829508,2.696666717529297,4.3299999766879615,9.687000179290772,0.16533333857854207,0.7733333269755046,0.11999999625342232,3.541351389240574,3.0931578937329745,1.7133333397408326,0,0.17166666189829508,2.696666717529297,4.3299999766879615,9.687000179290772,0.16533333857854207,25.533968226114908,22.424075807843888,20.3564094595007,20.283249654267966,20.868512471516926,24.509784698486328,21.682832082112633,19.399621804555256,16.5892407629225,14.228511190414428,15.547434488932293,21.08733336130778,21.12142848968506,27.41081088298076,28.703684355083265,26.988749901453655,28.010000228881836,29.960000038146973,30.21333344777425,26.267777760823567,23.905000305175783,25.293333053588867,11.978333334128061,13.755714224917547,20.182702708888698,22.543684331994307,20.59687493244807,19.375,22.34249989191691,22.62416664759318,19.326666620042587,17.635000109672546,18.199999888737995,2.8693333069483438,6.389999960150038,12.954594534796637,16.38368430890535,14.204999963442484,10.739999771118164,14.724999745686848,15.03499984741211,12.38555547926161,11.364999914169312,11.106666723887125,4.11113484268407,4.9425205656214475,7.719001300981884,9.19906259568493,8.753577778001635,8.67517990049252,11.57381754111367,12.005667348787732,9.815572146260738,8.609626298454106,7.64224420461019,4.11113484268407,4.9425205656214475,7.719001300981884,9.19906259568493,8.753577778001635,8.67517990049252,11.57381754111367,12.005667348787732,9.815572146260738,8.609626298454106,7.64224420461019,0,0,285.6030481363297,460.3852374543433,670.4711041263822,679.1462840268747,748.5891892735567,820.6231933662831,908.9633426826298,995.0596056671708,995.0596056671708,0,0,0.8685405473451356,0.9982631557866146,0.9295416613419851,0.9375,1,0.9570833365122478,0.9119999938540989,0.7443000102043152,0.05730000178019206,1,1,1,1,1,1,1,1,1,1,1,0.273100000222524,0.4274999993188041,0.8685405473451356,0.9982631557866146,0.9295416613419851,0.9375,1,0.9570833365122478,0.9119999938540989,0.7443000102043152,0.7700333293279013,1,1,1,0.9999999999999999,0.9999999999999999,1,1,1,0.9999999999999999,1,1,2018-04-23,2018-05-08,2018-05-15,2018-06-21,2018-07-10,2018-08-03,2018-08-04,2018-08-10,2018-08-16,2018-08-25,2018-09-04,2018-05-07,2018-05-14,2018-06-20,2018-07-09,2018-08-02,2018-08-03,2018-08-09,2018-08-15,2018-08-24,2018-09-03,2018-09-18,113,128,135,172,191,215,216,222,228,237,247,15,7,37,19,24,1,6,6,9,10,15,127,134,171,190,214,215,221,227,236,246,261
105,105,morris_mn,45.3552,-95.5436,1.5,2018-05-13,34,2018,mid1,1013.8796643067068,11,2018-04-29,2018-05-13,115,2018-09-05,2018-09-14,2018-09-28,Harvested at Maturity.,1.33733336130778,1.972499966621399,3.88000001758337,4.293478260869565,5.582381013603437,NA,0,8.055714198521205,3.95071428162711,2.1544443766276045,2.028000005086263,1.33733336130778,1.972499966621399,3.88000001758337,4.293478260869565,5.582381013603437,NA,0,8.055714198521205,3.95071428162711,2.1544443766276045,2.028000005086263,22.81901766459147,22.996975421905518,18.837180777599936,20.318177181741465,19.16995143890381,NA,20.86191399892171,16.016330582754954,15.322803497314453,15.866554737091064,12.10096705754598,22.195333162943523,27.450000286102295,26.912894750896253,29.15000011609948,26.36619031996954,NA,30.62000020345052,26.74285670689174,25.19785717555455,24.883333206176758,22.001999855041504,14.399666539827983,19.046249985694885,20.85210529126619,23.345652227816373,20.568095184507825,NA,23.795000155766807,21.50285679953439,19.638571449688502,18.842777834998238,16.665666643778483,6.603999916712443,10.642499685287476,14.791315831636128,17.541304339533266,14.770000049046107,NA,16.970000108083088,16.262856892177037,14.079285723822457,12.802222463819716,11.329333432515462,5.311555969558557,9.003895341005922,7.376867643475845,9.218449459768076,8.887641402322346,NA,12.993403568314912,11.500096861985705,10.029774726536445,9.48180705349909,5.96023774517258,5.311555969558557,9.003895341005922,7.376867643475845,9.218449459768076,8.887641402322346,NA,12.993403568314912,11.500096861985705,10.029774726536445,9.48180705349909,5.96023774517258,0,0,280.3209704520821,492.34530802674794,678.9857774755174,NA,756.9461988854068,837.4468769193068,977.863723090817,1063.1999865723087,1063.1999865723087,0,0,0.9195789475190013,1,0.9419523829505557,NA,1,1,0.882964289188385,0.8313333405388726,0.06666666666666667,1,1,1,1,1,NA,1,1,1,1,1,0.44476665337880456,0.8572499871253968,0.9195789475190013,1,0.9419523829505557,NA,1,1,0.882964289188385,0.8313333405388726,0.5446999994913737,1,1,1,1,1,NA,1,1,1,1,1,2018-04-29,2018-05-14,2018-05-18,2018-06-25,2018-07-18,NA,2018-08-08,2018-08-14,2018-08-21,2018-09-04,2018-09-13,2018-05-13,2018-05-17,2018-06-24,2018-07-17,2018-08-07,NA,2018-08-13,2018-08-20,2018-09-03,2018-09-12,2018-09-27,119,134,138,176,199,NA,220,226,233,247,256,15,4,38,23,21,0,6,7,14,9,15,133,137,175,198,219,NA,225,232,246,255,270
106,106,arthur_il,39.70646667,-88.47023333,3.5,2018-05-07,19,2018,mid3,1319.16772236748,11,2018-04-23,2018-05-07,118,2018-09-02,2018-09-05,2018-09-19,Harvested at Maturity.,1.3106666723887126,3.6566667556762695,1.3107142831598009,7.726249982913335,3.3942857469831194,0,4.3830770162435675,1.0277777777777777,3.3335294618326077,0,4.761333274841308,1.3106666723887126,3.6566667556762695,1.3107142831598009,7.726249982913335,3.3942857469831194,0,4.3830770162435675,1.0277777777777777,3.3335294618326077,0,4.761333274841308,21.270795567830405,21.883925755818684,20.19541777883257,17.46145037810008,20.473910513378325,22.310216903686523,19.676628259512093,19.670304510328503,15.21376267601462,17.797697067260742,15.983555889129638,22.169333267211915,28.03000005086263,29.786785670689174,29.77791651089986,29.92904772077288,27.739999771118164,27.54769251896785,30.011110729641384,28.232352873858282,32.28000005086263,29.020666758219402,15.114666624863942,20.118333339691162,23.40589281490871,24.76416665315628,24.486428624107724,22.144999504089355,22.182692491091213,24.343888600667317,23.483235246994916,26.476666768391926,22.92133331298828,8.05999998251597,12.206666628519693,17.024999959128245,19.7504167954127,19.04380952744257,16.549999237060547,16.81769246321458,18.676666471693252,18.73411762013155,20.673333485921223,16.82199986775716,6.010314983443767,10.118333339691162,8.969480976960726,8.57371073709404,9.358302991033911,8.99014200392974,9.67702435408584,12.824858437086933,13.160089771543351,15.185200621541341,11.09563006688277,6.010314983443767,10.118333339691162,8.969480976960726,8.57371073709404,9.358302991033911,8.99014200392974,9.67702435408584,12.824858437086933,13.160089771543351,15.185200621541341,11.09563006688277,0,0,251.14546735490032,456.9145250451572,653.4388878568695,662.4290298607992,788.2303464639151,903.6540723976976,1127.3755985139344,1172.9312003785583,1172.9312003785583,0,0,0.9977678554398673,1,1,1,0.9819230776566725,1,0.9832647015066708,1,0.06666666666666667,1,1,1,1,1,1,1,1,1,1,1,0.5112666630744934,0.9359999974568685,0.9977678554398673,1,1,1,0.9819230776566725,1,0.9832647015066708,1,0.9651333363850911,1,1,1,1,1,1,0.9999999999999999,0.9999999999999999,1,1,1,2018-04-23,2018-05-08,2018-05-11,2018-06-08,2018-07-02,2018-07-23,2018-07-24,2018-08-06,2018-08-15,2018-09-01,2018-09-04,2018-05-07,2018-05-10,2018-06-07,2018-07-01,2018-07-22,2018-07-23,2018-08-05,2018-08-14,2018-08-31,2018-09-03,2018-09-18,113,128,131,159,183,204,205,218,227,244,247,15,3,28,24,21,1,13,9,17,3,15,127,130,158,182,203,204,217,226,243,246,261
107,107,urbana_il,40.05325,-88.23485,3.5,2018-05-07,17,2018,mid3,1332.5451671008568,11,2018-04-23,2018-05-07,120,2018-09-04,2018-09-08,2018-09-22,Harvested at Maturity.,1.2693333228429158,11.206666310628256,2.986666715145111,7.977083404858907,2.9786363135684617,0,1.7418181462721392,5.7811110681957665,3.0164705514907837,6.362500190734863,5.357333405812581,1.2693333228429158,11.206666310628256,2.986666715145111,7.977083404858907,2.9786363135684617,0,1.7418181462721392,5.7811110681957665,3.0164705514907837,6.362500190734863,5.357333405812581,22.22492961883545,21.764448801676433,19.959347915649413,17.57682979106903,21.059445988048207,21.707200050354004,19.538256558504973,19.199768702189125,16.643877197714414,16.09018611907959,15.512178325653077,22.44933312733968,27.760000228881836,29.493333307902017,29.3412500222524,29.117727279663086,26.55500030517578,27.662727529352363,29.47333335876465,28.664706061868106,32.39750051498413,28.743999989827476,14.979333166281382,19.800000031789146,22.998333342870076,24.406250059604645,23.560909032821655,21.065000295639038,22.400454651225697,23.766110950046116,23.423823777367087,26.426250457763672,22.385666688283283,7.509333205223084,11.839999834696451,16.503333377838135,19.47125009695689,18.004090785980225,15.575000286102295,17.13818177309903,18.058888541327583,18.182941492866068,20.455000400543213,16.027333386739095,5.976867260297537,9.800000031789144,8.534965334067223,8.280932517218483,8.993805649418146,8.416728708643834,10.075816694979649,12.660044303330853,13.113099077162616,14.56084061317146,10.905703544537227,5.976867260297537,9.800000031789144,8.534965334067223,8.280932517218483,8.993805649418146,8.416728708643834,10.075816694979649,12.660044303330853,13.113099077162616,14.56084061317146,10.905703544537227,0,0,256.0489600220167,454.7913404352602,652.6550647224595,669.4885221397473,780.3225057845234,894.2629045145012,1117.1855888262658,1175.4289512789517,1175.4289512789517,0,0,0.997100001970927,1,1,1,0.9799999973990701,1,0.9867941183202407,1,0.06666666666666667,1,1,1,1,1,1,1,1,1,1,1,0.49963332533836363,0.9433333237965902,0.997100001970927,1,1,1,0.9799999973990701,1,0.9867941183202407,1,0.9566333325703938,1,1,1,1,1,0.9999999999999998,1,1,1,1,1,2018-04-23,2018-05-08,2018-05-11,2018-06-10,2018-07-04,2018-07-26,2018-07-28,2018-08-08,2018-08-17,2018-09-03,2018-09-07,2018-05-07,2018-05-10,2018-06-09,2018-07-03,2018-07-25,2018-07-27,2018-08-07,2018-08-16,2018-09-02,2018-09-06,2018-09-21,113,128,131,161,185,207,209,220,229,246,250,15,3,30,24,22,2,11,9,17,4,15,127,130,160,184,206,208,219,228,245,249,264
108,108,wanatah_in,41.4444,-86.9437,3.5,2018-05-25,20,2018,mid3,1107.464974823687,11,2018-05-11,2018-05-25,125,2018-09-27,2018-10-04,2018-10-18,Harvested at Maturity.,3.625333348910014,0,3.0732431798367887,2.5137500117222467,3.673684233113339,3.130000114440918,6.108000123500824,2.2112500220537186,3.1972727558829566,0.06285714251654488,5.641333436965942,3.625333348910014,0,3.0732431798367887,2.5137500117222467,3.673684233113339,3.130000114440918,6.108000123500824,2.2112500220537186,3.1972727558829566,0.06285714251654488,5.641333436965942,18.813925361633302,23.037665367126465,19.255219859045905,20.27033519744873,19.17766877224571,12.771544456481934,15.458726024627685,15.457078576087952,14.605441093444824,14.12940502166748,10.076365025838216,22.804666582743327,33.02500057220459,28.015675622063714,28.503333409627277,28.797894829197933,29.469999313354492,26.811000251770018,29.796249866485596,26.350909059697933,21.491428920200892,18.836666711171468,16.875333309173584,25.90000009536743,22.587837760512894,23.00250005722046,22.928684259715833,24.739999771118164,21.817999982833864,24.182499885559082,20.597045410763133,15.337143046515328,13.510000044107437,10.946000035603841,18.774999618530273,17.159999898962074,17.50166670481364,17.059473690233734,20.010000228881836,16.824999713897704,18.56874990463257,14.843181761828335,9.182857172829763,8.183333377043406,6.86072002915899,14.03196044136882,6.8218753059537605,8.25948746708299,10.675966417542154,13.91121084461345,11.599417187247782,13.546889807742835,10.640367815935884,7.204430946408426,4.42858515967379,6.86072002915899,14.03196044136882,6.8218753059537605,8.25948746708299,10.675966417542154,13.91121084461345,11.599417187247782,13.546889807742835,10.640367815935884,7.204430946408426,4.42858515967379,0,0,252.40938632028912,450.6370855302808,653.4804474635818,667.3916583081952,783.3858301806731,891.7609486426157,1125.8490405932052,1176.2800572180645,1176.2800572180645,0,0,0.9694324338758314,0.9964791695276897,0.9886052633586683,1,0.9723500061035156,0.9786874949932098,0.8684090971946716,0.5337143046515329,0.06666666666666667,1,1,1,1,1,1,1,1,1,1,1,0.6554666646321615,1,0.9694324338758314,0.9964791695276897,0.9886052633586683,1,0.9723500061035156,0.9786874949932098,0.8684090971946716,0.5337143046515329,0.44203333218892416,1,1,1,1,0.9950511064273053,1,0.9999999999999999,1,1,0.9999999999999999,1,2018-05-11,2018-05-26,2018-05-28,2018-07-04,2018-07-28,2018-08-16,2018-08-17,2018-08-27,2018-09-04,2018-09-26,2018-10-03,2018-05-25,2018-05-27,2018-07-03,2018-07-27,2018-08-15,2018-08-16,2018-08-26,2018-09-03,2018-09-25,2018-10-02,2018-10-17,131,146,148,185,209,228,229,239,247,269,276,15,2,37,24,19,1,10,8,22,7,15,145,147,184,208,227,228,238,246,268,275,290
109,109,novelty_mo,39.9428,-92.0534,3.5,2018-05-15,47,2018,mid3,1307.654144377721,11,2018-05-01,2018-05-15,115,2018-09-07,2018-09-13,2018-09-27,Harvested at Maturity.,4.47466672261556,0.7666666507720947,1.1693103806725864,2.269583359360695,3.353333291553316,0,1.4639999628067017,3.870000018013848,13.601249903440475,6.641666611035665,0.6693333307902019,4.47466672261556,0.7666666507720947,1.1693103806725864,2.269583359360695,3.353333291553316,0,1.4639999628067017,3.870000018013848,13.601249903440475,6.641666611035665,0.6693333307902019,19.23251946767171,15.328041394551596,21.197453926349507,19.51065957546234,20.778184164138068,24.145597457885746,19.643064403533934,15.62711673312717,15.122194766998291,12.322226246198019,16.21263707478841,27.724666595458984,25.646666208902996,30.6734482995395,30.609166542689007,30.072857084728422,30.549999237060547,32.17100009918213,29.60444450378418,29.88812506198883,23.451667149861652,28.14400011698405,20.821333344777425,20.859999974568684,24.26206899511403,25.212291538715363,23.98619050071353,22.824999809265137,25.64300012588501,24.031666649712456,24.50343757867813,19.025000174840294,21.485666735967,13.918000094095866,16.073333740234375,17.85068969068856,19.81541653474172,17.899523916698637,15.100000381469728,19.11500015258789,18.458888795640735,19.11875009536743,14.59833319981893,14.827333354949952,10.821333344777425,10.859999974568685,8.503919566773897,8.487767950836153,9.457621194972024,10.394012414491591,12.394195910229348,13.17253926832907,13.634910138309003,9.367354284550746,10.357160668471455,10.821333344777425,10.859999974568685,8.503919566773897,8.487767950836153,9.457621194972024,10.394012414491591,12.394195910229348,13.17253926832907,13.634910138309003,9.367354284550746,10.357160668471455,0,0,246.61366743644297,450.32009825651056,648.930143350923,659.3241557654146,783.2661148677081,901.8189682826696,1119.977530495614,1176.1816562029185,1176.1816562029185,0,0,0.9951724151085163,0.9956666668256124,0.9900476183210101,1,1,1,0.9965312510728837,0.8444166898727418,0.06566666920979819,1,1,1,1,1,1,1,1,1,1,1,0.9814666684468587,0.9664999961853028,0.9951724151085163,0.9956666668256124,0.9900476183210101,1,1,1,0.9965312510728837,0.8444166898727418,0.8801000038782756,1,1,1,0.9999999999999999,1,1,1,1,1,0.9999999999999999,1,2018-05-01,2018-05-16,2018-05-19,2018-06-17,2018-07-11,2018-08-01,2018-08-02,2018-08-12,2018-08-21,2018-09-06,2018-09-12,2018-05-15,2018-05-18,2018-06-16,2018-07-10,2018-07-31,2018-08-01,2018-08-11,2018-08-20,2018-09-05,2018-09-11,2018-09-26,121,136,139,168,192,213,214,224,233,249,255,15,3,29,24,21,1,10,9,16,6,15,135,138,167,191,212,213,223,232,248,254,269
110,110,rockport_mo,40.273,-95.4743,3.5,2018-05-23,48,2018,mid3,1219.239904710751,11,2018-05-09,2018-05-23,116,2018-09-16,2018-09-20,2018-10-04,Harvested at Maturity.,1.5453333655993144,0,3.8062499910593033,2.4472727342085405,2.0290000438690186,0,9.230000019073486,5.338000106811523,8.765555527475145,0,2.0466667016347246,1.5453333655993144,0,3.8062499910593033,2.4472727342085405,2.0290000438690186,0,9.230000019073486,5.338000106811523,8.765555527475145,0,2.0466667016347246,19.137523206075034,22.10373306274414,19.258808001875877,21.28288405591791,20.66351146697998,21.8872127532959,17.424186282687717,14.679397296905519,13.507924477259317,17.59220790863037,13.679044564565023,27.77533327738444,33.084999084472656,31.129062354564667,32.166817838495426,30.417499923706053,31.84000015258789,30.522221671210396,27.917000007629394,26.968888918558758,33.61750030517578,23.567999903361002,21.083333237965903,25.91249942779541,24.808281153440475,25.935908967798408,23.773499846458435,24.480000495910645,24.272777557373047,22.889500045776366,21.978611124886406,26.1875,17.254999939600626,14.391333198547363,18.739999771118164,18.487499952316284,19.705000097101387,17.129499769210817,17.1200008392334,18.023333443535698,17.86200008392334,16.988333331214058,18.75749969482422,10.94199997584025,10.958186216429075,14.119197470921275,7.948289276438452,8.92143583950858,10.037621214779055,12.043018349935837,12.671763721658193,12.267926888596227,11.95592786052558,13.964026955336331,6.082832261072199,10.958186216429075,14.119197470921275,7.948289276438452,8.92143583950858,10.037621214779055,12.043018349935837,12.671763721658193,12.267926888596227,11.95592786052558,13.964026955336331,6.082832261072199,0,0,254.34525684603045,450.6168453152193,651.3692696108003,663.4122879607362,777.4581614556599,900.1374303416222,1115.344131831083,1171.2002396524283,1171.2002396524283,0,0,0.990328124165535,0.9978409116918391,1,1,1,0.9744499969482422,0.9642777760823568,1,0.06666666666666667,1,1,1,1,1,1,1,1,1,1,1,0.9784666601816814,1,0.990328124165535,0.9978409116918391,1,1,1,0.9744499969482422,0.9642777760823568,1,0.6102333307266236,1,1,1,1,1,1,1,1,0.9999999999999999,1,1,2018-05-09,2018-05-24,2018-05-26,2018-06-27,2018-07-19,2018-08-08,2018-08-09,2018-08-18,2018-08-28,2018-09-15,2018-09-19,2018-05-23,2018-05-25,2018-06-26,2018-07-18,2018-08-07,2018-08-08,2018-08-17,2018-08-27,2018-09-14,2018-09-18,2018-10-03,129,144,146,178,200,220,221,230,240,258,262,15,2,32,22,20,1,9,10,18,4,15,143,145,177,199,219,220,229,239,257,261,276
111,111,urbana_il,40.05325,-88.23485,4.5,2018-05-07,17,2018,mid4,1826.9508211224163,11,2018-04-23,2018-05-07,147,2018-10-01,2018-10-05,2018-10-19,Harvested at Maturity.,1.2693333228429158,11.206666310628256,4.328461625637153,5.0718181530634565,3.1433332893583508,0,4.754999941587448,2.8777778612242804,5.031304380168086,0,1.8779999295870464,1.2693333228429158,11.206666310628256,4.328461625637153,5.0718181530634565,3.1433332893583508,0,4.754999941587448,2.8777778612242804,5.031304380168086,0,1.8779999295870464,22.22492961883545,21.764448801676433,19.35607748765212,19.66005807934385,19.404691307633012,17.156831741333008,16.513842868804932,16.94234413570828,14.959642182225766,14.011959314346313,10.964419968922932,22.44933312733968,27.760000228881836,29.487692270523464,29.344242442737926,28.233333517003942,27.920000076293945,28.391000175476073,30.73555586073134,26.68956516100013,28.355000019073486,19.55733340581258,14.979333166281382,19.800000031789146,23.308974363864998,24.094090938568115,22.826111122413916,23.36999988555908,23.221000242233277,24.926667001512318,20.386956494787466,21.360000014305115,13.688333408037822,7.509333205223084,11.839999834696451,17.13025645720653,18.843939434398305,17.418888727823894,18.81999969482422,18.051000308990478,19.117778142293293,14.084347828574803,14.365000009536743,7.819333410263061,5.976867260297537,9.800000031789144,6.992044897358341,7.102651271481008,9.619989537472133,12.128525371006036,12.52765714585736,13.937469285955695,10.456873447664536,11.717675987158716,5.107895814560453,5.976867260297537,9.800000031789144,6.992044897358341,7.102651271481008,9.619989537472133,12.128525371006036,12.52765714585736,13.937469285955695,10.456873447664536,11.717675987158716,5.107895814560453,0,0,272.68975099697525,507.0772429558483,766.8169604675958,778.9454858386018,904.2220572971754,1029.6592808707765,1270.1673701670604,1317.0380741156953,1317.0380741156953,0,0,0.9977692322853284,1,0.9918518507922137,1,0.9775500011444092,1,0.8467173876969711,0.9659999966621399,0.06666666666666667,1,1,1,1,1,1,1,1,1,1,1,0.49963332533836363,0.9433333237965902,0.9977692322853284,1,0.9918518507922137,1,0.9775500011444092,1,0.8467173876969711,0.9659999966621399,0.4634666697184245,1,1,0.9999999999999999,0.9999999999999999,1,0.9999999999999998,1,0.9999999999999999,0.9999999999999999,1,1,2018-04-23,2018-05-08,2018-05-11,2018-06-19,2018-07-22,2018-08-18,2018-08-19,2018-08-29,2018-09-07,2018-09-30,2018-10-04,2018-05-07,2018-05-10,2018-06-18,2018-07-21,2018-08-17,2018-08-18,2018-08-28,2018-09-06,2018-09-29,2018-10-03,2018-10-18,113,128,131,170,203,230,231,241,250,273,277,15,3,39,33,27,1,10,9,23,4,15,127,130,169,202,229,230,240,249,272,276,291
112,112,novelty_mo,39.9428,-92.0534,4.5,2018-05-15,47,2018,mid4,1653.238561902282,11,2018-05-01,2018-05-15,143,2018-10-05,2018-10-10,2018-10-24,Harvested at Maturity.,4.47466672261556,0.7666666507720947,1.6766666907530565,1.8351613013975083,3.5829166372617087,0,16.627999830245972,9.118999981880188,0.6591304385143778,13.86800012588501,4.08400000333786,4.47466672261556,0.7666666507720947,1.6766666907530565,1.8351613013975083,3.5829166372617087,0,16.627999830245972,9.118999981880188,0.6591304385143778,13.86800012588501,4.08400000333786,19.23251946767171,15.328041394551596,19.735955091623158,21.988301246396958,17.88352358341217,17.090232849121094,15.487371253967286,12.319201493263245,15.741003948709238,8.705405712127686,10.40405961672465,27.724666595458984,25.646666208902996,30.115641031509792,31.611935400193737,29.995833317438763,28.020000457763672,29.320000076293944,27.025000190734865,26.96565238289211,22.05399971008301,14.585999806722006,20.821333344777425,20.859999974568684,24.23820509054722,25.379516124725342,23.995416700839996,22.84500026702881,23.639500045776366,22.774000120162963,20.213913140089616,17.18499984741211,9.051333266496659,13.918000094095866,16.073333740234375,18.360769149584648,19.147096849256947,17.99500008424123,17.670000076293945,17.959000015258788,18.523000049591065,13.462173897287121,12.315999984741211,3.5166667262713114,10.821333344777425,10.859999974568685,6.79448497408572,7.838047450754467,10.688397277867773,12.15187340340599,12.468438828832147,12.590622935957908,10.727769715988506,8.013273642718792,1.2927648481338534,10.821333344777425,10.859999974568685,6.79448497408572,7.838047450754467,10.688397277867773,12.15187340340599,12.468438828832147,12.590622935957908,10.727769715988506,8.013273642718792,1.2927648481338534,0,0,264.98491398934306,507.9643849627316,764.4859196315583,776.6377930349643,901.3221813232858,1027.2284106828647,1273.9671141506003,1314.0334823641945,1314.0334823641945,0,0,0.99374359081953,1,0.9912916660308838,1,0.9944500017166138,0.9144000101089478,0.8123260943785958,0.6783999824523926,0.06666666666666667,1,1,1,1,1,1,1,1,1,1,1,0.9814666684468587,0.9664999961853028,0.99374359081953,1,0.9912916660308838,1,0.9944500017166138,0.9144000101089478,0.8123260943785958,0.6783999824523926,0.10960000356038412,1,1,1,1,0.998948557357697,1,1,0.9999999999999999,1,1,1,2018-05-01,2018-05-16,2018-05-19,2018-06-27,2018-07-28,2018-08-21,2018-08-22,2018-09-01,2018-09-11,2018-10-04,2018-10-09,2018-05-15,2018-05-18,2018-06-26,2018-07-27,2018-08-20,2018-08-21,2018-08-31,2018-09-10,2018-10-03,2018-10-08,2018-10-23,121,136,139,178,209,233,234,244,254,277,282,15,3,39,31,24,1,10,10,23,5,15,135,138,177,208,232,233,243,253,276,281,296
113,113,rockport_mo,40.273,-95.4743,4.5,2018-05-23,48,2018,mid4,1579.7912623768868,11,2018-05-09,2018-05-23,153,2018-10-23,2018-10-30,2018-11-13,Harvested at Maturity.,1.5453333655993144,0,3.6397560980261825,1.6733333269755044,6.965454643422907,0,15.26199996471405,0.46909089521928266,5.074411876061383,1.2542856931686401,0.7660000006357829,1.5453333655993144,0,3.6397560980261825,1.6733333269755044,6.965454643422907,0,15.26199996471405,0.46909089521928266,5.074411876061383,1.2542856931686401,0.7660000006357829,19.137523206075034,22.10373306274414,19.628909866984298,21.3308389822642,16.52361180565574,15.044463157653809,10.937447357177735,17.007120609283447,11.6895953206455,10.929729666028704,7.004353173573811,27.77533327738444,33.084999084472656,31.363170484217203,30.86833318074544,29.629090655933727,34.08000183105469,27.438000106811522,28.219091068614613,19.701764555538404,17.135714258466447,8.370666585862637,21.083333237965903,25.91249942779541,25.127316940121535,24.28949990272522,23.817499897696756,28.86500072479248,23.17400007247925,21.918181809512053,13.772499932551428,10.202142834663391,3.756333282838265,14.391333198547363,18.739999771118164,18.891463396025866,17.710666624704995,18.005909139459785,23.649999618530273,18.910000038146972,15.61727255040949,7.843235309564454,3.268571410860334,-0.8580000201861064,10.958186216429075,14.119197470921275,6.537028604271614,7.967500757188477,11.339195600242627,15.629269264638426,13.049616723419428,11.529937715660441,7.166439727008757,5.670627012487607,0.34823720940763747,10.958186216429075,14.119197470921275,6.537028604271614,7.967500757188477,11.339195600242627,15.629269264638426,13.049616723419428,11.529937715660441,7.166439727008757,5.670627012487607,0.34823720940763747,0,0,268.0181727751361,507.0431954907903,756.5054986961284,772.1347679607668,902.630935194961,1029.4602500672258,1273.119200785523,1312.813589872936,1312.813589872936,0,0,0.9912926836711604,1,0.988386362249201,1,0.9908500003814698,0.9498636332425204,0.36948529166333816,0.08978570699691774,0.01349999745686849,1,1,1,1,1,1,1,1,1,1,1,0.9784666601816814,1,0.9912926836711604,1,0.988386362249201,1,0.9908500003814698,0.9498636332425204,0.36948529166333816,0.08978570699691774,0.02019999663035075,1,1,1,0.9999999999999999,1,1,0.9999999999999999,0.9999999999999999,0.9999999999999999,1,1,2018-05-09,2018-05-24,2018-05-26,2018-07-06,2018-08-05,2018-08-27,2018-08-28,2018-09-07,2018-09-18,2018-10-22,2018-10-29,2018-05-23,2018-05-25,2018-07-05,2018-08-04,2018-08-26,2018-08-27,2018-09-06,2018-09-17,2018-10-21,2018-10-28,2018-11-12,129,144,146,187,217,239,240,250,261,295,302,15,2,41,30,22,1,10,11,34,7,15,143,145,186,216,238,239,249,260,294,301,316
