ID,Site,Latitude,Longitude,Planting,Genetics,ID_Loc,Year,Mat,Yield_Sim,MaxStage,StartDate,PlantingDate_Sim,DTM_Sim,MatDate_Sim,HarvestDate_Sim,EndDate,Result,Rain_1,Rain_2,Rain_3,Rain_4,Rain_5,Rain_6,Rain_7,Rain_8,Rain_9,Rain_10,Rain_11,AccRain_1,AccRain_2,AccRain_3,AccRain_4,AccRain_5,AccRain_6,AccRain_7,AccRain_8,AccRain_9,AccRain_10,AccRain_11,Radn_1,Radn_2,Radn_3,Radn_4,Radn_5,Radn_6,Radn_7,Radn_8,Radn_9,Radn_10,Radn_11,MaxT_1,MaxT_2,MaxT_3,MaxT_4,MaxT_5,MaxT_6,MaxT_7,MaxT_8,MaxT_9,MaxT_10,MaxT_11,MeanT_1,MeanT_2,MeanT_3,MeanT_4,MeanT_5,MeanT_6,MeanT_7,MeanT_8,MeanT_9,MeanT_10,MeanT_11,MinT_1,MinT_2,MinT_3,MinT_4,MinT_5,MinT_6,MinT_7,MinT_8,MinT_9,MinT_10,MinT_11,ThermalTime_1,ThermalTime_2,ThermalTime_3,ThermalTime_4,ThermalTime_5,ThermalTime_6,ThermalTime_7,ThermalTime_8,ThermalTime_9,ThermalTime_10,ThermalTime_11,AccTT_1,AccTT_2,AccTT_3,AccTT_4,AccTT_5,AccTT_6,AccTT_7,AccTT_8,AccTT_9,AccTT_10,AccTT_11,AccEmTT_1,AccEmTT_2,AccEmTT_3,AccEmTT_4,AccEmTT_5,AccEmTT_6,AccEmTT_7,AccEmTT_8,AccEmTT_9,AccEmTT_10,AccEmTT_11,FracGrowthRate_1,FracGrowthRate_2,FracGrowthRate_3,FracGrowthRate_4,FracGrowthRate_5,FracGrowthRate_6,FracGrowthRate_7,FracGrowthRate_8,FracGrowthRate_9,FracGrowthRate_10,FracGrowthRate_11,NutrientStress_1,NutrientStress_2,NutrientStress_3,NutrientStress_4,NutrientStress_5,NutrientStress_6,NutrientStress_7,NutrientStress_8,NutrientStress_9,NutrientStress_10,NutrientStress_11,TempStress_1,TempStress_2,TempStress_3,TempStress_4,TempStress_5,TempStress_6,TempStress_7,TempStress_8,TempStress_9,TempStress_10,TempStress_11,WaterStress_1,WaterStress_2,WaterStress_3,WaterStress_4,WaterStress_5,WaterStress_6,WaterStress_7,WaterStress_8,WaterStress_9,WaterStress_10,WaterStress_11,Period_Start_Date_1,Period_Start_Date_2,Period_Start_Date_3,Period_Start_Date_4,Period_Start_Date_5,Period_Start_Date_6,Period_Start_Date_7,Period_Start_Date_8,Period_Start_Date_9,Period_Start_Date_10,Period_Start_Date_11,Period_End_Date_1,Period_End_Date_2,Period_End_Date_3,Period_End_Date_4,Period_End_Date_5,Period_End_Date_6,Period_End_Date_7,Period_End_Date_8,Period_End_Date_9,Period_End_Date_10,Period_End_Date_11,Period_Start_DOY_1,Period_Start_DOY_2,Period_Start_DOY_3,Period_Start_DOY_4,Period_Start_DOY_5,Period_Start_DOY_6,Period_Start_DOY_7,Period_Start_DOY_8,Period_Start_DOY_9,Period_Start_DOY_10,Period_Start_DOY_11,Duration_1,Duration_2,Duration_3,Duration_4,Duration_5,Duration_6,Duration_7,Duration_8,Duration_9,Duration_10,Duration_11,Period_End_DOY_1,Period_End_DOY_2,Period_End_DOY_3,Period_End_DOY_4,Period_End_DOY_5,Period_End_DOY_6,Period_End_DOY_7,Period_End_DOY_8,Period_End_DOY_9,Period_End_DOY_10,Period_End_DOY_11
1,lafayette_in,40.399,-86.8592,2017-05-28,1,1,2017,early1,763.2111235002212,11,2017-05-14,2017-05-28,95,2017-08-31,2017-09-11,2017-09-25,Harvested at Maturity.,5.186666774749756,0.33250001072883606,5.6651723878136995,6.067647050408756,5.425000071525574,10.3149995803833,0.08571428912026542,0.6750000317891439,4.819166660308838,0.6663636294278231,2.038666653633118,5.186666774749756,0.33250001072883606,5.6651723878136995,6.067647050408756,5.425000071525574,10.3149995803833,0.08571428912026542,0.6750000317891439,4.819166660308838,0.6663636294278231,2.038666653633118,19.50315990447998,25.582999229431152,20.338944287135682,19.91655215095071,19.58810019493103,14.43383502960205,21.72013909476144,20.361550172170006,17.202683846155804,17.705288887023926,15.329100354512532,24.29066670735677,25.65750026702881,28.23482763356176,28.727058747235468,28.71250009536743,24.085000038146973,25.602857317243306,28.088333129882813,26.535833199818928,23.506363955411043,28.214666748046874,18.56733331680298,18.72250008583069,22.005000065112934,23.33911766725428,22.96187511086464,19.737499713897705,19.484999997275217,21.59999982515971,20.46624990304311,17.073636466806587,21.44433348973592,12.843999926249186,11.787499904632568,15.775172496664114,17.951176587273093,17.211250126361847,15.389999389648438,13.367142677307129,15.111666520436605,14.396666606267294,10.640908978202127,14.674000231424968,8.57107931163629,8.722500085830688,9.705670233307865,11.366049914902543,12.034267643680243,9.64369830713909,9.812313903179339,11.791648727355401,10.783890496057271,8.261499711448767,10.677049539684852,8.57107931163629,8.722500085830688,9.705670233307865,11.366049914902543,12.034267643680243,9.64369830713909,9.812313903179339,11.791648727355401,10.783890496057271,8.261499711448767,10.677049539684852,0,0,281.4644367659281,474.68728531927144,667.2355676181555,686.5229642324337,755.209161554689,825.9590539188214,955.3657398715086,1046.2422366974452,1046.2422366974452,0,0,0.9397241395095299,0.9999705903670367,0.9948437511920929,0.8177499771118164,0.9146428585052491,0.9556666692097981,0.9114166577657064,0.6914090958508579,0.028966668446858728,1,1,1,1,1,1,1,1,1,1,1,0.7757666619618734,0.8650000214576722,0.9397241395095299,0.9999705903670367,0.9948437511920929,0.8177499771118164,0.9146428585052491,0.9556666692097981,0.9114166577657064,0.6914090958508579,0.8776999982198079,1,1,1,0.9999999999999999,1,1,0.9999999999999999,0.9999999999999999,0.9999999999999999,0.9999999999999999,1,2017-05-14,2017-05-29,2017-06-02,2017-07-01,2017-07-18,2017-08-03,2017-08-05,2017-08-12,2017-08-18,2017-08-30,2017-09-10,2017-05-28,2017-06-01,2017-06-30,2017-07-17,2017-08-02,2017-08-04,2017-08-11,2017-08-17,2017-08-29,2017-09-09,2017-09-24,134,149,153,182,199,215,217,224,230,242,253,15,4,29,17,16,2,7,6,12,11,15,148,152,181,198,214,216,223,229,241,252,267
2,rosemount_mn,44.707,-93.101,2017,1,2,2017,early1,945.963357863681,11,2017-03-31,2017-04-14,145,2017-09-06,2017-09-16,2017-09-30,Harvested at Maturity.,4.2153332233428955,4.69850007891655,4.304375076045592,2.264000029563904,7.49736845179608,0,5.0325000286102295,9.78499984741211,2.606428631714412,0.06600000262260437,3.059333348274231,4.2153332233428955,4.69850007891655,4.304375076045592,2.264000029563904,7.49736845179608,0,5.0325000286102295,9.78499984741211,2.606428631714412,0.06600000262260437,3.059333348274231,16.436483923594157,16.594783329963683,20.73934555053711,20.589368896484373,18.790453208120248,23.31408309936523,18.04761791229248,14.740982174873352,15.569678238459996,17.600277423858643,10.991359074910482,14.336000061035156,14.137500095367432,23.53354150056839,26.35559997558594,27.683157770257246,24.850000381469727,24.19249987602234,24.831250190734863,23.500714438302175,24.81200008392334,23.796666844685873,8.501333355903625,9.267000048607589,17.50416660308838,20.544999980926512,22.15421051728098,18.03000020980835,18.629999935626984,19.794375121593475,18.33500007220677,18.113000059127806,18.528333457310996,2.6666666507720946,4.396500001847744,11.474791705608368,14.73439998626709,16.625263264304714,11.210000038146973,13.067499995231628,14.757500052452087,13.169285706111364,11.414000034332275,13.260000069936117,1.3755464938429993,1.9417978819742798,5.915533432680915,7.758869609749158,10.409111951290823,7.543522129405843,8.72934846014844,9.884141652596742,8.702752836585045,9.146357584912181,7.508341766055226,1.3755464938429993,1.9417978819742798,5.915533432680915,7.758869609749158,10.409111951290823,7.543522129405843,8.72934846014844,9.884141652596742,8.702752836585045,9.146357584912181,7.508341766055226,0,0,283.94560476868406,477.917345012413,675.6904720869387,683.2339942163445,753.068781897532,832.1419151183059,953.9804548304966,1045.4440306796184,1045.4440306796184,0,0,0.6738854130109151,0.8948399963378907,0.9757631577943501,0.803000020980835,0.8599999964237214,0.9403750121593476,0.8289642947060721,0.7320999908447265,0.06666666666666667,1,1,1,1,1,1,1,1,1,1,1,0.06493333846330643,0.13187500119209292,0.6738854130109151,0.8948399963378907,0.9757631577943501,0.803000020980835,0.8599999964237214,0.9403750121593476,0.8289642947060721,0.7320999908447265,0.7212333440780639,1,1,1,0.9999999999999999,0.9999999999999999,0.9999999999999998,1,0.9999999999999999,1,1,1,2017-03-31,2017-04-15,2017-05-05,2017-06-22,2017-07-17,2017-08-05,2017-08-06,2017-08-14,2017-08-22,2017-09-05,2017-09-15,2017-04-14,2017-05-04,2017-06-21,2017-07-16,2017-08-04,2017-08-05,2017-08-13,2017-08-21,2017-09-04,2017-09-14,2017-09-29,90,105,125,173,198,217,218,226,234,248,258,15,20,48,25,19,1,8,8,14,10,15,104,124,172,197,216,217,225,233,247,257,272
3,morris_mn,45.3552,-95.5436,2018-05-27,1,3,2018,early1,873.748293093629,11,2018-05-13,2018-05-27,107,2018-09-11,2018-09-18,2018-10-02,Harvested at Maturity.,1.0219999780257543,2.4566666980584464,5.606857141426631,5.793500117212534,1.9210526190306012,0,6.996666590372722,2.699999979564122,5.0149999516350885,0,2.028000005086263,1.0219999780257543,2.4566666980584464,5.606857141426631,5.793500117212534,1.9210526190306012,0,6.996666590372722,2.699999979564122,5.0149999516350885,0,2.028000005086263,22.771362749735513,15.147775650024412,18.201472895486013,20.139523315429688,20.159963105854235,19.64647674560547,17.11915906270345,15.84394223349435,14.675619568143572,15.330015046255928,11.444625759124756,27.326000086466472,30.206666946411133,26.91942858014788,28.500999927520752,27.316842129355983,32.11000061035156,27.244999567667644,25.667142868041992,24.03857135772705,29.47857121058873,16.876666641235353,19.4746666431427,24.09000015258789,21.430285712650843,22.77825000286102,20.991052727950247,25.539999961853027,21.729166348775227,20.180714266640802,18.53142855848585,23.177857194628036,11.861666675408681,11.623333199818928,17.97333335876465,15.941142845153808,17.055500078201295,14.66526332654451,18.969999313354492,16.213333129882813,14.694285665239606,13.024285759244647,16.877143178667342,6.846666709582011,9.10918415128231,12.714017642223835,8.036489165645992,9.75180790940897,10.100982917592956,14.54732131230831,11.741617056153219,10.433460165897436,9.176499337820921,12.74828079117196,2.7380526058930656,9.10918415128231,12.714017642223835,8.036489165645992,9.75180790940897,10.100982917592956,14.54732131230831,11.741617056153219,10.433460165897436,9.176499337820921,12.74828079117196,2.7380526058930656,0,0,281.2771207976097,476.3132789857891,668.2319544200553,682.7792757323637,753.228978069283,826.2631992305651,954.734189960058,1043.9721554982616,1043.9721554982616,0,0,0.9681428568703788,1,0.9358421074716669,1,1,0.9286428655896868,0.8133571437426976,0.99371429170881,0.04929999987284343,1,1,1,1,1,1,1,1,1,1,1,0.7936666631698609,1,0.9681428568703788,1,0.9358421074716669,1,1,0.9286428655896868,0.8133571437426976,0.99371429170881,0.27803333282470705,1,1,1,1,0.9999999999999999,1,1,1,0.9999999999999999,0.9999999999999999,1,2018-05-13,2018-05-28,2018-05-31,2018-07-05,2018-07-25,2018-08-13,2018-08-14,2018-08-20,2018-08-27,2018-09-10,2018-09-17,2018-05-27,2018-05-30,2018-07-04,2018-07-24,2018-08-12,2018-08-13,2018-08-19,2018-08-26,2018-09-09,2018-09-16,2018-10-01,133,148,151,186,206,225,226,232,239,253,260,15,3,35,20,19,1,6,7,14,7,15,147,150,185,205,224,225,231,238,252,259,274
4,pontiac_il,40.82216667,-88.62016667,2018-01,2,4,2018,early2,0,2.7251570438559263,2018-03-12,2018-03-26,NA,NA,2018-04-25,2018-05-09,Failed to Emerge.,3.1320000012715656,2.057930993622747,NA,NA,NA,NA,NA,NA,NA,NA,0.9492857030459813,3.1320000012715656,2.057930993622747,NA,NA,NA,NA,NA,NA,NA,NA,0.9492857030459813,17.346047083536785,18.14650239615605,NA,NA,NA,NA,NA,NA,NA,NA,22.95048223223005,8.0493332862854,10.725862116649234,NA,NA,NA,NA,NA,NA,NA,NA,23.651428358895437,1.6709999561309814,4.9131034777082245,NA,NA,NA,NA,NA,NA,NA,NA,15.39607134354966,-4.707333374023437,-0.8996551612327839,NA,NA,NA,NA,NA,NA,NA,NA,7.140714328203883,0.0287857455970844,1.0002166122150704,NA,NA,NA,NA,NA,NA,NA,NA,6.5675026505149905,0.0287857455970844,1.0002166122150704,NA,NA,NA,NA,NA,NA,NA,NA,6.5675026505149905,0,0,NA,NA,NA,NA,NA,NA,NA,NA,0,0,0,NA,NA,NA,NA,NA,NA,NA,NA,0,1,1,NA,NA,NA,NA,NA,NA,NA,NA,1,0,0.05889655310532143,NA,NA,NA,NA,NA,NA,NA,NA,0.5508571396980967,1,1,NA,NA,NA,NA,NA,NA,NA,NA,1,2018-03-12,2018-03-27,NA,NA,NA,NA,NA,NA,NA,NA,2018-04-25,2018-03-26,2018-04-24,NA,NA,NA,NA,NA,NA,NA,NA,2018-05-08,71,86,NA,NA,NA,NA,NA,NA,NA,NA,115,15,29,0,0,0,0,0,0,0,0,14,85,114,NA,NA,NA,NA,NA,NA,NA,NA,128
5,urbana_il,40.05325,-88.23485,2018,2,5,2018,early2,0,2.8562125572827597,2018-03-10,2018-03-24,NA,NA,2018-04-23,2018-05-07,Failed to Emerge.,2.356666620572408,3.1372413984660446,NA,NA,NA,NA,NA,NA,NA,NA,1.359999988760267,2.356666620572408,3.1372413984660446,NA,NA,NA,NA,NA,NA,NA,NA,1.359999988760267,15.540097872416178,17.75838955517473,NA,NA,NA,NA,NA,NA,NA,NA,22.072658198220388,8.428666528066,11.263448279479455,NA,NA,NA,NA,NA,NA,NA,NA,22.260714054107666,2.4866666038831076,5.622931024830403,NA,NA,NA,NA,NA,NA,NA,NA,14.82357126048633,-3.4553333202997845,-0.017586229818648314,NA,NA,NA,NA,NA,NA,NA,NA,7.386428466864994,0.10226529721150797,1.180982837631393,NA,NA,NA,NA,NA,NA,NA,NA,5.892202044889331,0.10226529721150797,1.180982837631393,NA,NA,NA,NA,NA,NA,NA,NA,5.892202044889331,0,0,NA,NA,NA,NA,NA,NA,NA,NA,0,0,0,NA,NA,NA,NA,NA,NA,NA,NA,0,1,1,NA,NA,NA,NA,NA,NA,NA,NA,1,0,0.07820689842618746,NA,NA,NA,NA,NA,NA,NA,NA,0.484178563952446,1,1,NA,NA,NA,NA,NA,NA,NA,NA,1,2018-03-10,2018-03-25,NA,NA,NA,NA,NA,NA,NA,NA,2018-04-23,2018-03-24,2018-04-22,NA,NA,NA,NA,NA,NA,NA,NA,2018-05-06,69,84,NA,NA,NA,NA,NA,NA,NA,NA,113,15,29,0,0,0,0,0,0,0,0,14,83,112,NA,NA,NA,NA,NA,NA,NA,NA,126
